 Entering Gaussian System
 *********************************************
 Gaussian 98:
 frequency output generated by the xtb code
 *********************************************
                         Standard orientation:
 --------------------------------------------------------------------
  Center     Atomic     Atomic              Coordinates (Angstroms)
  Number     Number      Type              X           Y           Z
 --------------------------------------------------------------------
    1          6             0       -2.178344   -0.984430    0.322262
    2          8             0       -1.589763   -0.043561   -0.554269
    3          6             0       -0.807922    0.947570    0.072950
    4          6             0        0.534761    0.457813    0.621881
    5          8             0        1.370078    0.092522   -0.456912
    6          6             0        2.633939   -0.378421   -0.042217
    7          1             0       -2.865013   -1.566590   -0.287348
    8          1             0       -2.729538   -0.477524    1.121635
    9          1             0       -1.432852   -1.652224    0.763227
   10          1             0       -0.616010    1.685679   -0.707977
   11          1             0       -1.373768    1.410995    0.893440
   12          1             0        0.392720   -0.400822    1.293897
   13          1             0        0.997832    1.273076    1.197312
   14          1             0        2.534646   -1.275139    0.579728
   15          1             0        3.170581    0.391476    0.523322
   16          1             0        3.180668   -0.618889   -0.950064
 --------------------------------------------------------------------
     1 basis functions        1 primitive gaussians
     1 alpha electrons        1 beta electrons
 
 Harmonic frequencies (cm**-1), IR intensities (km*mol⁻¹),
 Raman scattering activities (A**4/amu), Raman depolarization ratios,
 reduced masses (AMU), force constants (mDyne/A) and normal coordinates:
                      1                      2                      3
                        a                      a                      a 
 Frequencies --    35.8131                77.5445               112.2835
 Red. masses --     8.9102                 9.6760                 6.0154
 Frc consts  --     0.0000                 0.0000                 0.0000
 IR Inten    --     2.2441                 6.3972                 2.2027
 Raman Activ --     0.0000                 0.0000                 0.0000
 Depolar     --     0.0000                 0.0000                 0.0000
 Atom AN      X      Y      Z        X      Y      Z        X      Y      Z
   1   6     0.48  -0.23  -0.12    -0.13   0.09  -0.07     0.10  -0.04   0.14
   2   8    -0.01   0.22  -0.01    -0.12   0.16  -0.01    -0.36   0.13   0.02
   3   6    -0.06   0.19   0.04     0.06  -0.03   0.05     0.01  -0.01  -0.20
   4   6    -0.03   0.26   0.02     0.01  -0.21   0.02    -0.08  -0.19  -0.13
   5   8    -0.25  -0.26   0.04    -0.11  -0.53   0.03     0.21   0.12  -0.04
   6   6    -0.19  -0.16   0.04     0.25   0.43  -0.01     0.08   0.02   0.18
   7   1     0.07  -0.01  -0.01    -0.09   0.09  -0.02    -0.25   0.19   0.16
   8   1     0.23  -0.18   0.10     0.02   0.01   0.03     0.36  -0.05   0.29
   9   1     0.22  -0.10  -0.22    -0.05  -0.03  -0.09     0.06  -0.20  -0.30
  10   1    -0.04   0.07   0.02     0.04  -0.00   0.03     0.04  -0.05  -0.09
  11   1    -0.02   0.03   0.03     0.04  -0.00   0.03     0.05   0.07  -0.07
  12   1    -0.00   0.15   0.11    -0.02  -0.03   0.04    -0.06  -0.10  -0.11
  13   1     0.03   0.12  -0.10     0.04  -0.06  -0.03    -0.05  -0.10   0.05
  14   1    -0.05   0.03   0.12     0.25   0.23   0.19    -0.02  -0.07  -0.06
  15   1    -0.01   0.01  -0.11     0.01   0.31  -0.20    -0.04  -0.05   0.19
  16   1    -0.10  -0.17   0.01     0.03   0.02   0.00     0.11   0.12   0.08
                      4                      5                      6
                        a                      a                      a 
 Frequencies --   210.0977               222.5600               257.8266
 Red. masses --     4.6545                 7.6125                 7.1197
 Frc consts  --     0.0000                 0.0000                 0.0000
 IR Inten    --     3.8271                 6.4390                 3.3591
 Raman Activ --     0.0000                 0.0000                 0.0000
 Depolar     --     0.0000                 0.0000                 0.0000
 Atom AN      X      Y      Z        X      Y      Z        X      Y      Z
   1   6    -0.22   0.01  -0.06    -0.03  -0.12  -0.02     0.30   0.10   0.13
   2   8     0.22  -0.22  -0.02    -0.37   0.19   0.10     0.03   0.04  -0.13
   3   6     0.00  -0.09   0.03    -0.06  -0.02   0.08     0.09   0.04  -0.20
   4   6     0.04   0.11   0.11     0.06  -0.07  -0.23    -0.24  -0.34   0.21
   5   8     0.04   0.26   0.07     0.31   0.17  -0.18    -0.14   0.17   0.18
   6   6    -0.03  -0.06  -0.09     0.08  -0.08   0.19    -0.08   0.03  -0.15
   7   1    -0.32   0.26   0.03     0.16  -0.17  -0.06     0.16  -0.10   0.08
   8   1     0.20   0.06   0.12    -0.18  -0.11  -0.07     0.02   0.05  -0.02
   9   1    -0.17  -0.24  -0.21     0.07   0.11   0.09     0.14   0.14   0.11
  10   1    -0.01  -0.02   0.01    -0.08   0.04   0.05     0.17  -0.08  -0.11
  11   1    -0.04  -0.04  -0.01     0.05  -0.05   0.09    -0.01   0.13  -0.15
  12   1     0.03   0.02   0.02     0.04  -0.06  -0.11    -0.16  -0.20  -0.09
  13   1    -0.02   0.04   0.04    -0.01  -0.04  -0.01    -0.08  -0.21   0.23
  14   1    -0.06   0.16   0.23    -0.10   0.17   0.32    -0.01   0.09   0.08
  15   1     0.19   0.05  -0.31     0.15   0.06  -0.17     0.10   0.04  -0.21
  16   1    -0.17  -0.35  -0.04    -0.03  -0.37   0.12    -0.16  -0.15  -0.08
                      7                      8                      9
                        a                      a                      a 
 Frequencies --   333.2644               428.3506               529.5026
 Red. masses --     9.8830                 8.1563                 9.1973
 Frc consts  --     0.0000                 0.0000                 0.0000
 IR Inten    --     7.5701                 3.3299                12.6637
 Raman Activ --     0.0000                 0.0000                 0.0000
 Depolar     --     0.0000                 0.0000                 0.0000
 Atom AN      X      Y      Z        X      Y      Z        X      Y      Z
   1   6     0.15   0.16   0.08     0.18   0.28   0.10    -0.02  -0.08   0.02
   2   8     0.38  -0.08  -0.04    -0.12  -0.02  -0.43     0.26  -0.08   0.19
   3   6    -0.01   0.02   0.18    -0.31  -0.20   0.13    -0.29   0.45  -0.02
   4   6    -0.03  -0.21  -0.21    -0.08   0.02  -0.00    -0.31   0.03  -0.21
   5   8    -0.15  -0.01  -0.39     0.13  -0.04   0.15     0.16  -0.13   0.08
   6   6    -0.30   0.13   0.25     0.19  -0.08  -0.06     0.28  -0.10  -0.05
   7   1    -0.02   0.08   0.07    -0.02  -0.02   0.21     0.00   0.04  -0.07
   8   1     0.10   0.12   0.02     0.15   0.19   0.03    -0.03  -0.04  -0.01
   9   1    -0.00   0.00   0.03     0.11   0.15   0.04    -0.07  -0.09   0.02
  10   1    -0.06   0.11   0.14    -0.19   0.16   0.22    -0.21   0.16  -0.00
  11   1    -0.01  -0.13   0.12    -0.12  -0.31   0.16    -0.08   0.04   0.05
  12   1    -0.02  -0.13  -0.15     0.04   0.04   0.05    -0.31  -0.06  -0.19
  13   1     0.06  -0.16   0.02    -0.09   0.08  -0.05    -0.03  -0.15   0.11
  14   1    -0.17   0.09   0.14     0.09  -0.04  -0.04     0.13  -0.05  -0.03
  15   1    -0.18   0.09   0.10     0.09  -0.04  -0.03     0.11  -0.03  -0.04
  16   1     0.06  -0.03   0.18    -0.01  -0.00  -0.06     0.01   0.00  -0.06
                     10                     11                     12
                        a                      a                      a 
 Frequencies --   851.7074               875.1530               988.4181
 Red. masses --     7.4890                 9.4008                 8.6583
 Frc consts  --     0.0000                 0.0000                 0.0000
 IR Inten    --     2.8798                56.7854                27.7692
 Raman Activ --     0.0000                 0.0000                 0.0000
 Depolar     --     0.0000                 0.0000                 0.0000
 Atom AN      X      Y      Z        X      Y      Z        X      Y      Z
   1   6    -0.11  -0.15   0.10    -0.14  -0.19   0.07     0.24   0.36  -0.25
   2   8    -0.12  -0.04  -0.14    -0.14  -0.14  -0.36    -0.18  -0.18   0.29
   3   6     0.38   0.09  -0.22    -0.10   0.38   0.15    -0.17  -0.23  -0.10
   4   6     0.26   0.11  -0.15     0.25   0.12   0.37     0.24   0.25   0.15
   5   8    -0.07  -0.01   0.31     0.01  -0.06  -0.23    -0.02  -0.07  -0.03
   6   6    -0.22   0.08  -0.01     0.08  -0.04  -0.02    -0.01  -0.02  -0.03
   7   1    -0.03  -0.06   0.05    -0.09  -0.15   0.18     0.08   0.12  -0.12
   8   1    -0.02  -0.03   0.02     0.04   0.03   0.02     0.01   0.02  -0.04
   9   1    -0.01  -0.02   0.03     0.04   0.04   0.02     0.01   0.03  -0.05
  10   1    -0.22   0.27   0.10     0.07   0.03   0.00    -0.24  -0.14  -0.14
  11   1     0.19  -0.31   0.19    -0.17   0.13  -0.10    -0.06  -0.05  -0.03
  12   1    -0.22  -0.03  -0.15     0.00  -0.08  -0.06    -0.14  -0.09  -0.19
  13   1     0.11  -0.13   0.16     0.26  -0.16   0.20     0.15  -0.17   0.28
  14   1     0.02  -0.00  -0.02    -0.03   0.02   0.03     0.00   0.01   0.02
  15   1    -0.01   0.01  -0.02    -0.06   0.03   0.03    -0.07   0.03   0.00
  16   1    -0.14   0.06  -0.06     0.15  -0.05   0.08     0.07  -0.01   0.04
                     13                     14                     15
                        a                      a                      a 
 Frequencies --  1018.5083              1056.7268              1090.3839
 Red. masses --     8.9081                 8.2274                11.9698
 Frc consts  --     0.0000                 0.0000                 0.0000
 IR Inten    --    48.9676                59.5128               103.3360
 Raman Activ --     0.0000                 0.0000                 0.0000
 Depolar     --     0.0000                 0.0000                 0.0000
 Atom AN      X      Y      Z        X      Y      Z        X      Y      Z
   1   6    -0.03  -0.05   0.12    -0.02  -0.01  -0.19    -0.12  -0.12   0.13
   2   8     0.02   0.12   0.00    -0.07  -0.09  -0.03     0.17   0.28  -0.07
   3   6     0.26  -0.16  -0.19     0.27  -0.12   0.41     0.02  -0.30   0.06
   4   6    -0.26   0.16   0.26    -0.16   0.27  -0.29    -0.23   0.34   0.12
   5   8    -0.29   0.09  -0.26    -0.25   0.06  -0.01     0.47  -0.23  -0.11
   6   6     0.38  -0.15  -0.05     0.20  -0.10   0.15    -0.34   0.06  -0.11
   7   1     0.04   0.05  -0.08    -0.10  -0.16   0.21    -0.00  -0.05   0.03
   8   1    -0.06  -0.06   0.03     0.12   0.15  -0.05    -0.01  -0.03   0.04
   9   1    -0.04  -0.06   0.01     0.07   0.11   0.02     0.04   0.02  -0.02
  10   1    -0.02   0.14   0.11     0.13  -0.22  -0.06     0.09  -0.08   0.03
  11   1     0.05  -0.23   0.06     0.12   0.17   0.02    -0.06  -0.01  -0.06
  12   1    -0.18   0.04   0.03    -0.17  -0.01  -0.20    -0.14  -0.04  -0.16
  13   1    -0.14   0.05   0.09    -0.03  -0.05   0.08    -0.11  -0.02   0.19
  14   1    -0.06   0.04   0.05     0.14  -0.05  -0.00     0.06   0.01   0.01
  15   1    -0.08   0.03   0.05     0.07  -0.00  -0.03    -0.10   0.06  -0.05
  16   1     0.33  -0.12   0.15    -0.09   0.05  -0.07    -0.03   0.05  -0.01
                     16                     17                     18
                        a                      a                      a 
 Frequencies --  1103.4980              1122.4878              1129.3752
 Red. masses --    10.7496                 4.2698                 4.5716
 Frc consts  --     0.0000                 0.0000                 0.0000
 IR Inten    --    69.4477                15.0882                 1.8560
 Raman Activ --     0.0000                 0.0000                 0.0000
 Depolar     --     0.0000                 0.0000                 0.0000
 Atom AN      X      Y      Z        X      Y      Z        X      Y      Z
   1   6    -0.17  -0.10   0.23     0.27  -0.31   0.00     0.05   0.11   0.01
   2   8     0.28   0.34  -0.09    -0.09   0.25  -0.02    -0.11  -0.19  -0.02
   3   6    -0.32  -0.23  -0.12    -0.10  -0.06  -0.04     0.09   0.14   0.03
   4   6     0.30   0.03  -0.16     0.08   0.01  -0.00    -0.05  -0.04   0.01
   5   8    -0.32   0.11   0.07    -0.02   0.03   0.03     0.09   0.19  -0.03
   6   6     0.16  -0.14   0.16    -0.01  -0.07  -0.00    -0.15  -0.36   0.04
   7   1     0.06  -0.01  -0.06    -0.15   0.17   0.01     0.06   0.07  -0.09
   8   1    -0.05  -0.14   0.11     0.07   0.42  -0.31    -0.06  -0.09   0.03
   9   1     0.08   0.03  -0.09    -0.36  -0.27   0.41    -0.01  -0.03  -0.04
  10   1    -0.00  -0.06  -0.03    -0.01  -0.03  -0.02     0.09   0.08   0.07
  11   1    -0.12   0.02  -0.10     0.01   0.03   0.00    -0.02  -0.03   0.00
  12   1     0.16  -0.12  -0.17     0.04  -0.03  -0.04     0.09  -0.00   0.02
  13   1     0.05  -0.07   0.11    -0.00  -0.00   0.03    -0.07   0.05  -0.03
  14   1     0.18  -0.05   0.03     0.08   0.00   0.03     0.53  -0.03   0.17
  15   1    -0.00   0.05  -0.04    -0.08   0.06  -0.03    -0.38   0.31  -0.20
  16   1    -0.08   0.08  -0.06     0.03   0.03   0.00     0.04   0.21  -0.02
                     19                     20                     21
                        a                      a                      a 
 Frequencies --  1137.3796              1178.5355              1215.1380
 Red. masses --     5.0777                 7.4256                 3.0044
 Frc consts  --     0.0000                 0.0000                 0.0000
 IR Inten    --    24.6269                13.0489                29.5183
 Raman Activ --     0.0000                 0.0000                 0.0000
 Depolar     --     0.0000                 0.0000                 0.0000
 Atom AN      X      Y      Z        X      Y      Z        X      Y      Z
   1   6    -0.16  -0.09  -0.21     0.07   0.07   0.18     0.01   0.00   0.15
   2   8     0.18   0.13   0.16    -0.07  -0.09  -0.21     0.03   0.09  -0.18
   3   6    -0.12  -0.00  -0.09    -0.02   0.01   0.25    -0.04  -0.16   0.14
   4   6     0.07  -0.14  -0.03     0.08   0.08  -0.32    -0.04  -0.10  -0.03
   5   8     0.03   0.08   0.20    -0.03  -0.05   0.37     0.06   0.16   0.01
   6   6    -0.04  -0.11  -0.25     0.01   0.02  -0.31    -0.01  -0.04  -0.01
   7   1    -0.13  -0.26   0.29     0.10   0.16  -0.19     0.06   0.07  -0.10
   8   1     0.16   0.13  -0.01    -0.12  -0.12   0.03    -0.07  -0.05   0.01
   9   1     0.15   0.21  -0.03    -0.07  -0.12  -0.02    -0.03  -0.07  -0.03
  10   1    -0.23  -0.06  -0.13     0.21  -0.08   0.04    -0.11  -0.17  -0.11
  11   1     0.18   0.07   0.10    -0.03   0.12  -0.04     0.02   0.07  -0.01
  12   1    -0.05   0.05   0.09     0.01  -0.03  -0.13    -0.51   0.26   0.25
  13   1    -0.07   0.04  -0.02    -0.14   0.02   0.08     0.51  -0.15  -0.25
  14   1    -0.03   0.09   0.11    -0.23   0.11   0.06     0.04   0.01   0.02
  15   1    -0.30   0.13   0.01    -0.19   0.02   0.09    -0.04   0.04  -0.02
  16   1     0.32  -0.06   0.15     0.32  -0.13   0.16     0.02   0.02   0.00
                     22                     23                     24
                        a                      a                      a 
 Frequencies --  1271.3664              1321.6392              1338.5749
 Red. masses --     3.3787                 3.3136                 4.0077
 Frc consts  --     0.0000                 0.0000                 0.0000
 IR Inten    --    24.9581                26.6471                 3.4627
 Raman Activ --     0.0000                 0.0000                 0.0000
 Depolar     --     0.0000                 0.0000                 0.0000
 Atom AN      X      Y      Z        X      Y      Z        X      Y      Z
   1   6    -0.02  -0.02  -0.17     0.00   0.01  -0.02     0.01   0.03  -0.03
   2   8    -0.03   0.03   0.28     0.01  -0.08   0.01     0.00  -0.07   0.02
   3   6     0.01  -0.07  -0.12    -0.25  -0.07  -0.18    -0.29  -0.02  -0.06
   4   6    -0.01   0.02  -0.17    -0.25   0.17   0.04     0.37  -0.06   0.03
   5   8     0.00   0.04   0.12     0.01   0.01   0.07     0.01  -0.01  -0.15
   6   6     0.01  -0.01  -0.06     0.01  -0.00  -0.03    -0.01   0.01   0.07
   7   1    -0.07  -0.10   0.12     0.01   0.01  -0.02     0.00  -0.03   0.03
   8   1     0.08   0.06  -0.00     0.01   0.01  -0.01    -0.00  -0.01  -0.00
   9   1     0.02   0.07   0.05     0.02   0.01  -0.01    -0.01  -0.02  -0.01
  10   1     0.45   0.19   0.27     0.35   0.09   0.16     0.39   0.09   0.19
  11   1    -0.49  -0.24  -0.24     0.51   0.10   0.29     0.24   0.11   0.13
  12   1    -0.11   0.06   0.01     0.26  -0.08  -0.07    -0.50   0.15   0.09
  13   1     0.25  -0.09  -0.10     0.41  -0.18  -0.04    -0.34   0.14   0.12
  14   1    -0.03   0.03   0.03     0.01   0.01   0.02    -0.02  -0.02  -0.03
  15   1    -0.05   0.01   0.02     0.01  -0.02   0.02     0.00   0.03  -0.04
  16   1     0.05  -0.01   0.02     0.04  -0.01   0.02    -0.09   0.04  -0.04
                     25                     26                     27
                        a                      a                      a 
 Frequencies --  1390.8612              1393.2879              1422.3819
 Red. masses --     2.3944                 2.4668                 1.8711
 Frc consts  --     0.0000                 0.0000                 0.0000
 IR Inten    --     1.2542                 0.1350                 1.1700
 Raman Activ --     0.0000                 0.0000                 0.0000
 Depolar     --     0.0000                 0.0000                 0.0000
 Atom AN      X      Y      Z        X      Y      Z        X      Y      Z
   1   6     0.17   0.22  -0.14     0.04   0.06  -0.03    -0.02  -0.03   0.03
   2   8     0.06   0.09  -0.05     0.02   0.02  -0.02     0.02   0.05   0.00
   3   6    -0.02  -0.01  -0.01     0.00   0.00  -0.01    -0.08   0.26   0.00
   4   6     0.01   0.00   0.02    -0.06   0.02   0.03     0.00   0.01  -0.01
   5   8    -0.03   0.01   0.01     0.10  -0.04   0.01     0.00  -0.00  -0.01
   6   6    -0.08   0.03  -0.00     0.30  -0.11   0.01    -0.01   0.01   0.01
   7   1    -0.16  -0.25   0.45    -0.04  -0.06   0.11    -0.01   0.04  -0.03
   8   1    -0.25  -0.47   0.12    -0.07  -0.12   0.03    -0.00   0.02  -0.01
   9   1    -0.34  -0.28   0.16    -0.09  -0.07   0.04     0.03   0.03  -0.00
  10   1    -0.00  -0.04  -0.04    -0.02  -0.02  -0.03     0.31  -0.46  -0.38
  11   1     0.01  -0.03   0.02     0.01  -0.03   0.02    -0.05  -0.60   0.32
  12   1     0.01  -0.04  -0.05     0.05  -0.01   0.01    -0.00   0.02   0.02
  13   1     0.02   0.02  -0.05     0.03  -0.02   0.01    -0.02  -0.00   0.03
  14   1     0.13  -0.02  -0.01    -0.49   0.10   0.07     0.01  -0.01  -0.02
  15   1     0.12  -0.07  -0.02    -0.44   0.26   0.07     0.01  -0.00  -0.01
  16   1     0.11  -0.03   0.08    -0.42   0.14  -0.31     0.00  -0.01   0.01
                     28                     29                     30
                        a                      a                      a 
 Frequencies --  1456.5131              1457.9635              1469.9873
 Red. masses --     1.6186                 1.5294                 1.6881
 Frc consts  --     0.0000                 0.0000                 0.0000
 IR Inten    --     1.7832                 6.3071                 8.7141
 Raman Activ --     0.0000                 0.0000                 0.0000
 Depolar     --     0.0000                 0.0000                 0.0000
 Atom AN      X      Y      Z        X      Y      Z        X      Y      Z
   1   6    -0.17   0.11  -0.04    -0.01   0.01  -0.00     0.06   0.00   0.12
   2   8    -0.02   0.02  -0.02    -0.00   0.00  -0.00     0.00  -0.01   0.04
   3   6    -0.00   0.02   0.01    -0.00  -0.00   0.00    -0.01   0.01  -0.01
   4   6     0.03  -0.01   0.10     0.01  -0.00   0.01     0.05  -0.01   0.17
   5   8    -0.01   0.00   0.03     0.01   0.03   0.00    -0.02   0.01   0.03
   6   6    -0.00  -0.02  -0.02     0.07   0.20  -0.01     0.01  -0.01  -0.09
   7   1     0.46  -0.36  -0.18     0.03  -0.02  -0.01    -0.07  -0.04   0.13
   8   1     0.46   0.11   0.26     0.03   0.00   0.02    -0.28   0.17  -0.30
   9   1    -0.27  -0.23   0.10    -0.02  -0.01   0.01     0.13  -0.10  -0.37
  10   1     0.01  -0.03  -0.02     0.00   0.00   0.00     0.02  -0.00  -0.00
  11   1     0.00  -0.02   0.02     0.00   0.01  -0.00    -0.01  -0.02   0.01
  12   1    -0.07  -0.15  -0.21    -0.02  -0.02  -0.03    -0.15  -0.25  -0.36
  13   1     0.02   0.15  -0.23     0.01   0.02  -0.03     0.03   0.25  -0.38
  14   1    -0.02   0.04   0.05     0.32  -0.21  -0.27     0.07   0.13   0.20
  15   1     0.02  -0.02   0.01    -0.37   0.06   0.28    -0.02  -0.13   0.20
  16   1     0.01   0.06  -0.01    -0.25  -0.67   0.03    -0.07   0.03  -0.06
                     31                     32                     33
                        a                      a                      a 
 Frequencies --  1477.6333              1479.9817              2848.2631
 Red. masses --     1.5820                 1.6277                 1.9487
 Frc consts  --     0.0000                 0.0000                 0.0000
 IR Inten    --     5.6345                 1.8242                87.7639
 Raman Activ --     0.0000                 0.0000                 0.0000
 Depolar     --     0.0000                 0.0000                 0.0000
 Atom AN      X      Y      Z        X      Y      Z        X      Y      Z
   1   6    -0.01  -0.08  -0.11    -0.02   0.09   0.08     0.00  -0.00   0.00
   2   8     0.00  -0.01  -0.04    -0.00   0.02   0.02     0.00  -0.00  -0.00
   3   6    -0.00   0.00   0.01     0.01  -0.00  -0.01     0.01  -0.01  -0.01
   4   6     0.02  -0.01   0.04    -0.04   0.01  -0.14     0.11   0.27   0.01
   5   8    -0.02   0.00  -0.05    -0.00  -0.00  -0.07     0.00   0.01   0.00
   6   6     0.00  -0.01  -0.16    -0.00   0.00  -0.11     0.00   0.01  -0.00
   7   1    -0.13   0.24  -0.09     0.18  -0.27   0.06     0.00  -0.00   0.00
   8   1     0.12  -0.21   0.22    -0.03   0.18  -0.13    -0.00   0.00   0.00
   9   1     0.02   0.27   0.37    -0.09  -0.28  -0.28    -0.01   0.01  -0.00
  10   1    -0.01  -0.01  -0.01     0.00   0.00   0.00     0.01   0.02  -0.03
  11   1     0.02   0.01   0.01    -0.02  -0.01  -0.01    -0.05   0.04   0.07
  12   1    -0.06  -0.02  -0.03     0.14   0.22   0.32    -0.06  -0.42   0.36
  13   1    -0.02   0.04  -0.04    -0.05  -0.21   0.35    -0.33  -0.56  -0.41
  14   1     0.19   0.25   0.39     0.17   0.17   0.27     0.00  -0.03   0.02
  15   1    -0.00  -0.29   0.40     0.01  -0.22   0.30    -0.02  -0.01  -0.01
  16   1    -0.14   0.06  -0.11    -0.10   0.02  -0.08    -0.00   0.00   0.00
                     34                     35                     36
                        a                      a                      a 
 Frequencies --  2870.9457              2883.0645              2901.8399
 Red. masses --     1.6931                 1.4433                 1.9370
 Frc consts  --     0.0000                 0.0000                 0.0000
 IR Inten    --    71.0923                83.5858                73.9227
 Raman Activ --     0.0000                 0.0000                 0.0000
 Depolar     --     0.0000                 0.0000                 0.0000
 Atom AN      X      Y      Z        X      Y      Z        X      Y      Z
   1   6     0.01  -0.00   0.00    -0.01   0.01  -0.00    -0.00   0.00   0.00
   2   8    -0.00  -0.01  -0.01     0.00   0.00   0.00    -0.00  -0.00   0.00
   3   6     0.14  -0.09  -0.18    -0.03   0.03   0.04     0.00  -0.00  -0.00
   4   6     0.01  -0.04   0.03     0.05  -0.05   0.18     0.00   0.01  -0.00
   5   8    -0.00   0.00   0.01    -0.01   0.00   0.02    -0.00  -0.01   0.00
   6   6     0.00  -0.00  -0.00    -0.00  -0.01  -0.02    -0.10  -0.27   0.02
   7   1    -0.01  -0.01  -0.01     0.00   0.00   0.00    -0.00  -0.00  -0.00
   8   1    -0.02   0.01   0.02     0.00  -0.00  -0.01     0.00  -0.00  -0.01
   9   1    -0.01   0.01  -0.01     0.04  -0.04   0.02    -0.00   0.00  -0.00
  10   1     0.02  -0.02  -0.01    -0.01  -0.02   0.03    -0.00   0.00  -0.00
  11   1    -0.49   0.39   0.70     0.11  -0.09  -0.16    -0.00   0.00   0.00
  12   1     0.03   0.18  -0.13     0.12   0.61  -0.43    -0.00  -0.03   0.02
  13   1    -0.02  -0.05  -0.02    -0.24  -0.46  -0.27    -0.01  -0.01  -0.01
  14   1    -0.00   0.00  -0.00    -0.01  -0.02   0.01     0.06   0.56  -0.42
  15   1     0.00   0.00   0.00     0.02   0.04   0.03     0.31   0.44   0.36
  16   1    -0.00   0.00   0.00    -0.01   0.00   0.01    -0.02  -0.05   0.00
                     37                     38                     39
                        a                      a                      a 
 Frequencies --  2913.9143              2924.7991              2937.9937
 Red. masses --     1.8790                 1.4161                 1.4941
 Frc consts  --     0.0000                 0.0000                 0.0000
 IR Inten    --    66.7781                62.5995                61.3363
 Raman Activ --     0.0000                 0.0000                 0.0000
 Depolar     --     0.0000                 0.0000                 0.0000
 Atom AN      X      Y      Z        X      Y      Z        X      Y      Z
   1   6     0.19  -0.17  -0.11     0.01  -0.00   0.00     0.11  -0.07   0.16
   2   8     0.01   0.00  -0.01    -0.00  -0.00   0.00    -0.01  -0.01   0.02
   3   6    -0.01   0.00   0.01     0.00  -0.00  -0.00     0.00   0.01  -0.01
   4   6     0.00  -0.00   0.01    -0.00   0.00  -0.01     0.00  -0.00   0.01
   5   8     0.00  -0.00   0.00    -0.02   0.01  -0.01    -0.00   0.00   0.00
   6   6     0.00  -0.00   0.00    -0.05   0.00  -0.18     0.00   0.00   0.00
   7   1     0.02  -0.04  -0.03     0.00  -0.00  -0.00    -0.00  -0.03   0.00
   8   1    -0.42   0.40   0.64    -0.00   0.00   0.01     0.24  -0.22  -0.29
   9   1    -0.28   0.23  -0.19    -0.02   0.02  -0.01    -0.61   0.53  -0.33
  10   1     0.00   0.01  -0.00     0.00   0.00  -0.00    -0.01  -0.03   0.03
  11   1     0.02  -0.01  -0.03    -0.01   0.00   0.01     0.01  -0.01  -0.01
  12   1     0.00   0.02  -0.02    -0.01  -0.03   0.02     0.00   0.03  -0.02
  13   1    -0.01  -0.01  -0.01     0.01   0.03   0.02    -0.01  -0.02  -0.01
  14   1     0.00   0.01  -0.01    -0.08  -0.56   0.35     0.00   0.01  -0.00
  15   1    -0.00  -0.01  -0.00     0.35   0.52   0.34    -0.01  -0.01  -0.01
  16   1    -0.00  -0.00   0.00    -0.01  -0.00  -0.02    -0.00   0.00   0.00
                     40                     41                     42
                        a                      a                      a 
 Frequencies --  2987.7661              3033.2532              3038.3959
 Red. masses --     1.7345                 1.6989                 1.7146
 Frc consts  --     0.0000                 0.0000                 0.0000
 IR Inten    --    33.3091                18.8399                18.8350
 Raman Activ --     0.0000                 0.0000                 0.0000
 Depolar     --     0.0000                 0.0000                 0.0000
 Atom AN      X      Y      Z        X      Y      Z        X      Y      Z
   1   6    -0.00  -0.00  -0.01    -0.15  -0.14  -0.14    -0.00  -0.00  -0.00
   2   8     0.01   0.01  -0.00    -0.01  -0.01   0.00    -0.00  -0.00   0.00
   3   6     0.04   0.17  -0.19     0.00  -0.00   0.00    -0.00   0.00  -0.00
   4   6     0.00   0.02  -0.01     0.00  -0.00  -0.00    -0.00   0.00  -0.00
   5   8    -0.00   0.00  -0.00    -0.00   0.00   0.00     0.01  -0.00  -0.00
   6   6    -0.00   0.00  -0.00    -0.00   0.00   0.00     0.12  -0.05  -0.21
   7   1     0.01   0.01   0.00     0.61   0.51   0.55     0.01   0.01   0.01
   8   1    -0.02   0.01   0.02    -0.02  -0.01  -0.02    -0.00  -0.00  -0.00
   9   1     0.02  -0.02   0.01    -0.05   0.00  -0.04    -0.00   0.00  -0.00
  10   1    -0.17  -0.65   0.69     0.00   0.01  -0.01    -0.00  -0.00   0.00
  11   1     0.00   0.02  -0.03    -0.00   0.01   0.01    -0.00   0.00   0.00
  12   1    -0.01  -0.04   0.03     0.00   0.00  -0.00    -0.00  -0.01   0.01
  13   1    -0.00   0.00  -0.00     0.00   0.00   0.00     0.00   0.01   0.01
  14   1     0.00  -0.00   0.00    -0.00   0.00   0.00     0.01  -0.01  -0.03
  15   1     0.00   0.00   0.00    -0.00   0.00   0.00     0.01  -0.00  -0.03
  16   1     0.00  -0.00  -0.00     0.01  -0.00  -0.02    -0.48   0.21   0.81
