      -----------------------------------------------------------      
     |                   =====================                   |     
     |                           x T B                           |     
     |                   =====================                   |     
     |                         S. Grimme                         |     
     |          Mulliken Center for Theoretical Chemistry        |     
     |                    University of Bonn                     |     
      -----------------------------------------------------------      

   * xtb version 6.7.1 (edcfbbe) compiled by 'albert@albert-system' on 2024-07-22

   xtb is free software: you can redistribute it and/or modify it under
   the terms of the GNU Lesser General Public License as published by
   the Free Software Foundation, either version 3 of the License, or
   (at your option) any later version.
   
   xtb is distributed in the hope that it will be useful,
   but WITHOUT ANY WARRANTY; without even the implied warranty of
   MERCHANTABILITY or FITNESS FOR A PARTICULAR PURPOSE.  See the
   GNU Lesser General Public License for more details.
   
   Cite this work as:
   * C. Bannwarth, E. Caldeweyher, S. Ehlert, A. Hansen, P. Pracht,
     J. Seibert, S. Spicher, S. Grimme, WIREs Comput. Mol. Sci., 2020, 11,
     e01493. DOI: 10.1002/wcms.1493
   
   for GFN2-xTB:
   * C. Bannwarth, S. Ehlert and S. Grimme., J. Chem. Theory Comput., 2019,
     15, 1652-1671. DOI: 10.1021/acs.jctc.8b01176
   for GFN1-xTB:
   * S. Grimme, C. Bannwarth, P. Shushkov, J. Chem. Theory Comput., 2017,
     13, 1989-2009. DOI: 10.1021/acs.jctc.7b00118
   for GFN0-xTB:
   * P. Pracht, E. Caldeweyher, S. Ehlert, S. Grimme, ChemRxiv, 2019, preprint.
     DOI: 10.26434/chemrxiv.8326202.v1
   for GFN-FF:
   * S. Spicher and S. Grimme, Angew. Chem. Int. Ed., 2020, 59, 15665-15673.
     DOI: 10.1002/anie.202004239
   
   for ALPB and GBSA implicit solvation:
   * S. Ehlert, M. Stahn, S. Spicher, S. Grimme, J. Chem. Theory Comput.,
     2021, 17, 4250-4261. DOI: 10.1021/acs.jctc.1c00471
   
   for ddCOSMO and CPCM-X implicit solvation:
   * M. Stahn, S. Ehlert, S. Grimme, J. Phys. Chem. A,
     2023, XX, XXXX-XXXX. DOI: 10.1021/acs.jpca.3c04382
   
   for DFT-D4:
   * E. Caldeweyher, C. Bannwarth and S. Grimme, J. Chem. Phys., 2017,
     147, 034112. DOI: 10.1063/1.4993215
   * E. Caldeweyher, S. Ehlert, A. Hansen, H. Neugebauer, S. Spicher,
     C. Bannwarth and S. Grimme, J. Chem. Phys., 2019, 150, 154122.
     DOI: 10.1063/1.5090222
   * E. Caldeweyher, J.-M. Mewes, S. Ehlert and S. Grimme, Phys. Chem. Chem. Phys.
     2020, 22, 8499-8512. DOI: 10.1039/D0CP00502A
   
   for sTDA-xTB:
   * S. Grimme and C. Bannwarth, J. Chem. Phys., 2016, 145, 054103.
     DOI: 10.1063/1.4959605
   
   in the mass-spec context:
   * V. Asgeirsson, C. Bauer and S. Grimme, Chem. Sci., 2017, 8, 4879.
     DOI: 10.1039/c7sc00601b
   * J. Koopman and S. Grimme, ACS Omega 2019, 4, 12, 15120-15133.
     DOI: 10.1021/acsomega.9b02011
   
   for metadynamics refer to:
   * S. Grimme, J. Chem. Theory Comput., 2019, 155, 2847-2862
     DOI: 10.1021/acs.jctc.9b00143
   
   for SPH calculations refer to:
   * S. Spicher and S. Grimme, J. Chem. Theory Comput., 2021, 17, 1701-1714
     DOI: 10.1021/acs.jctc.0c01306
   
   for ONIOM refer to:
   * C. Plett, A. Katbashev, S. Ehlert, S. Grimme, M. Bursch,
     Phys. Chem. Chem. Phys., 2023, 25, 17860-17868. DOI: 10.1039/D3CP02178E
   
   for DIPRO refer to:
   * J. Kohn, N. Gildemeister, S. Grimme, D. Fazzi, A. Hansen,
     J. Chem. Phys., 2023, just accepted.
   
   for PTB refer to:
   * S. Grimme, M. Mueller, A. Hansen, J. Chem. Phys., 2023, 158, 124111.
     DOI: 10.1063/5.0137838
   
   with help from (in alphabetical order)
   P. Atkinson, C. Bannwarth, F. Bohle, G. Brandenburg, E. Caldeweyher
   M. Checinski, S. Dohm, S. Ehlert, S. Ehrlich, I. Gerasimov, C. Hölzer
   A. Katbashev, J. Kohn, J. Koopman, C. Lavigne, S. Lehtola, F. März, M. Müller,
   F. Musil, H. Neugebauer, J. Pisarek, C. Plett, P. Pracht, F. Pultar,
   J. Seibert, P. Shushkov, S. Spicher, M. Stahn, M. Steiner, T. Strunk,
   J. Stückrath, T. Rose, and J. Unsleber
   
 * started run on 2025/04/11 at 16:21:26.142     
   ID    Z sym.   atoms
    1    6 C      1-5, 7
    2    8 O      6
    3    1 H      8-19

           -------------------------------------------------
          |                Calculation Setup                |
           -------------------------------------------------

          program call               : /srv/scratch/z5358697/.xtb/bin/xtb xtb_rrho.coord --gfn2 --bhess vtight --chrg 0 --enso --norestart -I rrho-xcontrol-inp --parallel 1 --alpb water
          hostname                   : k065
          coordinate file            : xtb_rrho.coord
          omp threads                :                     1


           -------------------------------------------------
          |                 G F N 2 - x T B                 |
           -------------------------------------------------

        Reference                      10.1021/acs.jctc.8b01176
      * Hamiltonian:
        H0-scaling (s, p, d)           1.850000    2.230000    2.230000
        zeta-weighting                 0.500000
      * Dispersion:
        s8                             2.700000
        a1                             0.520000
        a2                             5.000000
        s9                             5.000000
      * Repulsion:
        kExp                           1.500000    1.000000
        rExp                           1.000000
      * Coulomb:
        alpha                          2.000000
        third order                    shell-resolved
        anisotropic                    true
        a3                             3.000000
        a5                             4.000000
        cn-shift                       1.200000
        cn-exp                         4.000000
        max-rad                        5.000000

      * Solvation model:               ALPB
        Solvent                        water
        Parameter file                 internal GFN2-xTB/ALPB
        Dielectric constant                8.0200E+01
        Reference state                gsolv [1 M gas/solution]
        Free energy shift                  1.0808E-03 Eh       6.7819E-01 kcal/mol
        Temperature                        2.9815E+02 K
        Density                            1.0000E+00 kg/L
        Solvent mass                       1.8000E+01 g/mol
        Interaction kernel             P16
        Born radius scaling (c1)           1.4744E+00
        Born radii integrator          GBOBC
        Born offset                        0.0000E+00 a0       0.0000E+00 AA
        H-bond correction              true
        Ion screening                  false
        Surface tension                    1.0000E-05 Eh       1.5569E+01 dyn/cm
        Grid points                               974 per atom

          ...................................................
          :                      SETUP                      :
          :.................................................:
          :  # basis functions                  40          :
          :  # atomic orbitals                  40          :
          :  # shells                           26          :
          :  # electrons                        42          :
          :  max. iterations                   250          :
          :  Hamiltonian                  GFN2-xTB          :
          :  restarted?                      false          :
          :  GBSA solvation                   true          :
          :  PC potential                    false          :
          :  electronic temp.          300.0000000     K    :
          :  accuracy                    1.0000000          :
          :  -> integral cutoff          0.2500000E+02      :
          :  -> integral neglect         0.1000000E-07      :
          :  -> SCF convergence          0.1000000E-05 Eh   :
          :  -> wf. convergence          0.1000000E-03 e    :
          :  Broyden damping             0.4000000          :
          :  net charge                          0          :
          :  unpaired electrons                  0          :
          ...................................................

 iter      E             dE          RMSdq      gap      omega  full diag
   1    -23.2558295 -0.232558E+02  0.378E+00    4.58       0.0  T
   2    -23.3211209 -0.652914E-01  0.180E+00    3.60       1.0  T
   3    -23.3248877 -0.376682E-02  0.108E+00    4.02       1.0  T
   4    -23.3270661 -0.217837E-02  0.187E-01    3.78       1.0  T
   5    -23.3273696 -0.303493E-03  0.708E-02    3.84       1.0  T
   6    -23.3273723 -0.272077E-05  0.177E-02    3.83       1.3  T
   7    -23.3273737 -0.136735E-05  0.506E-03    3.84       4.5  T
   8    -23.3273737 -0.334366E-07  0.206E-03    3.84      11.1  T
   9    -23.3273737 -0.885976E-08  0.685E-04    3.84      33.5  T
  10    -23.3273737 -0.114187E-08  0.162E-04    3.84     141.8  T

   *** convergence criteria satisfied after 10 iterations ***

         #    Occupation            Energy/Eh            Energy/eV
      -------------------------------------------------------------
         1        2.0000           -0.7108624             -19.3435
       ...           ...                  ...                  ...
        15        2.0000           -0.4681598             -12.7393
        16        2.0000           -0.4640801             -12.6283
        17        2.0000           -0.4528614             -12.3230
        18        2.0000           -0.4397839             -11.9671
        19        2.0000           -0.4293203             -11.6824
        20        2.0000           -0.4262926             -11.6000
        21        2.0000           -0.3977856             -10.8243 (HOMO)
        22                         -0.2567995              -6.9879 (LUMO)
        23                          0.0709335               1.9302
        24                          0.0908450               2.4720
        25                          0.1071829               2.9166
        26                          0.1251237               3.4048
       ...                                ...                  ...
        40                          0.5581481              15.1880
      -------------------------------------------------------------
                  HL-Gap            0.1409861 Eh            3.8364 eV
             Fermi-level           -0.3272926 Eh           -8.9061 eV

 SCC (total)                   0 d,  0 h,  0 min,  0.033 sec
 SCC setup                      ...        0 min,  0.001 sec (  3.978%)
 Dispersion                     ...        0 min,  0.000 sec (  0.341%)
 classical contributions        ...        0 min,  0.000 sec (  0.072%)
 integral evaluation            ...        0 min,  0.002 sec (  4.620%)
 iterations                     ...        0 min,  0.024 sec ( 74.201%)
 molecular gradient             ...        0 min,  0.005 sec ( 16.283%)
 printout                       ...        0 min,  0.000 sec (  0.459%)

         :::::::::::::::::::::::::::::::::::::::::::::::::::::
         ::                     SUMMARY                     ::
         :::::::::::::::::::::::::::::::::::::::::::::::::::::
         :: total energy             -23.030011444987 Eh    ::
         :: total w/o Gsasa/hb       -23.030376337696 Eh    ::
         :: gradient norm              0.030421944223 Eh/a0 ::
         :: HOMO-LUMO gap              3.836428062753 eV    ::
         ::.................................................::
         :: SCC energy               -23.327358745651 Eh    ::
         :: -> isotropic ES            0.042608881572 Eh    ::
         :: -> anisotropic ES          0.003257832684 Eh    ::
         :: -> anisotropic XC          0.011691339700 Eh    ::
         :: -> dispersion             -0.010774136362 Eh    ::
         :: -> Gsolv                  -0.008477371442 Eh    ::
         ::    -> Gelec               -0.008842264151 Eh    ::
         ::    -> Gsasa                0.001301445132 Eh    ::
         ::    -> Ghb                 -0.002017312121 Eh    ::
         ::    -> Gshift               0.001080759698 Eh    ::
         :: repulsion energy           0.297347300664 Eh    ::
         :: add. restraining           0.000000000000 Eh    ::
         :: total charge              -0.000000000000 e     ::
         :::::::::::::::::::::::::::::::::::::::::::::::::::::

metadynamics with 1 initial structures loaded
           -------------------------------------------------
          |           Optimal kpush determination           |
           -------------------------------------------------
      ----------------------------------------------------------- 
     |                   =====================                   |
     |                        A N C O P T                        |
     |                   =====================                   |
     |               Approximate Normal Coordinate               |
     |                Rational Function Optimizer                |
      ----------------------------------------------------------- 
target rmsd / Å         0.100000
unbiased initial rmsd   0.034615
 
iter. min.        max.        rmsd       kpush
final kpush:  0.000000
           -------------------------------------------------
          |            Biased Numerical Hessian             |
           -------------------------------------------------
kpush                :   0.00000
alpha                :   1.00000
step length          :   0.00500
SCC accuracy         :   0.30000
Hessian scale factor :   1.00000
frozen atoms in %    :   0.00000    0
RMS gradient         :   0.00004
estimated CPU  time      0.02 min
estimated wall time      0.02 min

writing file <hessian>.

 projected vibrational frequencies (cm⁻¹)
eigval :       -0.00    -0.00    -0.00    -0.00     0.00     0.00
eigval :       41.97    52.26   112.13   126.42   168.66   227.93
eigval :      283.05   385.34   422.77   522.05   575.58   783.18
eigval :      825.24   869.92   916.48   942.87   976.65  1001.00
eigval :     1014.78  1099.88  1110.80  1125.54  1177.36  1210.08
eigval :     1239.54  1264.43  1276.97  1341.89  1346.73  1356.77
eigval :     1413.13  1431.54  1443.38  1456.56  1481.30  1487.23
eigval :     1500.71  1505.49  1701.52  2965.07  2967.67  2982.80
eigval :     2984.87  3004.82  3007.88  3022.60  3028.71  3034.72
eigval :     3042.89  3046.26  3058.36
           -------------------------------------------------
          |                Property Printout                |
           -------------------------------------------------

    * Orbital Energies and Occupations

         #    Occupation            Energy/Eh            Energy/eV
      -------------------------------------------------------------
         1        2.0000           -0.7143126             -19.4374
       ...           ...                  ...                  ...
         9        2.0000           -0.5350817             -14.5603
        10        2.0000           -0.5249812             -14.2855
        11        2.0000           -0.5056792             -13.7602
        12        2.0000           -0.4924182             -13.3994
        13        2.0000           -0.4853879             -13.2081
        14        2.0000           -0.4726462             -12.8614
        15        2.0000           -0.4690307             -12.7630
        16        2.0000           -0.4641254             -12.6295
        17        2.0000           -0.4530201             -12.3273
        18        2.0000           -0.4395084             -11.9596
        19        2.0000           -0.4293134             -11.6822
        20        2.0000           -0.4267793             -11.6133
        21        2.0000           -0.3967210             -10.7953 (HOMO)
        22                         -0.2533836              -6.8949 (LUMO)
        23                          0.0761438               2.0720
        24                          0.0986547               2.6845
        25                          0.1142786               3.1097
        26                          0.1297216               3.5299
        27                          0.1414770               3.8498
        28                          0.1430303               3.8921
        29                          0.1675608               4.5596
        30                          0.1746520               4.7525
        31                          0.1865511               5.0763
        32                          0.2061239               5.6089
       ...                                ...                  ...
        40                          0.5975507              16.2602
      -------------------------------------------------------------
                  HL-Gap            0.1433374 Eh            3.9004 eV
             Fermi-level           -0.3250523 Eh           -8.8451 eV

     #   Z          covCN         q      C6AA      α(0)
     1   6 C        3.751    -0.113    22.722     6.798
     2   6 C        3.800    -0.060    21.662     6.627
     3   6 C        3.805    -0.051    21.489     6.599
     4   6 C        3.804    -0.094    22.291     6.721
     5   6 C        2.815     0.251    22.795     7.823
     6   8 O        0.857    -0.445    22.599     6.374
     7   6 C        3.754    -0.159    23.646     6.934
     8   1 H        0.925     0.037     2.489     2.467
     9   1 H        0.925     0.040     2.452     2.449
    10   1 H        0.925     0.041     2.442     2.444
    11   1 H        0.924     0.043     2.411     2.428
    12   1 H        0.924     0.040     2.443     2.444
    13   1 H        0.924     0.038     2.472     2.459
    14   1 H        0.924     0.038     2.470     2.458
    15   1 H        0.925     0.067     2.114     2.274
    16   1 H        0.925     0.066     2.129     2.282
    17   1 H        0.925     0.099     1.798     2.097
    18   1 H        0.925     0.072     2.059     2.244
    19   1 H        0.925     0.090     1.878     2.143

 Mol. C6AA /au·bohr⁶  :       2609.292889
 Mol. C8AA /au·bohr⁸  :      55866.711823
 Mol. α(0) /au        :         76.063009


Wiberg/Mayer (AO) data.
largest (>0.10) Wiberg bond orders for each atom

 ---------------------------------------------------------------------------
     #   Z sym  total        # sym  WBO       # sym  WBO       # sym  WBO
 ---------------------------------------------------------------------------
     1   6 C    3.996 --     2 C    1.021     8 H    0.987    10 H    0.986
                             9 H    0.986
     2   6 C    3.996 --     1 C    1.021     3 C    1.004    11 H    0.977
                            12 H    0.976
     3   6 C    3.993 --     2 C    1.004    14 H    0.978    13 H    0.977
                             4 C    0.972
     4   6 C    3.994 --     5 C    0.997     3 C    0.972    15 H    0.970
                            16 H    0.964
     5   6 C    3.895 --     6 O    1.804     7 C    1.024     4 C    0.997
     6   8 O    2.009 --     5 C    1.804
     7   6 C    3.990 --     5 C    1.024    18 H    0.981    19 H    0.958
                            17 H    0.944
     8   1 H    0.999 --     1 C    0.987
     9   1 H    0.998 --     1 C    0.986
    10   1 H    0.998 --     1 C    0.986
    11   1 H    0.998 --     2 C    0.977
    12   1 H    0.998 --     2 C    0.976
    13   1 H    0.999 --     3 C    0.977
    14   1 H    0.999 --     3 C    0.978
    15   1 H    0.995 --     4 C    0.970
    16   1 H    0.996 --     4 C    0.964
    17   1 H    0.990 --     7 C    0.944
    18   1 H    0.995 --     7 C    0.981
    19   1 H    0.992 --     7 C    0.958
 ---------------------------------------------------------------------------

Topologies differ in total number of bonds
Writing topology from bond orders to xtbtopo.mol

molecular dipole:
                 x           y           z       tot (Debye)
 q only:        0.513       1.505      -0.078
   full:        0.515       1.574      -0.085       4.215
molecular quadrupole (traceless):
                xx          xy          yy          xz          yz          zz
 q only:        1.060      -7.816      -2.547       0.039      -0.003       1.487
  q+dip:        0.288      -8.590      -2.497       0.234      -0.394       2.209
   full:        0.375      -8.610      -3.203       0.525      -0.207       2.828

           -------------------------------------------------
          |                Geometry Summary                 |
           -------------------------------------------------

      molecular mass/u    :      100.1591093
   center of mass at/Å    :        0.0000615      -0.0003139       0.0038141
  moments of inertia/u·Å² :        0.8778932E+02   0.4184187E+03   0.4581031E+03
rotational constants/cm⁻¹ :        0.1920237E+00   0.4028891E-01   0.3679877E-01

 * 16 selected distances

     #   Z          #   Z                                           value/Å
     1   6 C        2   6 C                                       1.5241715
     2   6 C        3   6 C                                       1.5287683
     3   6 C        4   6 C                                       1.5372546 (max)
     5   6 C        6   8 O                                       1.2165661
     1   6 C        8   1 H                                       1.0877736
     1   6 C        9   1 H                                       1.0866181
     1   6 C       10   1 H                                       1.0871491
     2   6 C       11   1 H                                       1.0916675
     2   6 C       12   1 H                                       1.0919819
     3   6 C       13   1 H                                       1.0921874
     3   6 C       14   1 H                                       1.0922130
     4   6 C       15   1 H                                       1.0889803
     4   6 C       16   1 H                                       1.0898695
     7   6 C       17   1 H                                       1.0882950
     7   6 C       18   1 H                                       1.0863471 (min)
     7   6 C       19   1 H                                       1.0863784

 * 3 distinct bonds (by element types)

   Z      Z             #   av. dist./Å        max./Å        min./Å
   1 H    6 C          12     1.0891217     1.0922130     1.0863471
   6 C    6 C           3     1.5300648     1.5372546     1.5241715
   6 C    8 O           1     1.2165661     1.2165661     1.2165661

           -------------------------------------------------
          |               Frequency Printout                |
           -------------------------------------------------
 projected vibrational frequencies (cm⁻¹)
eigval :       -0.00    -0.00    -0.00    -0.00     0.00     0.00
eigval :       41.97    52.26   112.13   126.42   168.66   227.93
eigval :      283.05   385.34   422.77   522.05   575.58   783.18
eigval :      825.24   869.92   916.48   942.87   976.65  1001.00
eigval :     1014.78  1099.88  1110.80  1125.54  1177.36  1210.08
eigval :     1239.54  1264.43  1276.97  1341.89  1346.73  1356.77
eigval :     1413.13  1431.54  1443.38  1456.56  1481.30  1487.23
eigval :     1500.71  1505.49  1701.52  2965.07  2967.67  2982.80
eigval :     2984.87  3004.82  3007.88  3022.60  3028.71  3034.72
eigval :     3042.89  3046.26  3058.36
 reduced masses (amu)
   1:  8.65   2: 11.20   3: 12.13   4: 10.21   5: 11.31   6: 11.72   7:  9.09   8: 10.05
   9:  6.59  10:  1.89  11:  8.28  12:  5.96  13:  6.37  14:  8.34  15:  8.47  16: 10.21
  17:  8.95  18:  3.17  19:  3.14  20:  9.01  21:  7.41  22:  5.37  23:  5.34  24:  5.74
  25:  6.01  26:  5.64  27:  6.55  28:  7.82  29:  7.13  30:  6.85  31:  4.15  32:  2.99
  33:  2.73  34:  4.19  35:  4.78  36:  3.25  37:  3.23  38:  1.92  39:  1.63  40:  2.16
  41:  1.88  42:  1.91  43:  1.60  44:  1.54  45: 13.18  46:  1.94  47:  1.91  48:  1.57
  49:  1.49  50:  1.48  51:  2.02  52:  1.81  53:  1.88  54:  1.90  55:  1.50  56:  1.36
  57:  1.86
 IR intensities (km·mol⁻¹)
   1:  3.89   2:  1.41   3:  1.44   4:  0.42   5:  0.48   6:  1.62   7:  3.58   8:  4.59
   9:  0.28  10:  3.17  11:  0.40  12:  0.17  13:  0.11  14:  2.46  15:  1.64  16: 27.42
  17:  5.16  18: 13.40  19:  4.98  20:  6.19  21:  0.96  22:  8.15  23: 16.52  24:  6.56
  25: 11.37  26: 16.07  27: 11.91  28:  2.82  29: 83.16  30:115.29  31: 38.35  32: 29.90
  33: 14.51  34: 23.17  35:  2.32  36: 66.44  37:  2.58  38: 25.21  39:  9.68  40:  5.75
  41:  0.67  42:  1.34  43:  0.88  44:  1.41  45:563.44  46: 40.30  47: 47.35  48: 76.32
  49: 67.27  50: 28.48  51: 54.88  52:  4.11  53: 84.78  54: 77.55  55:  5.70  56: 44.65
  57: 25.38
 Raman intensities (Ä⁴*amu⁻¹)
   1:  0.00   2:  0.00   3:  0.00   4:  0.00   5:  0.00   6:  0.00   7:  0.00   8:  0.00
   9:  0.00  10:  0.00  11:  0.00  12:  0.00  13:  0.00  14:  0.00  15:  0.00  16:  0.00
  17:  0.00  18:  0.00  19:  0.00  20:  0.00  21:  0.00  22:  0.00  23:  0.00  24:  0.00
  25:  0.00  26:  0.00  27:  0.00  28:  0.00  29:  0.00  30:  0.00  31:  0.00  32:  0.00
  33:  0.00  34:  0.00  35:  0.00  36:  0.00  37:  0.00  38:  0.00  39:  0.00  40:  0.00
  41:  0.00  42:  0.00  43:  0.00  44:  0.00  45:  0.00  46:  0.00  47:  0.00  48:  0.00
  49:  0.00  50:  0.00  51:  0.00  52:  0.00  53:  0.00  54:  0.00  55:  0.00  56:  0.00
  57:  0.00
 output can be read by thermo (or use thermo option).
 writing <g98.out> molden fake output.
 recommended (thermochemical) frequency scaling factor: 1.0
           -------------------------------------------------
          |             Thermodynamic Functions             |
           -------------------------------------------------

Molecule has no symmetry elements
It seems to be the C1 point group
c1  symmetry found (for desy threshold:  0.10E+00) used in thermo

          ...................................................
          :                      SETUP                      :
          :.................................................:
          :  # frequencies                          51      :
          :  # imaginary freq.                       0      :
          :  linear?                             false      :
          :  only rotor calc.                    false      :
          :  symmetry                               c1      :
          :  rotational number                       1      :
          :  scaling factor                  1.0000000      :
          :  rotor cutoff                    0.0000000 cm⁻¹ :
          :  imag. cutoff                 -100.0000000 cm⁻¹ :
          :.................................................:

    mode    ω/cm⁻¹     T·S(HO)/kcal·mol⁻¹    T·S(FR)/kcal·mol⁻¹   T·S(vib)
   ------------------------------------------------------------------------
       1     41.97    -1.53966 (100.00%)    -1.10807 (  0.00%)    -1.53966
       2     52.26    -1.41026 (100.00%)    -1.04317 (  0.00%)    -1.41026
       3    112.13    -0.96351 (100.00%)    -0.81715 (  0.00%)    -0.96351
       4    126.42    -0.89438 (100.00%)    -0.78163 (  0.00%)    -0.89438
       5    168.66    -0.73059 (100.00%)    -0.69627 (  0.00%)    -0.73059
       6    227.93    -0.56505 (100.00%)    -0.60708 (  0.00%)    -0.56505
       7    283.05    -0.45174 (100.00%)    -0.54293 (  0.00%)    -0.45174
   ------------------------------------------------------------------------

   temp. (K)  partition function   enthalpy   heat capacity  entropy
                                   cal/mol     cal/K/mol   cal/K/mol   J/K/mol
 298.15  VIB   844.                 3946.521     25.143     26.628
         ROT  0.313E+06              888.752      2.981     28.130
         INT  0.265E+09             4835.273     28.124     54.758
         TR   0.970E+27             1481.254      4.968     39.705
         TOT                        6316.5269    33.0918    94.4626   395.2313

       T/K    H(0)-H(T)+PV         H(T)/Eh          T*S/Eh         G(T)/Eh
   ------------------------------------------------------------------------
    298.15    0.100660E-01    0.177206E+00    0.448822E-01    0.132323E+00
   ------------------------------------------------------------------------

         :::::::::::::::::::::::::::::::::::::::::::::::::::::
         ::                  THERMODYNAMIC                  ::
         :::::::::::::::::::::::::::::::::::::::::::::::::::::
         :: total free energy         -22.898553275570 Eh   ::
         ::.................................................::
         :: total energy              -23.030876641067 Eh   ::
         :: zero point energy           0.167139545304 Eh   ::
         :: G(RRHO) w/o ZPVE           -0.034816179806 Eh   ::
         :: G(RRHO) contrib.            0.132323365497 Eh   ::
         :::::::::::::::::::::::::::::::::::::::::::::::::::::

optimized geometry written to: xtbopt.coord


           -------------------------------------------------
          | TOTAL ENERGY              -23.030876641067 Eh   |
          | TOTAL ENTHALPY            -22.853671069421 Eh   |
          | TOTAL FREE ENERGY         -22.898553275570 Eh   |
          | GRADIENT NORM               0.000039253791 Eh/α |
          | HOMO-LUMO GAP               3.900408581199 eV   |
           -------------------------------------------------

------------------------------------------------------------------------
 * finished run on 2025/04/11 at 16:21:27.461     
------------------------------------------------------------------------
 total:
 * wall-time:     0 d,  0 h,  0 min,  1.319 sec
 *  cpu-time:     0 d,  0 h,  0 min,  1.220 sec
 * ratio c/w:     0.925 speedup
 SCF:
 * wall-time:     0 d,  0 h,  0 min,  0.033 sec
 *  cpu-time:     0 d,  0 h,  0 min,  0.016 sec
 * ratio c/w:     0.472 speedup
 analytical hessian:
 * wall-time:     0 d,  0 h,  0 min,  1.040 sec
 *  cpu-time:     0 d,  0 h,  0 min,  1.026 sec
 * ratio c/w:     0.986 speedup

