! r2scan-3c def2/J RI DEFGRID2 scfconv6 printgap
%output
    printlevel normal
end
* xyz 0 1
C -3.2714957201 -1.1717037251 0.2872757196
C -1.7956063413 -0.8219774745 0.4347768763
C -1.4480358664 0.4351185836 -0.361925079
C -0.0036193944 0.848514259 -0.2571307796
O 0.3840901755 1.9961871477 -0.3685700141
O 0.8156693376 -0.1697943111 -0.0506874943
C 2.2219506394 0.1139091925 0.0412912889
C 2.9548199227 -1.1946397083 0.263932805
H -3.5168535492 -1.3607034559 -0.7547674838
H -3.5068935423 -2.0620962322 0.8635758368
H -3.8950279542 -0.355750549 0.6444202683
H -1.1821972015 -1.6516792457 0.083393516
H -1.5614600189 -0.6563071361 1.4877320951
H -2.057209816 1.2838174673 -0.0464841946
H -1.6494436167 0.2648320212 -1.4231365344
H 2.5370329027 0.6053779623 -0.8851422034
H 2.3794303808 0.8150698248 0.8674437435
H 2.6113945268 -1.6618551156 1.1819819389
H 2.7685977468 -1.871087242 -0.5648733875
H 4.0199171951 -1.0013144074 0.3364389797
*
