      -----------------------------------------------------------      
     |                   =====================                   |     
     |                           x T B                           |     
     |                   =====================                   |     
     |                         S. Grimme                         |     
     |          Mulliken Center for Theoretical Chemistry        |     
     |                    University of Bonn                     |     
      -----------------------------------------------------------      

   * xtb version 6.7.1 (edcfbbe) compiled by 'albert@albert-system' on 2024-07-22

   xtb is free software: you can redistribute it and/or modify it under
   the terms of the GNU Lesser General Public License as published by
   the Free Software Foundation, either version 3 of the License, or
   (at your option) any later version.
   
   xtb is distributed in the hope that it will be useful,
   but WITHOUT ANY WARRANTY; without even the implied warranty of
   MERCHANTABILITY or FITNESS FOR A PARTICULAR PURPOSE.  See the
   GNU Lesser General Public License for more details.
   
   Cite this work as:
   * C. Bannwarth, E. Caldeweyher, S. Ehlert, A. Hansen, P. Pracht,
     J. Seibert, S. Spicher, S. Grimme, WIREs Comput. Mol. Sci., 2020, 11,
     e01493. DOI: 10.1002/wcms.1493
   
   for GFN2-xTB:
   * C. Bannwarth, S. Ehlert and S. Grimme., J. Chem. Theory Comput., 2019,
     15, 1652-1671. DOI: 10.1021/acs.jctc.8b01176
   for GFN1-xTB:
   * S. Grimme, C. Bannwarth, P. Shushkov, J. Chem. Theory Comput., 2017,
     13, 1989-2009. DOI: 10.1021/acs.jctc.7b00118
   for GFN0-xTB:
   * P. Pracht, E. Caldeweyher, S. Ehlert, S. Grimme, ChemRxiv, 2019, preprint.
     DOI: 10.26434/chemrxiv.8326202.v1
   for GFN-FF:
   * S. Spicher and S. Grimme, Angew. Chem. Int. Ed., 2020, 59, 15665-15673.
     DOI: 10.1002/anie.202004239
   
   for ALPB and GBSA implicit solvation:
   * S. Ehlert, M. Stahn, S. Spicher, S. Grimme, J. Chem. Theory Comput.,
     2021, 17, 4250-4261. DOI: 10.1021/acs.jctc.1c00471
   
   for ddCOSMO and CPCM-X implicit solvation:
   * M. Stahn, S. Ehlert, S. Grimme, J. Phys. Chem. A,
     2023, XX, XXXX-XXXX. DOI: 10.1021/acs.jpca.3c04382
   
   for DFT-D4:
   * E. Caldeweyher, C. Bannwarth and S. Grimme, J. Chem. Phys., 2017,
     147, 034112. DOI: 10.1063/1.4993215
   * E. Caldeweyher, S. Ehlert, A. Hansen, H. Neugebauer, S. Spicher,
     C. Bannwarth and S. Grimme, J. Chem. Phys., 2019, 150, 154122.
     DOI: 10.1063/1.5090222
   * E. Caldeweyher, J.-M. Mewes, S. Ehlert and S. Grimme, Phys. Chem. Chem. Phys.
     2020, 22, 8499-8512. DOI: 10.1039/D0CP00502A
   
   for sTDA-xTB:
   * S. Grimme and C. Bannwarth, J. Chem. Phys., 2016, 145, 054103.
     DOI: 10.1063/1.4959605
   
   in the mass-spec context:
   * V. Asgeirsson, C. Bauer and S. Grimme, Chem. Sci., 2017, 8, 4879.
     DOI: 10.1039/c7sc00601b
   * J. Koopman and S. Grimme, ACS Omega 2019, 4, 12, 15120-15133.
     DOI: 10.1021/acsomega.9b02011
   
   for metadynamics refer to:
   * S. Grimme, J. Chem. Theory Comput., 2019, 155, 2847-2862
     DOI: 10.1021/acs.jctc.9b00143
   
   for SPH calculations refer to:
   * S. Spicher and S. Grimme, J. Chem. Theory Comput., 2021, 17, 1701-1714
     DOI: 10.1021/acs.jctc.0c01306
   
   for ONIOM refer to:
   * C. Plett, A. Katbashev, S. Ehlert, S. Grimme, M. Bursch,
     Phys. Chem. Chem. Phys., 2023, 25, 17860-17868. DOI: 10.1039/D3CP02178E
   
   for DIPRO refer to:
   * J. Kohn, N. Gildemeister, S. Grimme, D. Fazzi, A. Hansen,
     J. Chem. Phys., 2023, just accepted.
   
   for PTB refer to:
   * S. Grimme, M. Mueller, A. Hansen, J. Chem. Phys., 2023, 158, 124111.
     DOI: 10.1063/5.0137838
   
   with help from (in alphabetical order)
   P. Atkinson, C. Bannwarth, F. Bohle, G. Brandenburg, E. Caldeweyher
   M. Checinski, S. Dohm, S. Ehlert, S. Ehrlich, I. Gerasimov, C. Hölzer
   A. Katbashev, J. Kohn, J. Koopman, C. Lavigne, S. Lehtola, F. März, M. Müller,
   F. Musil, H. Neugebauer, J. Pisarek, C. Plett, P. Pracht, F. Pultar,
   J. Seibert, P. Shushkov, S. Spicher, M. Stahn, M. Steiner, T. Strunk,
   J. Stückrath, T. Rose, and J. Unsleber
   
 * started run on 2025/04/11 at 16:09:19.281     
   ID    Z sym.   atoms
    1    6 C      1-5, 7
    2    8 O      6
    3    1 H      8-19

           -------------------------------------------------
          |                Calculation Setup                |
           -------------------------------------------------

          program call               : /srv/scratch/z5358697/.xtb/bin/xtb solv.coord --gfn2 --sp --chrg 0 --norestart --parallel 1 --alpb water reference -I xtb_sp-xcontrol-inp
          hostname                   : k065
          coordinate file            : solv.coord
          omp threads                :                     1


           -------------------------------------------------
          |                 G F N 2 - x T B                 |
           -------------------------------------------------

        Reference                      10.1021/acs.jctc.8b01176
      * Hamiltonian:
        H0-scaling (s, p, d)           1.850000    2.230000    2.230000
        zeta-weighting                 0.500000
      * Dispersion:
        s8                             2.700000
        a1                             0.520000
        a2                             5.000000
        s9                             5.000000
      * Repulsion:
        kExp                           1.500000    1.000000
        rExp                           1.000000
      * Coulomb:
        alpha                          2.000000
        third order                    shell-resolved
        anisotropic                    true
        a3                             3.000000
        a5                             4.000000
        cn-shift                       1.200000
        cn-exp                         4.000000
        max-rad                        5.000000

      * Solvation model:               ALPB
        Solvent                        water
        Parameter file                 internal GFN2-xTB/ALPB
        Dielectric constant                8.0200E+01
        Reference state                gsolv=reference [X=1]
        Free energy shift                  2.8945E-03 Eh       1.8164E+00 kcal/mol
        Temperature                        2.9815E+02 K
        Density                            1.0000E+00 kg/L
        Solvent mass                       1.8000E+01 g/mol
        Interaction kernel             P16
        Born radius scaling (c1)           1.4744E+00
        Born radii integrator          GBOBC
        Born offset                        0.0000E+00 a0       0.0000E+00 AA
        H-bond correction              true
        Ion screening                  false
        Surface tension                    1.0000E-05 Eh       1.5569E+01 dyn/cm
        Grid points                               974 per atom

          ...................................................
          :                      SETUP                      :
          :.................................................:
          :  # basis functions                  40          :
          :  # atomic orbitals                  40          :
          :  # shells                           26          :
          :  # electrons                        42          :
          :  max. iterations                   250          :
          :  Hamiltonian                  GFN2-xTB          :
          :  restarted?                      false          :
          :  GBSA solvation                   true          :
          :  PC potential                    false          :
          :  electronic temp.          300.0000000     K    :
          :  accuracy                    1.0000000          :
          :  -> integral cutoff          0.2500000E+02      :
          :  -> integral neglect         0.1000000E-07      :
          :  -> SCF convergence          0.1000000E-05 Eh   :
          :  -> wf. convergence          0.1000000E-03 e    :
          :  Broyden damping             0.4000000          :
          :  net charge                          0          :
          :  unpaired electrons                  0          :
          ...................................................

 iter      E             dE          RMSdq      gap      omega  full diag
   1    -23.2707221 -0.232707E+02  0.373E+00    4.61       0.0  T
   2    -23.3335429 -0.628208E-01  0.180E+00    3.67       1.0  T
   3    -23.3369064 -0.336350E-02  0.106E+00    4.06       1.0  T
   4    -23.3388816 -0.197521E-02  0.178E-01    3.83       1.0  T
   5    -23.3391501 -0.268508E-03  0.701E-02    3.89       1.0  T
   6    -23.3391532 -0.306864E-05  0.189E-02    3.88       1.2  T
   7    -23.3391544 -0.114823E-05  0.527E-03    3.89       4.4  T
   8    -23.3391544 -0.405566E-07  0.216E-03    3.89      10.6  T
   9    -23.3391544 -0.878959E-08  0.723E-04    3.89      31.7  T
  10    -23.3391544 -0.126654E-08  0.191E-04    3.89     120.2  T

   *** convergence criteria satisfied after 10 iterations ***

         #    Occupation            Energy/Eh            Energy/eV
      -------------------------------------------------------------
         1        2.0000           -0.7148198             -19.4512
       ...           ...                  ...                  ...
        15        2.0000           -0.4676159             -12.7245
        16        2.0000           -0.4634396             -12.6108
        17        2.0000           -0.4544535             -12.3663
        18        2.0000           -0.4391703             -11.9504
        19        2.0000           -0.4292634             -11.6809
        20        2.0000           -0.4256133             -11.5815
        21        2.0000           -0.3974566             -10.8153 (HOMO)
        22                         -0.2546289              -6.9288 (LUMO)
        23                          0.0743982               2.0245
        24                          0.0987457               2.6870
        25                          0.1122040               3.0532
        26                          0.1266961               3.4476
       ...                                ...                  ...
        40                          0.5918818              16.1059
      -------------------------------------------------------------
                  HL-Gap            0.1428277 Eh            3.8865 eV
             Fermi-level           -0.3260428 Eh           -8.8721 eV

 SCC (total)                   0 d,  0 h,  0 min,  0.018 sec
 SCC setup                      ...        0 min,  0.002 sec ( 10.511%)
 Dispersion                     ...        0 min,  0.000 sec (  0.643%)
 classical contributions        ...        0 min,  0.000 sec (  0.180%)
 integral evaluation            ...        0 min,  0.002 sec (  8.608%)
 iterations                     ...        0 min,  0.010 sec ( 55.078%)
 molecular gradient             ...        0 min,  0.004 sec ( 24.122%)
 printout                       ...        0 min,  0.000 sec (  0.778%)

         :::::::::::::::::::::::::::::::::::::::::::::::::::::
         ::                     SUMMARY                     ::
         :::::::::::::::::::::::::::::::::::::::::::::::::::::
         :: total energy             -23.028474966622 Eh    ::
         :: total w/o Gsasa/hb       -23.030796992937 Eh    ::
         :: gradient norm              0.000039826448 Eh/a0 ::
         :: HOMO-LUMO gap              3.886539606574 eV    ::
         ::.................................................::
         :: SCC energy               -23.339138076365 Eh    ::
         :: -> isotropic ES            0.041210562015 Eh    ::
         :: -> anisotropic ES          0.003105812581 Eh    ::
         :: -> anisotropic XC          0.011342595631 Eh    ::
         :: -> dispersion             -0.010821183217 Eh    ::
         :: -> Gsolv                  -0.006089004440 Eh    ::
         ::    -> Gelec               -0.008411030754 Eh    ::
         ::    -> Gsasa                0.001393105605 Eh    ::
         ::    -> Ghb                 -0.001965628451 Eh    ::
         ::    -> Gshift               0.002894549160 Eh    ::
         :: repulsion energy           0.310663109744 Eh    ::
         :: add. restraining           0.000000000000 Eh    ::
         :: total charge               0.000000000000 e     ::
         :::::::::::::::::::::::::::::::::::::::::::::::::::::

           -------------------------------------------------
          |                Property Printout                |
           -------------------------------------------------

    * Orbital Energies and Occupations

         #    Occupation            Energy/Eh            Energy/eV
      -------------------------------------------------------------
         1        2.0000           -0.7148198             -19.4512
       ...           ...                  ...                  ...
         9        2.0000           -0.5331718             -14.5083
        10        2.0000           -0.5265651             -14.3286
        11        2.0000           -0.5049391             -13.7401
        12        2.0000           -0.4934879             -13.4285
        13        2.0000           -0.4853791             -13.2078
        14        2.0000           -0.4730140             -12.8714
        15        2.0000           -0.4676159             -12.7245
        16        2.0000           -0.4634396             -12.6108
        17        2.0000           -0.4544535             -12.3663
        18        2.0000           -0.4391703             -11.9504
        19        2.0000           -0.4292634             -11.6809
        20        2.0000           -0.4256133             -11.5815
        21        2.0000           -0.3974566             -10.8153 (HOMO)
        22                         -0.2546289              -6.9288 (LUMO)
        23                          0.0743982               2.0245
        24                          0.0987457               2.6870
        25                          0.1122040               3.0532
        26                          0.1266961               3.4476
        27                          0.1383891               3.7658
        28                          0.1433990               3.9021
        29                          0.1691811               4.6037
        30                          0.1749332               4.7602
        31                          0.1916251               5.2144
        32                          0.2055415               5.5931
       ...                                ...                  ...
        40                          0.5918818              16.1059
      -------------------------------------------------------------
                  HL-Gap            0.1428277 Eh            3.8865 eV
             Fermi-level           -0.3260428 Eh           -8.8721 eV

     #   Z          covCN         q      C6AA      α(0)
     1   6 C        3.751    -0.112    22.708     6.796
     2   6 C        3.800    -0.061    21.669     6.628
     3   6 C        3.803    -0.056    21.577     6.613
     4   6 C        3.804    -0.093    22.266     6.718
     5   6 C        2.812     0.251    22.797     7.823
     6   8 O        0.857    -0.444    22.582     6.371
     7   6 C        3.754    -0.159    23.637     6.933
     8   1 H        0.925     0.040     2.452     2.449
     9   1 H        0.925     0.037     2.494     2.470
    10   1 H        0.925     0.038     2.482     2.464
    11   1 H        0.924     0.042     2.421     2.433
    12   1 H        0.924     0.041     2.433     2.439
    13   1 H        0.924     0.047     2.354     2.399
    14   1 H        0.924     0.037     2.485     2.465
    15   1 H        0.924     0.071     2.071     2.250
    16   1 H        0.924     0.061     2.193     2.316
    17   1 H        0.925     0.089     1.893     2.151
    18   1 H        0.925     0.074     2.043     2.235
    19   1 H        0.925     0.098     1.807     2.102

 Mol. C6AA /au·bohr⁶  :       2608.755944
 Mol. C8AA /au·bohr⁸  :      55862.110525
 Mol. α(0) /au        :         76.054739


Wiberg/Mayer (AO) data.
largest (>0.10) Wiberg bond orders for each atom

 ---------------------------------------------------------------------------
     #   Z sym  total        # sym  WBO       # sym  WBO       # sym  WBO
 ---------------------------------------------------------------------------
     1   6 C    3.996 --     2 C    1.021     9 H    0.987     8 H    0.987
                            10 H    0.986
     2   6 C    3.997 --     1 C    1.021     3 C    1.005    11 H    0.977
                            12 H    0.976
     3   6 C    3.993 --     2 C    1.005    14 H    0.978     4 C    0.976
                            13 H    0.975
     4   6 C    3.994 --     5 C    0.998     3 C    0.976    16 H    0.971
                            15 H    0.958
     5   6 C    3.894 --     6 O    1.806     7 C    1.022     4 C    0.998
     6   8 O    2.008 --     5 C    1.806
     7   6 C    3.990 --     5 C    1.022    18 H    0.980    17 H    0.964
                            19 H    0.941
     8   1 H    0.998 --     1 C    0.987
     9   1 H    0.999 --     1 C    0.987
    10   1 H    0.999 --     1 C    0.986
    11   1 H    0.998 --     2 C    0.977
    12   1 H    0.997 --     2 C    0.976
    13   1 H    0.998 --     3 C    0.975
    14   1 H    0.999 --     3 C    0.978
    15   1 H    0.995 --     4 C    0.958
    16   1 H    0.996 --     4 C    0.971
    17   1 H    0.992 --     7 C    0.964
    18   1 H    0.994 --     7 C    0.980
    19   1 H    0.990 --     7 C    0.941
 ---------------------------------------------------------------------------

Topologies differ in total number of bonds
Writing topology from bond orders to xtbtopo.mol

molecular dipole:
                 x           y           z       tot (Debye)
 q only:        0.602       1.514       0.094
   full:        0.619       1.577       0.099       4.313
molecular quadrupole (traceless):
                xx          xy          yy          xz          yz          zz
 q only:        0.109      -7.844      -2.155      -1.096       0.047       2.047
  q+dip:       -0.718      -8.597      -2.423      -1.068      -0.575       3.141
   full:       -0.619      -8.687      -2.961      -0.748      -0.430       3.581


           -------------------------------------------------
          | TOTAL ENERGY              -23.028474966622 Eh   |
          | GRADIENT NORM               0.000039826448 Eh/α |
          | HOMO-LUMO GAP               3.886539606574 eV   |
           -------------------------------------------------

------------------------------------------------------------------------
 * finished run on 2025/04/11 at 16:09:19.334     
------------------------------------------------------------------------
 total:
 * wall-time:     0 d,  0 h,  0 min,  0.052 sec
 *  cpu-time:     0 d,  0 h,  0 min,  0.027 sec
 * ratio c/w:     0.510 speedup
 SCF:
 * wall-time:     0 d,  0 h,  0 min,  0.018 sec
 *  cpu-time:     0 d,  0 h,  0 min,  0.014 sec
 * ratio c/w:     0.775 speedup

