      -----------------------------------------------------------      
     |                   =====================                   |     
     |                           x T B                           |     
     |                   =====================                   |     
     |                         S. Grimme                         |     
     |          Mulliken Center for Theoretical Chemistry        |     
     |                    University of Bonn                     |     
      -----------------------------------------------------------      

   * xtb version 6.7.1 (edcfbbe) compiled by 'albert@albert-system' on 2024-07-22

   xtb is free software: you can redistribute it and/or modify it under
   the terms of the GNU Lesser General Public License as published by
   the Free Software Foundation, either version 3 of the License, or
   (at your option) any later version.
   
   xtb is distributed in the hope that it will be useful,
   but WITHOUT ANY WARRANTY; without even the implied warranty of
   MERCHANTABILITY or FITNESS FOR A PARTICULAR PURPOSE.  See the
   GNU Lesser General Public License for more details.
   
   Cite this work as:
   * C. Bannwarth, E. Caldeweyher, S. Ehlert, A. Hansen, P. Pracht,
     J. Seibert, S. Spicher, S. Grimme, WIREs Comput. Mol. Sci., 2020, 11,
     e01493. DOI: 10.1002/wcms.1493
   
   for GFN2-xTB:
   * C. Bannwarth, S. Ehlert and S. Grimme., J. Chem. Theory Comput., 2019,
     15, 1652-1671. DOI: 10.1021/acs.jctc.8b01176
   for GFN1-xTB:
   * S. Grimme, C. Bannwarth, P. Shushkov, J. Chem. Theory Comput., 2017,
     13, 1989-2009. DOI: 10.1021/acs.jctc.7b00118
   for GFN0-xTB:
   * P. Pracht, E. Caldeweyher, S. Ehlert, S. Grimme, ChemRxiv, 2019, preprint.
     DOI: 10.26434/chemrxiv.8326202.v1
   for GFN-FF:
   * S. Spicher and S. Grimme, Angew. Chem. Int. Ed., 2020, 59, 15665-15673.
     DOI: 10.1002/anie.202004239
   
   for ALPB and GBSA implicit solvation:
   * S. Ehlert, M. Stahn, S. Spicher, S. Grimme, J. Chem. Theory Comput.,
     2021, 17, 4250-4261. DOI: 10.1021/acs.jctc.1c00471
   
   for ddCOSMO and CPCM-X implicit solvation:
   * M. Stahn, S. Ehlert, S. Grimme, J. Phys. Chem. A,
     2023, XX, XXXX-XXXX. DOI: 10.1021/acs.jpca.3c04382
   
   for DFT-D4:
   * E. Caldeweyher, C. Bannwarth and S. Grimme, J. Chem. Phys., 2017,
     147, 034112. DOI: 10.1063/1.4993215
   * E. Caldeweyher, S. Ehlert, A. Hansen, H. Neugebauer, S. Spicher,
     C. Bannwarth and S. Grimme, J. Chem. Phys., 2019, 150, 154122.
     DOI: 10.1063/1.5090222
   * E. Caldeweyher, J.-M. Mewes, S. Ehlert and S. Grimme, Phys. Chem. Chem. Phys.
     2020, 22, 8499-8512. DOI: 10.1039/D0CP00502A
   
   for sTDA-xTB:
   * S. Grimme and C. Bannwarth, J. Chem. Phys., 2016, 145, 054103.
     DOI: 10.1063/1.4959605
   
   in the mass-spec context:
   * V. Asgeirsson, C. Bauer and S. Grimme, Chem. Sci., 2017, 8, 4879.
     DOI: 10.1039/c7sc00601b
   * J. Koopman and S. Grimme, ACS Omega 2019, 4, 12, 15120-15133.
     DOI: 10.1021/acsomega.9b02011
   
   for metadynamics refer to:
   * S. Grimme, J. Chem. Theory Comput., 2019, 155, 2847-2862
     DOI: 10.1021/acs.jctc.9b00143
   
   for SPH calculations refer to:
   * S. Spicher and S. Grimme, J. Chem. Theory Comput., 2021, 17, 1701-1714
     DOI: 10.1021/acs.jctc.0c01306
   
   for ONIOM refer to:
   * C. Plett, A. Katbashev, S. Ehlert, S. Grimme, M. Bursch,
     Phys. Chem. Chem. Phys., 2023, 25, 17860-17868. DOI: 10.1039/D3CP02178E
   
   for DIPRO refer to:
   * J. Kohn, N. Gildemeister, S. Grimme, D. Fazzi, A. Hansen,
     J. Chem. Phys., 2023, just accepted.
   
   for PTB refer to:
   * S. Grimme, M. Mueller, A. Hansen, J. Chem. Phys., 2023, 158, 124111.
     DOI: 10.1063/5.0137838
   
   with help from (in alphabetical order)
   P. Atkinson, C. Bannwarth, F. Bohle, G. Brandenburg, E. Caldeweyher
   M. Checinski, S. Dohm, S. Ehlert, S. Ehrlich, I. Gerasimov, C. Hölzer
   A. Katbashev, J. Kohn, J. Koopman, C. Lavigne, S. Lehtola, F. März, M. Müller,
   F. Musil, H. Neugebauer, J. Pisarek, C. Plett, P. Pracht, F. Pultar,
   J. Seibert, P. Shushkov, S. Spicher, M. Stahn, M. Steiner, T. Strunk,
   J. Stückrath, T. Rose, and J. Unsleber
   
 * started run on 2025/04/11 at 16:21:44.286     
   ID    Z sym.   atoms
    1    6 C      1-7
    2    1 H      8-19

           -------------------------------------------------
          |                Calculation Setup                |
           -------------------------------------------------

          program call               : /srv/scratch/z5358697/.xtb/bin/xtb xtb_rrho.coord --gfn2 --bhess vtight --chrg 0 --enso --norestart -I rrho-xcontrol-inp --parallel 1 --alpb water
          hostname                   : k113
          coordinate file            : xtb_rrho.coord
          omp threads                :                     1


           -------------------------------------------------
          |                 G F N 2 - x T B                 |
           -------------------------------------------------

        Reference                      10.1021/acs.jctc.8b01176
      * Hamiltonian:
        H0-scaling (s, p, d)           1.850000    2.230000    2.230000
        zeta-weighting                 0.500000
      * Dispersion:
        s8                             2.700000
        a1                             0.520000
        a2                             5.000000
        s9                             5.000000
      * Repulsion:
        kExp                           1.500000    1.000000
        rExp                           1.000000
      * Coulomb:
        alpha                          2.000000
        third order                    shell-resolved
        anisotropic                    true
        a3                             3.000000
        a5                             4.000000
        cn-shift                       1.200000
        cn-exp                         4.000000
        max-rad                        5.000000

      * Solvation model:               ALPB
        Solvent                        water
        Parameter file                 internal GFN2-xTB/ALPB
        Dielectric constant                8.0200E+01
        Reference state                gsolv [1 M gas/solution]
        Free energy shift                  1.0808E-03 Eh       6.7819E-01 kcal/mol
        Temperature                        2.9815E+02 K
        Density                            1.0000E+00 kg/L
        Solvent mass                       1.8000E+01 g/mol
        Interaction kernel             P16
        Born radius scaling (c1)           1.4744E+00
        Born radii integrator          GBOBC
        Born offset                        0.0000E+00 a0       0.0000E+00 AA
        H-bond correction              true
        Ion screening                  false
        Surface tension                    1.0000E-05 Eh       1.5569E+01 dyn/cm
        Grid points                               974 per atom

          ...................................................
          :                      SETUP                      :
          :.................................................:
          :  # basis functions                  40          :
          :  # atomic orbitals                  40          :
          :  # shells                           26          :
          :  # electrons                        40          :
          :  max. iterations                   250          :
          :  Hamiltonian                  GFN2-xTB          :
          :  restarted?                      false          :
          :  GBSA solvation                   true          :
          :  PC potential                    false          :
          :  electronic temp.          300.0000000     K    :
          :  accuracy                    1.0000000          :
          :  -> integral cutoff          0.2500000E+02      :
          :  -> integral neglect         0.1000000E-07      :
          :  -> SCF convergence          0.1000000E-05 Eh   :
          :  -> wf. convergence          0.1000000E-03 e    :
          :  Broyden damping             0.4000000          :
          :  net charge                          0          :
          :  unpaired electrons                  0          :
          ...................................................

 iter      E             dE          RMSdq      gap      omega  full diag
   1    -21.3868918 -0.213869E+02  0.446E+00    6.81       0.0  T
   2    -21.4068016 -0.199098E-01  0.266E+00    6.75       1.0  T
   3    -21.3800582  0.267434E-01  0.149E+00    6.77       1.0  T
   4    -21.4101843 -0.301261E-01  0.400E-01    6.65       1.0  T
   5    -21.4120781 -0.189378E-02  0.804E-02    6.66       1.0  T
   6    -21.4120849 -0.677749E-05  0.303E-02    6.67       1.0  T
   7    -21.4120879 -0.303821E-05  0.118E-02    6.67       1.9  T
   8    -21.4120884 -0.478054E-06  0.299E-03    6.67       7.7  T
   9    -21.4120884 -0.210248E-07  0.174E-03    6.67      13.2  T
  10    -21.4120884 -0.655099E-08  0.277E-04    6.67      82.9  T
  11    -21.4120884  0.914433E-10  0.176E-04    6.67     130.1  T

   *** convergence criteria satisfied after 11 iterations ***

         #    Occupation            Energy/Eh            Energy/eV
      -------------------------------------------------------------
         1        2.0000           -0.6213555             -16.9079
       ...           ...                  ...                  ...
        14        2.0000           -0.4546712             -12.3722
        15        2.0000           -0.4400656             -11.9748
        16        2.0000           -0.4265862             -11.6080
        17        2.0000           -0.4214080             -11.4671
        18        2.0000           -0.4168978             -11.3444
        19        2.0000           -0.3960091             -10.7760
        20        2.0000           -0.3932705             -10.7014 (HOMO)
        21                         -0.1480362              -4.0283 (LUMO)
        22                         -0.1428681              -3.8876
        23                          0.0521032               1.4178
        24                          0.0773446               2.1047
        25                          0.0945396               2.5726
       ...                                ...                  ...
        40                          1.3692347              37.2588
      -------------------------------------------------------------
                  HL-Gap            0.2452343 Eh            6.6732 eV
             Fermi-level           -0.2706533 Eh           -7.3649 eV

 SCC (total)                   0 d,  0 h,  0 min,  0.025 sec
 SCC setup                      ...        0 min,  0.001 sec (  4.813%)
 Dispersion                     ...        0 min,  0.000 sec (  0.425%)
 classical contributions        ...        0 min,  0.000 sec (  0.099%)
 integral evaluation            ...        0 min,  0.001 sec (  5.568%)
 iterations                     ...        0 min,  0.018 sec ( 71.587%)
 molecular gradient             ...        0 min,  0.004 sec ( 16.791%)
 printout                       ...        0 min,  0.000 sec (  0.657%)

         :::::::::::::::::::::::::::::::::::::::::::::::::::::
         ::                     SUMMARY                     ::
         :::::::::::::::::::::::::::::::::::::::::::::::::::::
         :: total energy             -21.035562337201 Eh    ::
         :: total w/o Gsasa/hb       -21.034535373102 Eh    ::
         :: gradient norm              0.029110455599 Eh/a0 ::
         :: HOMO-LUMO gap              6.673164641855 eV    ::
         ::.................................................::
         :: SCC energy               -21.412018668396 Eh    ::
         :: -> isotropic ES            0.005724283207 Eh    ::
         :: -> anisotropic ES          0.004572465585 Eh    ::
         :: -> anisotropic XC          0.018895001490 Eh    ::
         :: -> dispersion             -0.012292385889 Eh    ::
         :: -> Gsolv                  -0.001769046627 Eh    ::
         ::    -> Gelec               -0.000742082528 Eh    ::
         ::    -> Gsasa               -0.001324570082 Eh    ::
         ::    -> Ghb                 -0.000783153715 Eh    ::
         ::    -> Gshift               0.001080759698 Eh    ::
         :: repulsion energy           0.376456331194 Eh    ::
         :: add. restraining           0.000000000000 Eh    ::
         :: total charge               0.000000000000 e     ::
         :::::::::::::::::::::::::::::::::::::::::::::::::::::

metadynamics with 1 initial structures loaded
           -------------------------------------------------
          |           Optimal kpush determination           |
           -------------------------------------------------
      ----------------------------------------------------------- 
     |                   =====================                   |
     |                        A N C O P T                        |
     |                   =====================                   |
     |               Approximate Normal Coordinate               |
     |                Rational Function Optimizer                |
      ----------------------------------------------------------- 
target rmsd / Å         0.100000
unbiased initial rmsd   0.062032
 
iter. min.        max.        rmsd       kpush
final kpush:  0.000000
           -------------------------------------------------
          |            Biased Numerical Hessian             |
           -------------------------------------------------
kpush                :   0.00000
alpha                :   1.00000
step length          :   0.00500
SCC accuracy         :   0.30000
Hessian scale factor :   1.00000
frozen atoms in %    :   0.00000    0
RMS gradient         :   0.00005
estimated CPU  time      0.02 min
estimated wall time      0.02 min

writing file <hessian>.

 projected vibrational frequencies (cm⁻¹)
eigval :       -0.00    -0.00     0.00     0.00     0.00     0.00
eigval :       73.39    84.53   114.51   181.25   224.84   276.47
eigval :      306.81   358.16   417.74   488.30   633.54   660.70
eigval :      784.92   823.67   861.77   906.65   924.75   998.29
eigval :     1026.26  1076.66  1105.31  1119.91  1148.81  1182.78
eigval :     1226.91  1256.51  1275.37  1321.79  1342.64  1352.22
eigval :     1367.33  1412.41  1441.74  1479.85  1484.06  1491.44
eigval :     1503.41  1509.53  2289.91  2941.36  2951.32  2956.70
eigval :     2962.08  2964.61  2976.96  2979.47  2987.41  3019.33
eigval :     3028.59  3056.68  3399.75
           -------------------------------------------------
          |                Property Printout                |
           -------------------------------------------------

    * Orbital Energies and Occupations

         #    Occupation            Energy/Eh            Energy/eV
      -------------------------------------------------------------
         1        2.0000           -0.6230266             -16.9534
       ...           ...                  ...                  ...
         8        2.0000           -0.5120507             -13.9336
         9        2.0000           -0.4968623             -13.5203
        10        2.0000           -0.4906890             -13.3523
        11        2.0000           -0.4804934             -13.0749
        12        2.0000           -0.4704291             -12.8010
        13        2.0000           -0.4612299             -12.5507
        14        2.0000           -0.4552217             -12.3872
        15        2.0000           -0.4397629             -11.9666
        16        2.0000           -0.4259357             -11.5903
        17        2.0000           -0.4231051             -11.5133
        18        2.0000           -0.4163309             -11.3289
        19        2.0000           -0.3972753             -10.8104
        20        2.0000           -0.3946267             -10.7383 (HOMO)
        21                         -0.1436056              -3.9077 (LUMO)
        22                         -0.1389683              -3.7815
        23                          0.0691859               1.8826
        24                          0.0860323               2.3411
        25                          0.1010345               2.7493
        26                          0.1132894               3.0828
        27                          0.1401532               3.8138
        28                          0.1486497               4.0450
        29                          0.1607858               4.3752
        30                          0.1771552               4.8206
        31                          0.1917093               5.2167
       ...                                ...                  ...
        40                          1.4411536              39.2158
      -------------------------------------------------------------
                  HL-Gap            0.2510211 Eh            6.8306 eV
             Fermi-level           -0.2691161 Eh           -7.3230 eV

     #   Z          covCN         q      C6AA      α(0)
     1   6 C        3.751    -0.109    22.644     6.786
     2   6 C        3.799    -0.057    21.606     6.618
     3   6 C        3.800    -0.063    21.702     6.633
     4   6 C        3.803    -0.055    21.561     6.611
     5   6 C        3.803    -0.047    21.408     6.587
     6   6 C        1.965    -0.028    31.825     9.110
     7   6 C        1.909    -0.137    34.964     9.550
     8   1 H        0.925     0.041     2.440     2.443
     9   1 H        0.925     0.034     2.534     2.490
    10   1 H        0.925     0.030     2.585     2.514
    11   1 H        0.924     0.027     2.631     2.537
    12   1 H        0.924     0.034     2.536     2.490
    13   1 H        0.924     0.029     2.603     2.523
    14   1 H        0.924     0.037     2.485     2.465
    15   1 H        0.924     0.035     2.522     2.483
    16   1 H        0.924     0.034     2.529     2.487
    17   1 H        0.924     0.057     2.239     2.340
    18   1 H        0.924     0.061     2.193     2.316
    19   1 H        0.928     0.079     1.993     2.208

 Mol. C6AA /au·bohr⁶  :       2866.470659
 Mol. C8AA /au·bohr⁸  :      63690.689380
 Mol. α(0) /au        :         81.190575


Wiberg/Mayer (AO) data.
largest (>0.10) Wiberg bond orders for each atom

 ---------------------------------------------------------------------------
     #   Z sym  total        # sym  WBO       # sym  WBO       # sym  WBO
 ---------------------------------------------------------------------------
     1   6 C    3.997 --     2 C    1.021     9 H    0.988    10 H    0.987
                             8 H    0.984
     2   6 C    3.997 --     1 C    1.021     3 C    1.004    11 H    0.981
                            12 H    0.977
     3   6 C    3.997 --     4 C    1.010     2 C    1.004    13 H    0.979
                            14 H    0.976
     4   6 C    3.996 --     3 C    1.010     5 C    0.985    15 H    0.978
                            16 H    0.977
     5   6 C    3.997 --     6 C    1.056     4 C    0.985    18 H    0.953
                            17 H    0.953
     6   6 C    3.978 --     7 C    2.888     5 C    1.056
     7   6 C    3.972 --     6 C    2.888    19 H    0.970
     8   1 H    0.998 --     1 C    0.984
     9   1 H    0.999 --     1 C    0.988
    10   1 H    0.999 --     1 C    0.987
    11   1 H    0.999 --     2 C    0.981
    12   1 H    0.999 --     2 C    0.977
    13   1 H    0.999 --     3 C    0.979
    14   1 H    0.999 --     3 C    0.976
    15   1 H    0.999 --     4 C    0.978
    16   1 H    0.998 --     4 C    0.977
    17   1 H    0.997 --     5 C    0.953
    18   1 H    0.996 --     5 C    0.953
    19   1 H    0.994 --     7 C    0.970
 ---------------------------------------------------------------------------

Topologies differ in total number of bonds
Writing topology from bond orders to xtbtopo.mol

molecular dipole:
                 x           y           z       tot (Debye)
 q only:       -0.058       0.315      -0.148
   full:       -0.051       0.301      -0.126       0.840
molecular quadrupole (traceless):
                xx          xy          yy          xz          yz          zz
 q only:       -1.061       0.755       0.921      -0.323      -0.701       0.140
  q+dip:       -2.370      -0.527       2.891       0.554      -3.006      -0.521
   full:       -1.553       0.270       1.685       0.033      -1.667      -0.132

           -------------------------------------------------
          |                Geometry Summary                 |
           -------------------------------------------------

      molecular mass/u    :       96.1704403
   center of mass at/Å    :       -0.0001636      -0.0003255       0.0009715
  moments of inertia/u·Å² :        0.1612088E+03   0.2368516E+03   0.3417592E+03
rotational constants/cm⁻¹ :        0.1045702E+00   0.7117381E-01   0.4932605E-01

 * 17 selected distances

     #   Z          #   Z                                           value/Å
     1   6 C        2   6 C                                       1.5251132
     2   6 C        3   6 C                                       1.5350289
     3   6 C        4   6 C                                       1.5299870
     4   6 C        5   6 C                                       1.5357102 (max)
     6   6 C        7   6 C                                       1.1972900
     1   6 C        8   1 H                                       1.0860033
     1   6 C        9   1 H                                       1.0881811
     1   6 C       10   1 H                                       1.0878080
     2   6 C       11   1 H                                       1.0925034
     2   6 C       12   1 H                                       1.0914046
     3   6 C       13   1 H                                       1.0927924
     3   6 C       14   1 H                                       1.0924237
     4   6 C       15   1 H                                       1.0925306
     4   6 C       16   1 H                                       1.0927818
     5   6 C       17   1 H                                       1.0940532
     5   6 C       18   1 H                                       1.0929659
     7   6 C       19   1 H                                       1.0486162 (min)

 * 2 distinct bonds (by element types)

   Z      Z             #   av. dist./Å        max./Å        min./Å
   1 H    6 C          12     1.0876720     1.0940532     1.0486162
   6 C    6 C           5     1.4646258     1.5357102     1.1972900

           -------------------------------------------------
          |               Frequency Printout                |
           -------------------------------------------------
 projected vibrational frequencies (cm⁻¹)
eigval :       -0.00    -0.00     0.00     0.00     0.00     0.00
eigval :       73.39    84.53   114.51   181.25   224.84   276.47
eigval :      306.81   358.16   417.74   488.30   633.54   660.70
eigval :      784.92   823.67   861.77   906.65   924.75   998.29
eigval :     1026.26  1076.66  1105.31  1119.91  1148.81  1182.78
eigval :     1226.91  1256.51  1275.37  1321.79  1342.64  1352.22
eigval :     1367.33  1412.41  1441.74  1479.85  1484.06  1491.44
eigval :     1503.41  1509.53  2289.91  2941.36  2951.32  2956.70
eigval :     2962.08  2964.61  2976.96  2979.47  2987.41  3019.33
eigval :     3028.59  3056.68  3399.75
 reduced masses (amu)
   1: 10.12   2: 10.02   3: 10.58   4: 10.04   5:  9.75   6: 10.18   7:  7.95   8:  7.42
   9:  9.03  10:  9.22  11:  2.99  12:  8.95  13:  8.16  14:  7.98  15:  8.36  16:  7.63
  17:  2.40  18:  2.78  19:  4.47  20:  6.44  21:  4.67  22:  6.27  23:  7.70  24:  4.87
  25:  8.19  26:  6.19  27:  4.83  28:  7.39  29:  7.13  30:  4.75  31:  2.81  32:  2.44
  33:  2.44  34:  4.66  35:  3.84  36:  4.70  37:  4.61  38:  3.20  39:  2.00  40:  1.87
  41:  1.94  42:  1.76  43:  1.69  44:  1.55  45: 11.03  46:  1.90  47:  1.88  48:  1.85
  49:  1.90  50:  1.60  51:  1.61  52:  1.53  53:  1.59  54:  1.90  55:  1.62  56:  1.62
  57:  2.54
 IR intensities (km·mol⁻¹)
   1:  0.12   2:  0.05   3:  0.01   4:  0.07   5:  0.06   6:  0.04   7:  0.28   8:  0.15
   9:  0.17  10:  0.08  11:  0.02  12:  0.31  13:  0.44  14:  0.85  15:  0.29  16:  3.17
  17: 29.16  18: 20.22  19: 12.91  20:  4.83  21:  1.62  22: 10.72  23:  6.84  24:  2.20
  25:  0.35  26:  5.08  27:  0.59  28:  2.33  29:  1.46  30:  0.36  31:  0.30  32:  1.01
  33:  0.62  34:  0.43  35:  9.64  36:  5.66  37:  3.53  38:  1.67  39:  2.07  40:  0.28
  41:  0.45  42:  0.27  43:  0.14  44:  0.81  45: 32.14  46: 37.67  47: 28.35  48: 28.07
  49: 76.27  50: 97.39  51:112.09  52:114.44  53: 81.50  54:108.27  55: 71.53  56: 37.41
  57:  3.63
 Raman intensities (Ä⁴*amu⁻¹)
   1:  0.00   2:  0.00   3:  0.00   4:  0.00   5:  0.00   6:  0.00   7:  0.00   8:  0.00
   9:  0.00  10:  0.00  11:  0.00  12:  0.00  13:  0.00  14:  0.00  15:  0.00  16:  0.00
  17:  0.00  18:  0.00  19:  0.00  20:  0.00  21:  0.00  22:  0.00  23:  0.00  24:  0.00
  25:  0.00  26:  0.00  27:  0.00  28:  0.00  29:  0.00  30:  0.00  31:  0.00  32:  0.00
  33:  0.00  34:  0.00  35:  0.00  36:  0.00  37:  0.00  38:  0.00  39:  0.00  40:  0.00
  41:  0.00  42:  0.00  43:  0.00  44:  0.00  45:  0.00  46:  0.00  47:  0.00  48:  0.00
  49:  0.00  50:  0.00  51:  0.00  52:  0.00  53:  0.00  54:  0.00  55:  0.00  56:  0.00
  57:  0.00
 output can be read by thermo (or use thermo option).
 writing <g98.out> molden fake output.
 recommended (thermochemical) frequency scaling factor: 1.0
           -------------------------------------------------
          |             Thermodynamic Functions             |
           -------------------------------------------------

Molecule has no symmetry elements
It seems to be the C1 point group
c1  symmetry found (for desy threshold:  0.10E+00) used in thermo

          ...................................................
          :                      SETUP                      :
          :.................................................:
          :  # frequencies                          51      :
          :  # imaginary freq.                       0      :
          :  linear?                             false      :
          :  only rotor calc.                    false      :
          :  symmetry                               c1      :
          :  rotational number                       1      :
          :  scaling factor                  1.0000000      :
          :  rotor cutoff                    0.0000000 cm⁻¹ :
          :  imag. cutoff                 -100.0000000 cm⁻¹ :
          :.................................................:

    mode    ω/cm⁻¹     T·S(HO)/kcal·mol⁻¹    T·S(FR)/kcal·mol⁻¹   T·S(vib)
   ------------------------------------------------------------------------
       1     73.39    -1.21059 (100.00%)    -0.94259 (  0.00%)    -1.21059
       2     84.53    -1.12786 (100.00%)    -0.90076 (  0.00%)    -1.12786
       3    114.51    -0.95142 (100.00%)    -0.81091 (  0.00%)    -0.95142
       4    181.25    -0.69036 (100.00%)    -0.67492 (  0.00%)    -0.69036
       5    224.84    -0.57237 (100.00%)    -0.61110 (  0.00%)    -0.57237
       6    276.47    -0.46375 (100.00%)    -0.54988 (  0.00%)    -0.46375
   ------------------------------------------------------------------------

   temp. (K)  partition function   enthalpy   heat capacity  entropy
                                   cal/mol     cal/K/mol   cal/K/mol   J/K/mol
 298.15  VIB   209.                 3767.260     25.481     23.253
         ROT  0.276E+06              888.752      2.981     27.877
         INT  0.577E+08             4656.012     28.462     51.130
         TR   0.912E+27             1481.254      4.968     39.584
         TOT                        6137.2659    33.4304    90.7136   379.5455

       T/K    H(0)-H(T)+PV         H(T)/Eh          T*S/Eh         G(T)/Eh
   ------------------------------------------------------------------------
    298.15    0.978036E-02    0.177817E+00    0.431009E-01    0.134716E+00
   ------------------------------------------------------------------------

         :::::::::::::::::::::::::::::::::::::::::::::::::::::
         ::                  THERMODYNAMIC                  ::
         :::::::::::::::::::::::::::::::::::::::::::::::::::::
         :: total free energy         -20.902344998181 Eh   ::
         ::.................................................::
         :: total energy              -21.037060666174 Eh   ::
         :: zero point energy           0.168036252632 Eh   ::
         :: G(RRHO) w/o ZPVE           -0.033320584639 Eh   ::
         :: G(RRHO) contrib.            0.134715667993 Eh   ::
         :::::::::::::::::::::::::::::::::::::::::::::::::::::

optimized geometry written to: xtbopt.coord


           -------------------------------------------------
          | TOTAL ENERGY              -21.037060666174 Eh   |
          | TOTAL ENTHALPY            -20.859244057778 Eh   |
          | TOTAL FREE ENERGY         -20.902344998181 Eh   |
          | GRADIENT NORM               0.000046188289 Eh/α |
          | HOMO-LUMO GAP               6.830632313992 eV   |
           -------------------------------------------------

------------------------------------------------------------------------
 * finished run on 2025/04/11 at 16:21:45.474     
------------------------------------------------------------------------
 total:
 * wall-time:     0 d,  0 h,  0 min,  1.188 sec
 *  cpu-time:     0 d,  0 h,  0 min,  1.111 sec
 * ratio c/w:     0.936 speedup
 SCF:
 * wall-time:     0 d,  0 h,  0 min,  0.026 sec
 *  cpu-time:     0 d,  0 h,  0 min,  0.014 sec
 * ratio c/w:     0.540 speedup
 analytical hessian:
 * wall-time:     0 d,  0 h,  0 min,  0.937 sec
 *  cpu-time:     0 d,  0 h,  0 min,  0.924 sec
 * ratio c/w:     0.986 speedup

