      -----------------------------------------------------------      
     |                   =====================                   |     
     |                           x T B                           |     
     |                   =====================                   |     
     |                         S. Grimme                         |     
     |          Mulliken Center for Theoretical Chemistry        |     
     |                    University of Bonn                     |     
      -----------------------------------------------------------      

   * xtb version 6.7.1 (edcfbbe) compiled by 'albert@albert-system' on 2024-07-22

   xtb is free software: you can redistribute it and/or modify it under
   the terms of the GNU Lesser General Public License as published by
   the Free Software Foundation, either version 3 of the License, or
   (at your option) any later version.
   
   xtb is distributed in the hope that it will be useful,
   but WITHOUT ANY WARRANTY; without even the implied warranty of
   MERCHANTABILITY or FITNESS FOR A PARTICULAR PURPOSE.  See the
   GNU Lesser General Public License for more details.
   
   Cite this work as:
   * C. Bannwarth, E. Caldeweyher, S. Ehlert, A. Hansen, P. Pracht,
     J. Seibert, S. Spicher, S. Grimme, WIREs Comput. Mol. Sci., 2020, 11,
     e01493. DOI: 10.1002/wcms.1493
   
   for GFN2-xTB:
   * C. Bannwarth, S. Ehlert and S. Grimme., J. Chem. Theory Comput., 2019,
     15, 1652-1671. DOI: 10.1021/acs.jctc.8b01176
   for GFN1-xTB:
   * S. Grimme, C. Bannwarth, P. Shushkov, J. Chem. Theory Comput., 2017,
     13, 1989-2009. DOI: 10.1021/acs.jctc.7b00118
   for GFN0-xTB:
   * P. Pracht, E. Caldeweyher, S. Ehlert, S. Grimme, ChemRxiv, 2019, preprint.
     DOI: 10.26434/chemrxiv.8326202.v1
   for GFN-FF:
   * S. Spicher and S. Grimme, Angew. Chem. Int. Ed., 2020, 59, 15665-15673.
     DOI: 10.1002/anie.202004239
   
   for ALPB and GBSA implicit solvation:
   * S. Ehlert, M. Stahn, S. Spicher, S. Grimme, J. Chem. Theory Comput.,
     2021, 17, 4250-4261. DOI: 10.1021/acs.jctc.1c00471
   
   for ddCOSMO and CPCM-X implicit solvation:
   * M. Stahn, S. Ehlert, S. Grimme, J. Phys. Chem. A,
     2023, XX, XXXX-XXXX. DOI: 10.1021/acs.jpca.3c04382
   
   for DFT-D4:
   * E. Caldeweyher, C. Bannwarth and S. Grimme, J. Chem. Phys., 2017,
     147, 034112. DOI: 10.1063/1.4993215
   * E. Caldeweyher, S. Ehlert, A. Hansen, H. Neugebauer, S. Spicher,
     C. Bannwarth and S. Grimme, J. Chem. Phys., 2019, 150, 154122.
     DOI: 10.1063/1.5090222
   * E. Caldeweyher, J.-M. Mewes, S. Ehlert and S. Grimme, Phys. Chem. Chem. Phys.
     2020, 22, 8499-8512. DOI: 10.1039/D0CP00502A
   
   for sTDA-xTB:
   * S. Grimme and C. Bannwarth, J. Chem. Phys., 2016, 145, 054103.
     DOI: 10.1063/1.4959605
   
   in the mass-spec context:
   * V. Asgeirsson, C. Bauer and S. Grimme, Chem. Sci., 2017, 8, 4879.
     DOI: 10.1039/c7sc00601b
   * J. Koopman and S. Grimme, ACS Omega 2019, 4, 12, 15120-15133.
     DOI: 10.1021/acsomega.9b02011
   
   for metadynamics refer to:
   * S. Grimme, J. Chem. Theory Comput., 2019, 155, 2847-2862
     DOI: 10.1021/acs.jctc.9b00143
   
   for SPH calculations refer to:
   * S. Spicher and S. Grimme, J. Chem. Theory Comput., 2021, 17, 1701-1714
     DOI: 10.1021/acs.jctc.0c01306
   
   for ONIOM refer to:
   * C. Plett, A. Katbashev, S. Ehlert, S. Grimme, M. Bursch,
     Phys. Chem. Chem. Phys., 2023, 25, 17860-17868. DOI: 10.1039/D3CP02178E
   
   for DIPRO refer to:
   * J. Kohn, N. Gildemeister, S. Grimme, D. Fazzi, A. Hansen,
     J. Chem. Phys., 2023, just accepted.
   
   for PTB refer to:
   * S. Grimme, M. Mueller, A. Hansen, J. Chem. Phys., 2023, 158, 124111.
     DOI: 10.1063/5.0137838
   
   with help from (in alphabetical order)
   P. Atkinson, C. Bannwarth, F. Bohle, G. Brandenburg, E. Caldeweyher
   M. Checinski, S. Dohm, S. Ehlert, S. Ehrlich, I. Gerasimov, C. Hölzer
   A. Katbashev, J. Kohn, J. Koopman, C. Lavigne, S. Lehtola, F. März, M. Müller,
   F. Musil, H. Neugebauer, J. Pisarek, C. Plett, P. Pracht, F. Pultar,
   J. Seibert, P. Shushkov, S. Spicher, M. Stahn, M. Steiner, T. Strunk,
   J. Stückrath, T. Rose, and J. Unsleber
   
 * started run on 2025/04/11 at 14:13:37.456     
   ID    Z sym.   atoms
    1    6 C      1-7
    2    1 H      8-23

           -------------------------------------------------
          |                Calculation Setup                |
           -------------------------------------------------

          program call               : /software/projects/pawsey0265/mwang1/xtb/bin/xtb gas.coord --gfn2 --sp --chrg 0 --norestart --parallel 1
          hostname                   : nid001220
          coordinate file            : gas.coord
          omp threads                :                     1


           -------------------------------------------------
          |                 G F N 2 - x T B                 |
           -------------------------------------------------

        Reference                      10.1021/acs.jctc.8b01176
      * Hamiltonian:
        H0-scaling (s, p, d)           1.850000    2.230000    2.230000
        zeta-weighting                 0.500000
      * Dispersion:
        s8                             2.700000
        a1                             0.520000
        a2                             5.000000
        s9                             5.000000
      * Repulsion:
        kExp                           1.500000    1.000000
        rExp                           1.000000
      * Coulomb:
        alpha                          2.000000
        third order                    shell-resolved
        anisotropic                    true
        a3                             3.000000
        a5                             4.000000
        cn-shift                       1.200000
        cn-exp                         4.000000
        max-rad                        5.000000


          ...................................................
          :                      SETUP                      :
          :.................................................:
          :  # basis functions                  44          :
          :  # atomic orbitals                  44          :
          :  # shells                           30          :
          :  # electrons                        44          :
          :  max. iterations                   250          :
          :  Hamiltonian                  GFN2-xTB          :
          :  restarted?                      false          :
          :  GBSA solvation                  false          :
          :  PC potential                    false          :
          :  electronic temp.          300.0000000     K    :
          :  accuracy                    1.0000000          :
          :  -> integral cutoff          0.2500000E+02      :
          :  -> integral neglect         0.1000000E-07      :
          :  -> SCF convergence          0.1000000E-05 Eh   :
          :  -> wf. convergence          0.1000000E-03 e    :
          :  Broyden damping             0.4000000          :
          :  net charge                          0          :
          :  unpaired electrons                  0          :
          ...................................................

 iter      E             dE          RMSdq      gap      omega  full diag
   1    -23.4454288 -0.234454E+02  0.245E+00   13.13       0.0  T
   2    -23.5053719 -0.599430E-01  0.131E+00   12.95       1.0  T
   3    -23.5061993 -0.827488E-03  0.687E-01   12.94       1.0  T
   4    -23.5063490 -0.149650E-03  0.119E-01   12.94       1.0  T
   5    -23.5064279 -0.789226E-04  0.558E-02   12.95       1.0  T
   6    -23.5064283 -0.381772E-06  0.503E-03   12.95       4.1  T
   7    -23.5064285 -0.183206E-06  0.173E-03   12.95      12.1  T
   8    -23.5064285 -0.795497E-08  0.298E-04   12.95      70.0  T
   9    -23.5064285 -0.285958E-09  0.135E-04   12.95     154.0  T

   *** convergence criteria satisfied after 9 iterations ***

         #    Occupation            Energy/Eh            Energy/eV
      -------------------------------------------------------------
         1        2.0000           -0.6230147             -16.9531
       ...           ...                  ...                  ...
        16        2.0000           -0.4470718             -12.1654
        17        2.0000           -0.4429592             -12.0535
        18        2.0000           -0.4336863             -11.8012
        19        2.0000           -0.4293360             -11.6828
        20        2.0000           -0.4182672             -11.3816
        21        2.0000           -0.4130495             -11.2396
        22        2.0000           -0.4109356             -11.1821 (HOMO)
        23                          0.0648755               1.7654 (LUMO)
        24                          0.0919612               2.5024
        25                          0.0991311               2.6975
        26                          0.1117244               3.0402
        27                          0.1269908               3.4556
       ...                                ...                  ...
        44                          0.3418465               9.3021
      -------------------------------------------------------------
                  HL-Gap            0.4758112 Eh           12.9475 eV
             Fermi-level           -0.1730300 Eh           -4.7084 eV

 SCC (total)                   0 d,  0 h,  0 min,  0.034 sec
 SCC setup                      ...        0 min,  0.000 sec (  0.821%)
 Dispersion                     ...        0 min,  0.000 sec (  0.684%)
 classical contributions        ...        0 min,  0.000 sec (  0.177%)
 integral evaluation            ...        0 min,  0.003 sec (  8.219%)
 iterations                     ...        0 min,  0.023 sec ( 67.900%)
 molecular gradient             ...        0 min,  0.007 sec ( 21.597%)
 printout                       ...        0 min,  0.000 sec (  0.521%)

         :::::::::::::::::::::::::::::::::::::::::::::::::::::
         ::                     SUMMARY                     ::
         :::::::::::::::::::::::::::::::::::::::::::::::::::::
         :: total energy             -23.155084876745 Eh    ::
         :: gradient norm              0.001101782062 Eh/a0 ::
         :: HOMO-LUMO gap             12.947480495981 eV    ::
         ::.................................................::
         :: SCC energy               -23.506356197731 Eh    ::
         :: -> isotropic ES            0.004716627636 Eh    ::
         :: -> anisotropic ES          0.008032492785 Eh    ::
         :: -> anisotropic XC          0.014417581541 Eh    ::
         :: -> dispersion             -0.014072897132 Eh    ::
         :: repulsion energy           0.351271320985 Eh    ::
         :: add. restraining           0.000000000000 Eh    ::
         :: total charge               0.000000000000 e     ::
         :::::::::::::::::::::::::::::::::::::::::::::::::::::

           -------------------------------------------------
          |                Property Printout                |
           -------------------------------------------------

    * Orbital Energies and Occupations

         #    Occupation            Energy/Eh            Energy/eV
      -------------------------------------------------------------
         1        2.0000           -0.6230147             -16.9531
       ...           ...                  ...                  ...
        10        2.0000           -0.4963471             -13.5063
        11        2.0000           -0.4913494             -13.3703
        12        2.0000           -0.4807983             -13.0832
        13        2.0000           -0.4711384             -12.8203
        14        2.0000           -0.4589132             -12.4877
        15        2.0000           -0.4556969             -12.4001
        16        2.0000           -0.4470718             -12.1654
        17        2.0000           -0.4429592             -12.0535
        18        2.0000           -0.4336863             -11.8012
        19        2.0000           -0.4293360             -11.6828
        20        2.0000           -0.4182672             -11.3816
        21        2.0000           -0.4130495             -11.2396
        22        2.0000           -0.4109356             -11.1821 (HOMO)
        23                          0.0648755               1.7654 (LUMO)
        24                          0.0919612               2.5024
        25                          0.0991311               2.6975
        26                          0.1117244               3.0402
        27                          0.1269908               3.4556
        28                          0.1334001               3.6300
        29                          0.1474602               4.0126
        30                          0.1554595               4.2303
        31                          0.1648589               4.4860
        32                          0.1853704               5.0442
        33                          0.1885135               5.1297
       ...                                ...                  ...
        44                          0.3418465               9.3021
      -------------------------------------------------------------
                  HL-Gap            0.4758112 Eh           12.9475 eV
             Fermi-level           -0.1730300 Eh           -4.7084 eV

     #   Z          covCN         q      C6AA      α(0)
     1   6 C        3.752    -0.102    22.503     6.765
     2   6 C        3.800    -0.053    21.523     6.605
     3   6 C        3.801    -0.059    21.635     6.622
     4   6 C        3.802    -0.064    21.723     6.636
     5   6 C        3.848    -0.009    20.710     6.473
     6   6 C        3.755    -0.104    22.550     6.771
     7   6 C        3.755    -0.105    22.571     6.774
     8   1 H        0.925     0.032     2.559     2.501
     9   1 H        0.925     0.031     2.566     2.505
    10   1 H        0.925     0.032     2.564     2.504
    11   1 H        0.924     0.030     2.580     2.512
    12   1 H        0.924     0.026     2.643     2.542
    13   1 H        0.925     0.037     2.490     2.468
    14   1 H        0.924     0.027     2.634     2.538
    15   1 H        0.924     0.027     2.623     2.533
    16   1 H        0.924     0.031     2.569     2.507
    17   1 H        0.924     0.024     2.680     2.560
    18   1 H        0.925     0.037     2.487     2.466
    19   1 H        0.925     0.031     2.571     2.507
    20   1 H        0.925     0.031     2.566     2.505
    21   1 H        0.925     0.032     2.559     2.502
    22   1 H        0.925     0.035     2.510     2.478
    23   1 H        0.925     0.032     2.559     2.502

 Mol. C6AA /au·bohr⁶  :       3400.715909
 Mol. C8AA /au·bohr⁸  :      70196.911861
 Mol. α(0) /au        :         86.776105


Wiberg/Mayer (AO) data.
largest (>0.10) Wiberg bond orders for each atom

 ---------------------------------------------------------------------------
     #   Z sym  total        # sym  WBO       # sym  WBO       # sym  WBO
 ---------------------------------------------------------------------------
     1   6 C    3.997 --     2 C    1.019     9 H    0.988     8 H    0.988
                            10 H    0.988
     2   6 C    3.998 --     1 C    1.019     3 C    1.009    12 H    0.979
                            11 H    0.978
     3   6 C    3.997 --     2 C    1.009     4 C    1.002    14 H    0.981
                            13 H    0.971
     4   6 C    3.997 --     3 C    1.002     5 C    0.996    15 H    0.980
                            16 H    0.977
     5   6 C    3.996 --     6 C    1.010     7 C    1.010     4 C    0.996
                            17 H    0.969
     6   6 C    3.997 --     5 C    1.010    20 H    0.987    19 H    0.987
                            18 H    0.984
     7   6 C    3.997 --     5 C    1.010    21 H    0.987    23 H    0.987
                            22 H    0.984
     8   1 H    0.999 --     1 C    0.988
     9   1 H    0.999 --     1 C    0.988
    10   1 H    0.999 --     1 C    0.988
    11   1 H    0.999 --     2 C    0.978
    12   1 H    0.999 --     2 C    0.979
    13   1 H    0.999 --     3 C    0.971
    14   1 H    0.999 --     3 C    0.981
    15   1 H    0.999 --     4 C    0.980
    16   1 H    0.999 --     4 C    0.977
    17   1 H    0.999 --     5 C    0.969
    18   1 H    0.999 --     6 C    0.984
    19   1 H    0.999 --     6 C    0.987
    20   1 H    0.999 --     6 C    0.987
    21   1 H    0.999 --     7 C    0.987
    22   1 H    0.999 --     7 C    0.984
    23   1 H    0.999 --     7 C    0.987
 ---------------------------------------------------------------------------

Topologies differ in total number of bonds
Writing topology from bond orders to xtbtopo.mol

molecular dipole:
                 x           y           z       tot (Debye)
 q only:       -0.009       0.017      -0.024
   full:       -0.005       0.014      -0.018       0.058
molecular quadrupole (traceless):
                xx          xy          yy          xz          yz          zz
 q only:       -0.123       0.093      -0.012      -0.028       0.062       0.134
  q+dip:       -0.688      -0.301       0.318       0.208      -0.209       0.371
   full:       -0.329      -0.126       0.129       0.083      -0.088       0.200


           -------------------------------------------------
          | TOTAL ENERGY              -23.155084876745 Eh   |
          | GRADIENT NORM               0.001101782062 Eh/α |
          | HOMO-LUMO GAP              12.947480495981 eV   |
           -------------------------------------------------

------------------------------------------------------------------------
 * finished run on 2025/04/11 at 14:13:37.528     
------------------------------------------------------------------------
 total:
 * wall-time:     0 d,  0 h,  0 min,  0.067 sec
 *  cpu-time:     0 d,  0 h,  0 min,  0.040 sec
 * ratio c/w:     0.605 speedup
 SCF:
 * wall-time:     0 d,  0 h,  0 min,  0.035 sec
 *  cpu-time:     0 d,  0 h,  0 min,  0.026 sec
 * ratio c/w:     0.758 speedup

