! r2scan-3c def2/J RI DEFGRID2 scfconv6 printgap
%output
    printlevel normal
end
%cpcm
    smd true
    smdsolvent "water"
end
* xyz 0 1
C -2.5344942489 -1.2953028375 -0.2315808051
C -2.5517650805 0.190485995 0.106433856
C -1.2623927861 0.6238710939 0.8118983387
C -0.0808425532 0.515974401 -0.1179450967
O -0.0047215204 1.0522886637 -1.2048096104
O 0.8759669637 -0.2414955017 0.398400585
C 2.0998648776 -0.4297036668 -0.332947111
C 3.2696395732 -0.3358659564 0.6308106846
H -2.399837457 -1.8905275133 0.6683665854
H -3.4685473365 -1.5871605516 -0.7040420331
H -1.7196277707 -1.5191738211 -0.9177114163
H -3.3985250786 0.4086892898 0.757574518
H -2.6615923662 0.7745807655 -0.8092593323
H -1.0715284109 0.0096804211 1.690953127
H -1.3476068642 1.6700443923 1.1102997136
H 2.0505757497 -1.4193226125 -0.796193562
H 2.1553413186 0.3309980851 -1.1180696248
H 3.1623326627 -1.07869729 1.4157240378
H 4.1937483508 -0.5146860707 0.0909996572
H 3.3068726796 0.6508001104 1.0843108004
*
