      -----------------------------------------------------------      
     |                   =====================                   |     
     |                           x T B                           |     
     |                   =====================                   |     
     |                         S. Grimme                         |     
     |          Mulliken Center for Theoretical Chemistry        |     
     |                    University of Bonn                     |     
      -----------------------------------------------------------      

   * xtb version 6.7.1 (edcfbbe) compiled by 'albert@albert-system' on 2024-07-22

   xtb is free software: you can redistribute it and/or modify it under
   the terms of the GNU Lesser General Public License as published by
   the Free Software Foundation, either version 3 of the License, or
   (at your option) any later version.
   
   xtb is distributed in the hope that it will be useful,
   but WITHOUT ANY WARRANTY; without even the implied warranty of
   MERCHANTABILITY or FITNESS FOR A PARTICULAR PURPOSE.  See the
   GNU Lesser General Public License for more details.
   
   Cite this work as:
   * C. Bannwarth, E. Caldeweyher, S. Ehlert, A. Hansen, P. Pracht,
     J. Seibert, S. Spicher, S. Grimme, WIREs Comput. Mol. Sci., 2020, 11,
     e01493. DOI: 10.1002/wcms.1493
   
   for GFN2-xTB:
   * C. Bannwarth, S. Ehlert and S. Grimme., J. Chem. Theory Comput., 2019,
     15, 1652-1671. DOI: 10.1021/acs.jctc.8b01176
   for GFN1-xTB:
   * S. Grimme, C. Bannwarth, P. Shushkov, J. Chem. Theory Comput., 2017,
     13, 1989-2009. DOI: 10.1021/acs.jctc.7b00118
   for GFN0-xTB:
   * P. Pracht, E. Caldeweyher, S. Ehlert, S. Grimme, ChemRxiv, 2019, preprint.
     DOI: 10.26434/chemrxiv.8326202.v1
   for GFN-FF:
   * S. Spicher and S. Grimme, Angew. Chem. Int. Ed., 2020, 59, 15665-15673.
     DOI: 10.1002/anie.202004239
   
   for ALPB and GBSA implicit solvation:
   * S. Ehlert, M. Stahn, S. Spicher, S. Grimme, J. Chem. Theory Comput.,
     2021, 17, 4250-4261. DOI: 10.1021/acs.jctc.1c00471
   
   for ddCOSMO and CPCM-X implicit solvation:
   * M. Stahn, S. Ehlert, S. Grimme, J. Phys. Chem. A,
     2023, XX, XXXX-XXXX. DOI: 10.1021/acs.jpca.3c04382
   
   for DFT-D4:
   * E. Caldeweyher, C. Bannwarth and S. Grimme, J. Chem. Phys., 2017,
     147, 034112. DOI: 10.1063/1.4993215
   * E. Caldeweyher, S. Ehlert, A. Hansen, H. Neugebauer, S. Spicher,
     C. Bannwarth and S. Grimme, J. Chem. Phys., 2019, 150, 154122.
     DOI: 10.1063/1.5090222
   * E. Caldeweyher, J.-M. Mewes, S. Ehlert and S. Grimme, Phys. Chem. Chem. Phys.
     2020, 22, 8499-8512. DOI: 10.1039/D0CP00502A
   
   for sTDA-xTB:
   * S. Grimme and C. Bannwarth, J. Chem. Phys., 2016, 145, 054103.
     DOI: 10.1063/1.4959605
   
   in the mass-spec context:
   * V. Asgeirsson, C. Bauer and S. Grimme, Chem. Sci., 2017, 8, 4879.
     DOI: 10.1039/c7sc00601b
   * J. Koopman and S. Grimme, ACS Omega 2019, 4, 12, 15120-15133.
     DOI: 10.1021/acsomega.9b02011
   
   for metadynamics refer to:
   * S. Grimme, J. Chem. Theory Comput., 2019, 155, 2847-2862
     DOI: 10.1021/acs.jctc.9b00143
   
   for SPH calculations refer to:
   * S. Spicher and S. Grimme, J. Chem. Theory Comput., 2021, 17, 1701-1714
     DOI: 10.1021/acs.jctc.0c01306
   
   for ONIOM refer to:
   * C. Plett, A. Katbashev, S. Ehlert, S. Grimme, M. Bursch,
     Phys. Chem. Chem. Phys., 2023, 25, 17860-17868. DOI: 10.1039/D3CP02178E
   
   for DIPRO refer to:
   * J. Kohn, N. Gildemeister, S. Grimme, D. Fazzi, A. Hansen,
     J. Chem. Phys., 2023, just accepted.
   
   for PTB refer to:
   * S. Grimme, M. Mueller, A. Hansen, J. Chem. Phys., 2023, 158, 124111.
     DOI: 10.1063/5.0137838
   
   with help from (in alphabetical order)
   P. Atkinson, C. Bannwarth, F. Bohle, G. Brandenburg, E. Caldeweyher
   M. Checinski, S. Dohm, S. Ehlert, S. Ehrlich, I. Gerasimov, C. Hölzer
   A. Katbashev, J. Kohn, J. Koopman, C. Lavigne, S. Lehtola, F. März, M. Müller,
   F. Musil, H. Neugebauer, J. Pisarek, C. Plett, P. Pracht, F. Pultar,
   J. Seibert, P. Shushkov, S. Spicher, M. Stahn, M. Steiner, T. Strunk,
   J. Stückrath, T. Rose, and J. Unsleber
   
 * started run on 2025/04/11 at 16:15:26.024     
   ID    Z sym.   atoms
    1    6 C      1-4, 7, 10, 12
    2    7 N      5, 9
    3    8 O      6, 8
    4   16 S      11
    5    1 H      13-26

           -------------------------------------------------
          |                Calculation Setup                |
           -------------------------------------------------

          program call               : /srv/scratch/z5358697/.xtb/bin/xtb gas.coord --gfn2 --sp --chrg 0 --norestart --parallel 1
          hostname                   : k073
          coordinate file            : gas.coord
          omp threads                :                     1


           -------------------------------------------------
          |                 G F N 2 - x T B                 |
           -------------------------------------------------

        Reference                      10.1021/acs.jctc.8b01176
      * Hamiltonian:
        H0-scaling (s, p, d)           1.850000    2.230000    2.230000
        zeta-weighting                 0.500000
      * Dispersion:
        s8                             2.700000
        a1                             0.520000
        a2                             5.000000
        s9                             5.000000
      * Repulsion:
        kExp                           1.500000    1.000000
        rExp                           1.000000
      * Coulomb:
        alpha                          2.000000
        third order                    shell-resolved
        anisotropic                    true
        a3                             3.000000
        a5                             4.000000
        cn-shift                       1.200000
        cn-exp                         4.000000
        max-rad                        5.000000


          ...................................................
          :                      SETUP                      :
          :.................................................:
          :  # basis functions                  68          :
          :  # atomic orbitals                  67          :
          :  # shells                           39          :
          :  # electrons                        70          :
          :  max. iterations                   250          :
          :  Hamiltonian                  GFN2-xTB          :
          :  restarted?                      false          :
          :  GBSA solvation                  false          :
          :  PC potential                    false          :
          :  electronic temp.          300.0000000     K    :
          :  accuracy                    1.0000000          :
          :  -> integral cutoff          0.2500000E+02      :
          :  -> integral neglect         0.1000000E-07      :
          :  -> SCF convergence          0.1000000E-05 Eh   :
          :  -> wf. convergence          0.1000000E-03 e    :
          :  Broyden damping             0.4000000          :
          :  net charge                          0          :
          :  unpaired electrons                  0          :
          ...................................................

 iter      E             dE          RMSdq      gap      omega  full diag
   1    -39.6427056 -0.396427E+02  0.453E+00    3.86       0.0  T
   2    -39.7351829 -0.924773E-01  0.254E+00    3.33       1.0  T
   3    -39.7370062 -0.182330E-02  0.109E+00    2.71       1.0  T
   4    -39.7393558 -0.234955E-02  0.571E-01    2.78       1.0  T
   5    -39.7427275 -0.337170E-02  0.177E-01    2.72       1.0  T
   6    -39.7427609 -0.334290E-04  0.752E-02    2.75       1.0  T
   7    -39.7427888 -0.278310E-04  0.294E-02    2.75       1.0  T
   8    -39.7427927 -0.391832E-05  0.144E-02    2.75       1.4  T
   9    -39.7427930 -0.285577E-06  0.415E-03    2.75       4.7  T
  10    -39.7427930 -0.738757E-07  0.193E-03    2.75      10.2  T
  11    -39.7427930 -0.958000E-08  0.827E-04    2.75      23.7  T
  12    -39.7427930 -0.138579E-08  0.269E-04    2.75      72.9  T

   *** convergence criteria satisfied after 12 iterations ***

         #    Occupation            Energy/Eh            Energy/eV
      -------------------------------------------------------------
         1        2.0000           -0.7431751             -20.2228
       ...           ...                  ...                  ...
        29        2.0000           -0.4571291             -12.4391
        30        2.0000           -0.4440794             -12.0840
        31        2.0000           -0.4252264             -11.5710
        32        2.0000           -0.4185463             -11.3892
        33        2.0000           -0.4110334             -11.1848
        34        2.0000           -0.3967854             -10.7971
        35        2.0000           -0.3572479              -9.7212 (HOMO)
        36                         -0.2561552              -6.9703 (LUMO)
        37                         -0.1989833              -5.4146
        38                         -0.1892716              -5.1503
        39                         -0.1557379              -4.2378
        40                         -0.0848794              -2.3097
       ...                                ...                  ...
        67                          0.6697517              18.2249
      -------------------------------------------------------------
                  HL-Gap            0.1010927 Eh            2.7509 eV
             Fermi-level           -0.3067016 Eh           -8.3458 eV

 SCC (total)                   0 d,  0 h,  0 min,  0.038 sec
 SCC setup                      ...        0 min,  0.000 sec (  0.681%)
 Dispersion                     ...        0 min,  0.000 sec (  0.460%)
 classical contributions        ...        0 min,  0.000 sec (  0.121%)
 integral evaluation            ...        0 min,  0.013 sec ( 33.562%)
 iterations                     ...        0 min,  0.014 sec ( 37.198%)
 molecular gradient             ...        0 min,  0.010 sec ( 27.420%)
 printout                       ...        0 min,  0.000 sec (  0.516%)

         :::::::::::::::::::::::::::::::::::::::::::::::::::::
         ::                     SUMMARY                     ::
         :::::::::::::::::::::::::::::::::::::::::::::::::::::
         :: total energy             -39.310081635376 Eh    ::
         :: gradient norm              0.041302913466 Eh/a0 ::
         :: HOMO-LUMO gap              2.750871558864 eV    ::
         ::.................................................::
         :: SCC energy               -39.742638634026 Eh    ::
         :: -> isotropic ES            0.061286279593 Eh    ::
         :: -> anisotropic ES          0.003114652952 Eh    ::
         :: -> anisotropic XC          0.023609657817 Eh    ::
         :: -> dispersion             -0.022064267734 Eh    ::
         :: repulsion energy           0.432556998650 Eh    ::
         :: add. restraining           0.000000000000 Eh    ::
         :: total charge               0.000000000000 e     ::
         :::::::::::::::::::::::::::::::::::::::::::::::::::::

           -------------------------------------------------
          |                Property Printout                |
           -------------------------------------------------

    * Orbital Energies and Occupations

         #    Occupation            Energy/Eh            Energy/eV
      -------------------------------------------------------------
         1        2.0000           -0.7431751             -20.2228
       ...           ...                  ...                  ...
        23        2.0000           -0.4983562             -13.5610
        24        2.0000           -0.4908309             -13.3562
        25        2.0000           -0.4821209             -13.1192
        26        2.0000           -0.4797009             -13.0533
        27        2.0000           -0.4762616             -12.9597
        28        2.0000           -0.4693959             -12.7729
        29        2.0000           -0.4571291             -12.4391
        30        2.0000           -0.4440794             -12.0840
        31        2.0000           -0.4252264             -11.5710
        32        2.0000           -0.4185463             -11.3892
        33        2.0000           -0.4110334             -11.1848
        34        2.0000           -0.3967854             -10.7971
        35        2.0000           -0.3572479              -9.7212 (HOMO)
        36                         -0.2561552              -6.9703 (LUMO)
        37                         -0.1989833              -5.4146
        38                         -0.1892716              -5.1503
        39                         -0.1557379              -4.2378
        40                         -0.0848794              -2.3097
        41                         -0.0042856              -0.1166
        42                         -0.0015740              -0.0428
        43                          0.0092560               0.2519
        44                          0.0167082               0.4547
        45                          0.0713572               1.9417
        46                          0.0881167               2.3978
       ...                                ...                  ...
        67                          0.6697517              18.2249
      -------------------------------------------------------------
                  HL-Gap            0.1010927 Eh            2.7509 eV
             Fermi-level           -0.3067016 Eh           -8.3458 eV

     #   Z          covCN         q      C6AA      α(0)
     1   6 C        3.809    -0.112    22.637     6.773
     2   6 C        3.890     0.067    19.404     6.262
     3   6 C        3.773    -0.096    22.356     6.737
     4   6 C        2.880     0.054    26.791     8.485
     5   7 N        1.840    -0.069    23.325     7.157
     6   8 O        1.774    -0.241    17.979     5.726
     7   6 C        2.644     0.401    20.235     7.359
     8   8 O        0.857    -0.431    22.300     6.331
     9   7 N        2.685    -0.182    24.939     7.417
    10   6 C        3.691    -0.046    21.596     6.650
    11  16 S        2.049    -0.205   149.793    20.599
    12   6 C        3.745    -0.048    21.508     6.616
    13   1 H        0.925     0.052     2.291     2.367
    14   1 H        0.925     0.043     2.407     2.426
    15   1 H        0.925     0.051     2.304     2.374
    16   1 H        0.925     0.050     2.314     2.379
    17   1 H        0.925     0.046     2.366     2.405
    18   1 H        0.925     0.045     2.388     2.416
    19   1 H        0.925     0.071     2.078     2.254
    20   1 H        0.860     0.180     1.212     1.725
    21   1 H        0.925     0.058     2.218     2.329
    22   1 H        0.925     0.057     2.230     2.335
    23   1 H        0.925     0.092     1.864     2.135
    24   1 H        0.925     0.051     2.306     2.374
    25   1 H        0.925     0.051     2.305     2.374
    26   1 H        0.926     0.059     2.208     2.324

 Mol. C6AA /au·bohr⁶  :       7094.656323
 Mol. C8AA /au·bohr⁸  :     175626.893599
 Mol. α(0) /au        :        128.329582


Wiberg/Mayer (AO) data.
largest (>0.10) Wiberg bond orders for each atom

 ---------------------------------------------------------------------------
     #   Z sym  total        # sym  WBO       # sym  WBO       # sym  WBO
 ---------------------------------------------------------------------------
     1   6 C    3.993 --     2 C    1.003    13 H    0.985    15 H    0.984
                            14 H    0.980
     2   6 C    3.976 --     1 C    1.003     4 C    0.997     3 C    0.993
                            11 S    0.915
     3   6 C    3.994 --     2 C    0.993    16 H    0.981    17 H    0.981
                            18 H    0.977
     4   6 C    3.969 --     5 N    1.877     2 C    0.997    19 H    0.944
     5   7 N    3.004 --     4 C    1.877     6 O    0.984
     6   8 O    2.270 --     7 C    0.997     5 N    0.984     8 O    0.117
     7   6 C    3.941 --     8 O    1.670     9 N    1.230     6 O    0.997
     8   8 O    2.010 --     7 C    1.670     9 N    0.181     6 O    0.117
     9   7 N    3.418 --     7 C    1.230    10 C    1.000    20 H    0.936
                             8 O    0.181
    10   6 C    3.956 --     9 N    1.000    22 H    0.979    21 H    0.978
                            23 H    0.976
    11  16 S    2.090 --    12 C    1.015     2 C    0.915
    12   6 C    3.982 --    11 S    1.015    24 H    0.984    25 H    0.978
                            26 H    0.977
    13   1 H    0.997 --     1 C    0.985
    14   1 H    0.998 --     1 C    0.980
    15   1 H    0.997 --     1 C    0.984
    16   1 H    0.997 --     3 C    0.981
    17   1 H    0.998 --     3 C    0.981
    18   1 H    0.998 --     3 C    0.977
    19   1 H    0.993 --     4 C    0.944
    20   1 H    0.967 --     9 N    0.936
    21   1 H    0.996 --    10 C    0.978
    22   1 H    0.996 --    10 C    0.979
    23   1 H    0.992 --    10 C    0.976
    24   1 H    0.997 --    12 C    0.984
    25   1 H    0.997 --    12 C    0.978
    26   1 H    0.996 --    12 C    0.977
 ---------------------------------------------------------------------------

Topologies differ in total number of bonds
Writing topology from bond orders to xtbtopo.mol

molecular dipole:
                 x           y           z       tot (Debye)
 q only:        0.553       0.313       1.439
   full:        0.883       0.244       1.951       5.478
molecular quadrupole (traceless):
                xx          xy          yy          xz          yz          zz
 q only:        2.407     -11.744      -4.039     -11.425       2.979       1.632
  q+dip:       -0.095     -14.832      -2.660     -11.250       3.114       2.755
   full:       -1.163     -15.183      -1.935     -12.368       2.691       3.099


           -------------------------------------------------
          | TOTAL ENERGY              -39.310081635376 Eh   |
          | GRADIENT NORM               0.041302913466 Eh/α |
          | HOMO-LUMO GAP               2.750871558864 eV   |
           -------------------------------------------------

------------------------------------------------------------------------
 * finished run on 2025/04/11 at 16:15:26.099     
------------------------------------------------------------------------
 total:
 * wall-time:     0 d,  0 h,  0 min,  0.075 sec
 *  cpu-time:     0 d,  0 h,  0 min,  0.039 sec
 * ratio c/w:     0.527 speedup
 SCF:
 * wall-time:     0 d,  0 h,  0 min,  0.038 sec
 *  cpu-time:     0 d,  0 h,  0 min,  0.029 sec
 * ratio c/w:     0.766 speedup

