      -----------------------------------------------------------      
     |                   =====================                   |     
     |                           x T B                           |     
     |                   =====================                   |     
     |                         S. Grimme                         |     
     |          Mulliken Center for Theoretical Chemistry        |     
     |                    University of Bonn                     |     
      -----------------------------------------------------------      

   * xtb version 6.7.1 (edcfbbe) compiled by 'albert@albert-system' on 2024-07-22

   xtb is free software: you can redistribute it and/or modify it under
   the terms of the GNU Lesser General Public License as published by
   the Free Software Foundation, either version 3 of the License, or
   (at your option) any later version.
   
   xtb is distributed in the hope that it will be useful,
   but WITHOUT ANY WARRANTY; without even the implied warranty of
   MERCHANTABILITY or FITNESS FOR A PARTICULAR PURPOSE.  See the
   GNU Lesser General Public License for more details.
   
   Cite this work as:
   * C. Bannwarth, E. Caldeweyher, S. Ehlert, A. Hansen, P. Pracht,
     J. Seibert, S. Spicher, S. Grimme, WIREs Comput. Mol. Sci., 2020, 11,
     e01493. DOI: 10.1002/wcms.1493
   
   for GFN2-xTB:
   * C. Bannwarth, S. Ehlert and S. Grimme., J. Chem. Theory Comput., 2019,
     15, 1652-1671. DOI: 10.1021/acs.jctc.8b01176
   for GFN1-xTB:
   * S. Grimme, C. Bannwarth, P. Shushkov, J. Chem. Theory Comput., 2017,
     13, 1989-2009. DOI: 10.1021/acs.jctc.7b00118
   for GFN0-xTB:
   * P. Pracht, E. Caldeweyher, S. Ehlert, S. Grimme, ChemRxiv, 2019, preprint.
     DOI: 10.26434/chemrxiv.8326202.v1
   for GFN-FF:
   * S. Spicher and S. Grimme, Angew. Chem. Int. Ed., 2020, 59, 15665-15673.
     DOI: 10.1002/anie.202004239
   
   for ALPB and GBSA implicit solvation:
   * S. Ehlert, M. Stahn, S. Spicher, S. Grimme, J. Chem. Theory Comput.,
     2021, 17, 4250-4261. DOI: 10.1021/acs.jctc.1c00471
   
   for ddCOSMO and CPCM-X implicit solvation:
   * M. Stahn, S. Ehlert, S. Grimme, J. Phys. Chem. A,
     2023, XX, XXXX-XXXX. DOI: 10.1021/acs.jpca.3c04382
   
   for DFT-D4:
   * E. Caldeweyher, C. Bannwarth and S. Grimme, J. Chem. Phys., 2017,
     147, 034112. DOI: 10.1063/1.4993215
   * E. Caldeweyher, S. Ehlert, A. Hansen, H. Neugebauer, S. Spicher,
     C. Bannwarth and S. Grimme, J. Chem. Phys., 2019, 150, 154122.
     DOI: 10.1063/1.5090222
   * E. Caldeweyher, J.-M. Mewes, S. Ehlert and S. Grimme, Phys. Chem. Chem. Phys.
     2020, 22, 8499-8512. DOI: 10.1039/D0CP00502A
   
   for sTDA-xTB:
   * S. Grimme and C. Bannwarth, J. Chem. Phys., 2016, 145, 054103.
     DOI: 10.1063/1.4959605
   
   in the mass-spec context:
   * V. Asgeirsson, C. Bauer and S. Grimme, Chem. Sci., 2017, 8, 4879.
     DOI: 10.1039/c7sc00601b
   * J. Koopman and S. Grimme, ACS Omega 2019, 4, 12, 15120-15133.
     DOI: 10.1021/acsomega.9b02011
   
   for metadynamics refer to:
   * S. Grimme, J. Chem. Theory Comput., 2019, 155, 2847-2862
     DOI: 10.1021/acs.jctc.9b00143
   
   for SPH calculations refer to:
   * S. Spicher and S. Grimme, J. Chem. Theory Comput., 2021, 17, 1701-1714
     DOI: 10.1021/acs.jctc.0c01306
   
   for ONIOM refer to:
   * C. Plett, A. Katbashev, S. Ehlert, S. Grimme, M. Bursch,
     Phys. Chem. Chem. Phys., 2023, 25, 17860-17868. DOI: 10.1039/D3CP02178E
   
   for DIPRO refer to:
   * J. Kohn, N. Gildemeister, S. Grimme, D. Fazzi, A. Hansen,
     J. Chem. Phys., 2023, just accepted.
   
   for PTB refer to:
   * S. Grimme, M. Mueller, A. Hansen, J. Chem. Phys., 2023, 158, 124111.
     DOI: 10.1063/5.0137838
   
   with help from (in alphabetical order)
   P. Atkinson, C. Bannwarth, F. Bohle, G. Brandenburg, E. Caldeweyher
   M. Checinski, S. Dohm, S. Ehlert, S. Ehrlich, I. Gerasimov, C. Hölzer
   A. Katbashev, J. Kohn, J. Koopman, C. Lavigne, S. Lehtola, F. März, M. Müller,
   F. Musil, H. Neugebauer, J. Pisarek, C. Plett, P. Pracht, F. Pultar,
   J. Seibert, P. Shushkov, S. Spicher, M. Stahn, M. Steiner, T. Strunk,
   J. Stückrath, T. Rose, and J. Unsleber
   
 * started run on 2025/04/11 at 16:15:24.365     
   ID    Z sym.   atoms
    1    6 C      1-4, 7, 10, 12
    2    7 N      5, 9
    3    8 O      6, 8
    4   16 S      11
    5    1 H      13-26

           -------------------------------------------------
          |                Calculation Setup                |
           -------------------------------------------------

          program call               : /srv/scratch/z5358697/.xtb/bin/xtb gas.coord --gfn2 --sp --chrg 0 --norestart --parallel 1
          hostname                   : k073
          coordinate file            : gas.coord
          omp threads                :                     1


           -------------------------------------------------
          |                 G F N 2 - x T B                 |
           -------------------------------------------------

        Reference                      10.1021/acs.jctc.8b01176
      * Hamiltonian:
        H0-scaling (s, p, d)           1.850000    2.230000    2.230000
        zeta-weighting                 0.500000
      * Dispersion:
        s8                             2.700000
        a1                             0.520000
        a2                             5.000000
        s9                             5.000000
      * Repulsion:
        kExp                           1.500000    1.000000
        rExp                           1.000000
      * Coulomb:
        alpha                          2.000000
        third order                    shell-resolved
        anisotropic                    true
        a3                             3.000000
        a5                             4.000000
        cn-shift                       1.200000
        cn-exp                         4.000000
        max-rad                        5.000000


          ...................................................
          :                      SETUP                      :
          :.................................................:
          :  # basis functions                  68          :
          :  # atomic orbitals                  67          :
          :  # shells                           39          :
          :  # electrons                        70          :
          :  max. iterations                   250          :
          :  Hamiltonian                  GFN2-xTB          :
          :  restarted?                      false          :
          :  GBSA solvation                  false          :
          :  PC potential                    false          :
          :  electronic temp.          300.0000000     K    :
          :  accuracy                    1.0000000          :
          :  -> integral cutoff          0.2500000E+02      :
          :  -> integral neglect         0.1000000E-07      :
          :  -> SCF convergence          0.1000000E-05 Eh   :
          :  -> wf. convergence          0.1000000E-03 e    :
          :  Broyden damping             0.4000000          :
          :  net charge                          0          :
          :  unpaired electrons                  0          :
          ...................................................

 iter      E             dE          RMSdq      gap      omega  full diag
   1    -39.6339762 -0.396340E+02  0.460E+00    4.01       0.0  T
   2    -39.7401577 -0.106181E+00  0.267E+00    3.15       1.0  T
   3    -39.7431761 -0.301841E-02  0.123E+00    2.63       1.0  T
   4    -39.7457768 -0.260064E-02  0.619E-01    2.60       1.0  T
   5    -39.7496040 -0.382723E-02  0.186E-01    2.53       1.0  T
   6    -39.7496256 -0.215694E-04  0.691E-02    2.57       1.0  T
   7    -39.7496531 -0.275383E-04  0.300E-02    2.57       1.0  T
   8    -39.7496569 -0.379311E-05  0.142E-02    2.57       1.4  T
   9    -39.7496572 -0.309426E-06  0.414E-03    2.57       4.7  T
  10    -39.7496573 -0.802207E-07  0.214E-03    2.57       9.2  T
  11    -39.7496573 -0.747075E-08  0.845E-04    2.57      23.2  T
  12    -39.7496573 -0.169216E-08  0.264E-04    2.57      74.4  T

   *** convergence criteria satisfied after 12 iterations ***

         #    Occupation            Energy/Eh            Energy/eV
      -------------------------------------------------------------
         1        2.0000           -0.7499733             -20.4078
       ...           ...                  ...                  ...
        29        2.0000           -0.4599802             -12.5167
        30        2.0000           -0.4440985             -12.0845
        31        2.0000           -0.4346298             -11.8269
        32        2.0000           -0.4238093             -11.5324
        33        2.0000           -0.4117014             -11.2030
        34        2.0000           -0.4084303             -11.1140
        35        2.0000           -0.3640564              -9.9065 (HOMO)
        36                         -0.2697416              -7.3400 (LUMO)
        37                         -0.2049473              -5.5769
        38                         -0.1897742              -5.1640
        39                         -0.1534187              -4.1747
        40                         -0.0919058              -2.5009
       ...                                ...                  ...
        67                          0.6356564              17.2971
      -------------------------------------------------------------
                  HL-Gap            0.0943148 Eh            2.5664 eV
             Fermi-level           -0.3168990 Eh           -8.6233 eV

 SCC (total)                   0 d,  0 h,  0 min,  0.043 sec
 SCC setup                      ...        0 min,  0.000 sec (  0.466%)
 Dispersion                     ...        0 min,  0.000 sec (  0.400%)
 classical contributions        ...        0 min,  0.000 sec (  0.073%)
 integral evaluation            ...        0 min,  0.019 sec ( 45.171%)
 iterations                     ...        0 min,  0.014 sec ( 31.496%)
 molecular gradient             ...        0 min,  0.009 sec ( 21.913%)
 printout                       ...        0 min,  0.000 sec (  0.442%)

         :::::::::::::::::::::::::::::::::::::::::::::::::::::
         ::                     SUMMARY                     ::
         :::::::::::::::::::::::::::::::::::::::::::::::::::::
         :: total energy             -39.317589464429 Eh    ::
         :: gradient norm              0.042161288460 Eh/a0 ::
         :: HOMO-LUMO gap              2.566435342125 eV    ::
         ::.................................................::
         :: SCC energy               -39.749587644837 Eh    ::
         :: -> isotropic ES            0.061942259062 Eh    ::
         :: -> anisotropic ES         -0.001964152645 Eh    ::
         :: -> anisotropic XC          0.023526025570 Eh    ::
         :: -> dispersion             -0.021177517100 Eh    ::
         :: repulsion energy           0.431998180408 Eh    ::
         :: add. restraining           0.000000000000 Eh    ::
         :: total charge              -0.000000000000 e     ::
         :::::::::::::::::::::::::::::::::::::::::::::::::::::

           -------------------------------------------------
          |                Property Printout                |
           -------------------------------------------------

    * Orbital Energies and Occupations

         #    Occupation            Energy/Eh            Energy/eV
      -------------------------------------------------------------
         1        2.0000           -0.7499733             -20.4078
       ...           ...                  ...                  ...
        23        2.0000           -0.5002876             -13.6135
        24        2.0000           -0.4934795             -13.4283
        25        2.0000           -0.4841010             -13.1731
        26        2.0000           -0.4769187             -12.9776
        27        2.0000           -0.4750917             -12.9279
        28        2.0000           -0.4681855             -12.7400
        29        2.0000           -0.4599802             -12.5167
        30        2.0000           -0.4440985             -12.0845
        31        2.0000           -0.4346298             -11.8269
        32        2.0000           -0.4238093             -11.5324
        33        2.0000           -0.4117014             -11.2030
        34        2.0000           -0.4084303             -11.1140
        35        2.0000           -0.3640564              -9.9065 (HOMO)
        36                         -0.2697416              -7.3400 (LUMO)
        37                         -0.2049473              -5.5769
        38                         -0.1897742              -5.1640
        39                         -0.1534187              -4.1747
        40                         -0.0919058              -2.5009
        41                         -0.0119399              -0.3249
        42                         -0.0081132              -0.2208
        43                         -0.0040789              -0.1110
        44                          0.0111140               0.3024
        45                          0.0619350               1.6853
        46                          0.0891673               2.4264
       ...                                ...                  ...
        67                          0.6356564              17.2971
      -------------------------------------------------------------
                  HL-Gap            0.0943148 Eh            2.5664 eV
             Fermi-level           -0.3168990 Eh           -8.6233 eV

     #   Z          covCN         q      C6AA      α(0)
     1   6 C        3.785    -0.102    22.466     6.751
     2   6 C        3.892     0.070    19.363     6.255
     3   6 C        3.817    -0.102    22.437     6.741
     4   6 C        2.888     0.065    26.548     8.447
     5   7 N        1.836    -0.122    24.416     7.323
     6   8 O        1.770    -0.223    17.693     5.680
     7   6 C        2.642     0.397    20.295     7.370
     8   8 O        0.858    -0.444    22.571     6.370
     9   7 N        2.681    -0.180    24.893     7.410
    10   6 C        3.692    -0.047    21.602     6.651
    11  16 S        2.081    -0.221   150.480    20.646
    12   6 C        3.745    -0.048    21.510     6.616
    13   1 H        0.925     0.067     2.114     2.274
    14   1 H        0.925     0.043     2.414     2.430
    15   1 H        0.925     0.049     2.334     2.389
    16   1 H        0.925     0.050     2.320     2.382
    17   1 H        0.925     0.061     2.183     2.311
    18   1 H        0.925     0.054     2.272     2.357
    19   1 H        0.925     0.072     2.064     2.247
    20   1 H        0.860     0.198     1.115     1.654
    21   1 H        0.925     0.058     2.223     2.332
    22   1 H        0.925     0.058     2.221     2.331
    23   1 H        0.925     0.089     1.886     2.147
    24   1 H        0.925     0.060     2.193     2.316
    25   1 H        0.925     0.044     2.397     2.421
    26   1 H        0.925     0.053     2.289     2.366

 Mol. C6AA /au·bohr⁶  :       7083.331707
 Mol. C8AA /au·bohr⁸  :     175570.232067
 Mol. α(0) /au        :        128.216301


Wiberg/Mayer (AO) data.
largest (>0.10) Wiberg bond orders for each atom

 ---------------------------------------------------------------------------
     #   Z sym  total        # sym  WBO       # sym  WBO       # sym  WBO
 ---------------------------------------------------------------------------
     1   6 C    3.992 --     2 C    1.001    14 H    0.984    15 H    0.983
                            13 H    0.973
     2   6 C    3.975 --     4 C    1.004     1 C    1.001     3 C    0.971
                            11 S    0.933
     3   6 C    3.990 --    16 H    0.984    18 H    0.980    17 H    0.978
                             2 C    0.971
     4   6 C    3.964 --     5 N    1.857     2 C    1.004    19 H    0.945
     5   7 N    3.015 --     4 C    1.857     6 O    0.988
     6   8 O    2.280 --     7 C    1.001     5 N    0.988     8 O    0.106
     7   6 C    3.939 --     8 O    1.629     9 N    1.264     6 O    1.001
     8   8 O    1.984 --     7 C    1.629     9 N    0.182     6 O    0.106
     9   7 N    3.439 --     7 C    1.264    10 C    1.001    20 H    0.920
                             8 O    0.182
    10   6 C    3.958 --     9 N    1.001    21 H    0.978    22 H    0.978
                            23 H    0.976
    11  16 S    2.071 --    12 C    1.012     2 C    0.933
    12   6 C    3.981 --    11 S    1.012    26 H    0.984    25 H    0.984
                            24 H    0.980
    13   1 H    0.995 --     1 C    0.973
    14   1 H    0.998 --     1 C    0.984
    15   1 H    0.998 --     1 C    0.983
    16   1 H    0.997 --     3 C    0.984
    17   1 H    0.996 --     3 C    0.978
    18   1 H    0.997 --     3 C    0.980
    19   1 H    0.993 --     4 C    0.945
    20   1 H    0.961 --     9 N    0.920
    21   1 H    0.996 --    10 C    0.978
    22   1 H    0.996 --    10 C    0.978
    23   1 H    0.992 --    10 C    0.976
    24   1 H    0.996 --    12 C    0.980
    25   1 H    0.998 --    12 C    0.984
    26   1 H    0.997 --    12 C    0.984
 ---------------------------------------------------------------------------

Topologies differ in total number of bonds
Writing topology from bond orders to xtbtopo.mol

molecular dipole:
                 x           y           z       tot (Debye)
 q only:       -0.060       0.065       1.451
   full:       -0.006       0.280       1.575       4.065
molecular quadrupole (traceless):
                xx          xy          yy          xz          yz          zz
 q only:        0.809       1.001       2.531     -15.607       0.247      -3.340
  q+dip:       -5.402       2.821       6.588     -18.721       0.251      -1.187
   full:       -5.605       2.720       8.230     -18.015       0.692      -2.625


           -------------------------------------------------
          | TOTAL ENERGY              -39.317589464429 Eh   |
          | GRADIENT NORM               0.042161288460 Eh/α |
          | HOMO-LUMO GAP               2.566435342125 eV   |
           -------------------------------------------------

------------------------------------------------------------------------
 * finished run on 2025/04/11 at 16:15:24.517     
------------------------------------------------------------------------
 total:
 * wall-time:     0 d,  0 h,  0 min,  0.151 sec
 *  cpu-time:     0 d,  0 h,  0 min,  0.057 sec
 * ratio c/w:     0.377 speedup
 SCF:
 * wall-time:     0 d,  0 h,  0 min,  0.043 sec
 *  cpu-time:     0 d,  0 h,  0 min,  0.028 sec
 * ratio c/w:     0.646 speedup

