      -----------------------------------------------------------      
     |                   =====================                   |     
     |                           x T B                           |     
     |                   =====================                   |     
     |                         S. Grimme                         |     
     |          Mulliken Center for Theoretical Chemistry        |     
     |                    University of Bonn                     |     
      -----------------------------------------------------------      

   * xtb version 6.7.1 (edcfbbe) compiled by 'albert@albert-system' on 2024-07-22

   xtb is free software: you can redistribute it and/or modify it under
   the terms of the GNU Lesser General Public License as published by
   the Free Software Foundation, either version 3 of the License, or
   (at your option) any later version.
   
   xtb is distributed in the hope that it will be useful,
   but WITHOUT ANY WARRANTY; without even the implied warranty of
   MERCHANTABILITY or FITNESS FOR A PARTICULAR PURPOSE.  See the
   GNU Lesser General Public License for more details.
   
   Cite this work as:
   * C. Bannwarth, E. Caldeweyher, S. Ehlert, A. Hansen, P. Pracht,
     J. Seibert, S. Spicher, S. Grimme, WIREs Comput. Mol. Sci., 2020, 11,
     e01493. DOI: 10.1002/wcms.1493
   
   for GFN2-xTB:
   * C. Bannwarth, S. Ehlert and S. Grimme., J. Chem. Theory Comput., 2019,
     15, 1652-1671. DOI: 10.1021/acs.jctc.8b01176
   for GFN1-xTB:
   * S. Grimme, C. Bannwarth, P. Shushkov, J. Chem. Theory Comput., 2017,
     13, 1989-2009. DOI: 10.1021/acs.jctc.7b00118
   for GFN0-xTB:
   * P. Pracht, E. Caldeweyher, S. Ehlert, S. Grimme, ChemRxiv, 2019, preprint.
     DOI: 10.26434/chemrxiv.8326202.v1
   for GFN-FF:
   * S. Spicher and S. Grimme, Angew. Chem. Int. Ed., 2020, 59, 15665-15673.
     DOI: 10.1002/anie.202004239
   
   for ALPB and GBSA implicit solvation:
   * S. Ehlert, M. Stahn, S. Spicher, S. Grimme, J. Chem. Theory Comput.,
     2021, 17, 4250-4261. DOI: 10.1021/acs.jctc.1c00471
   
   for ddCOSMO and CPCM-X implicit solvation:
   * M. Stahn, S. Ehlert, S. Grimme, J. Phys. Chem. A,
     2023, XX, XXXX-XXXX. DOI: 10.1021/acs.jpca.3c04382
   
   for DFT-D4:
   * E. Caldeweyher, C. Bannwarth and S. Grimme, J. Chem. Phys., 2017,
     147, 034112. DOI: 10.1063/1.4993215
   * E. Caldeweyher, S. Ehlert, A. Hansen, H. Neugebauer, S. Spicher,
     C. Bannwarth and S. Grimme, J. Chem. Phys., 2019, 150, 154122.
     DOI: 10.1063/1.5090222
   * E. Caldeweyher, J.-M. Mewes, S. Ehlert and S. Grimme, Phys. Chem. Chem. Phys.
     2020, 22, 8499-8512. DOI: 10.1039/D0CP00502A
   
   for sTDA-xTB:
   * S. Grimme and C. Bannwarth, J. Chem. Phys., 2016, 145, 054103.
     DOI: 10.1063/1.4959605
   
   in the mass-spec context:
   * V. Asgeirsson, C. Bauer and S. Grimme, Chem. Sci., 2017, 8, 4879.
     DOI: 10.1039/c7sc00601b
   * J. Koopman and S. Grimme, ACS Omega 2019, 4, 12, 15120-15133.
     DOI: 10.1021/acsomega.9b02011
   
   for metadynamics refer to:
   * S. Grimme, J. Chem. Theory Comput., 2019, 155, 2847-2862
     DOI: 10.1021/acs.jctc.9b00143
   
   for SPH calculations refer to:
   * S. Spicher and S. Grimme, J. Chem. Theory Comput., 2021, 17, 1701-1714
     DOI: 10.1021/acs.jctc.0c01306
   
   for ONIOM refer to:
   * C. Plett, A. Katbashev, S. Ehlert, S. Grimme, M. Bursch,
     Phys. Chem. Chem. Phys., 2023, 25, 17860-17868. DOI: 10.1039/D3CP02178E
   
   for DIPRO refer to:
   * J. Kohn, N. Gildemeister, S. Grimme, D. Fazzi, A. Hansen,
     J. Chem. Phys., 2023, just accepted.
   
   for PTB refer to:
   * S. Grimme, M. Mueller, A. Hansen, J. Chem. Phys., 2023, 158, 124111.
     DOI: 10.1063/5.0137838
   
   with help from (in alphabetical order)
   P. Atkinson, C. Bannwarth, F. Bohle, G. Brandenburg, E. Caldeweyher
   M. Checinski, S. Dohm, S. Ehlert, S. Ehrlich, I. Gerasimov, C. Hölzer
   A. Katbashev, J. Kohn, J. Koopman, C. Lavigne, S. Lehtola, F. März, M. Müller,
   F. Musil, H. Neugebauer, J. Pisarek, C. Plett, P. Pracht, F. Pultar,
   J. Seibert, P. Shushkov, S. Spicher, M. Stahn, M. Steiner, T. Strunk,
   J. Stückrath, T. Rose, and J. Unsleber
   
 * started run on 2025/04/11 at 14:48:45.693     
   ID    Z sym.   atoms
    1    6 C      1-6
    2    1 H      7-18

           -------------------------------------------------
          |                Calculation Setup                |
           -------------------------------------------------

          program call               : /software/projects/pawsey0265/mwang1/xtb/bin/xtb xtb_rrho.coord --gfn2 --ohess vtight --chrg 0 --enso --norestart -I rrho-xcontrol-inp --parallel 1 --alpb water
          hostname                   : nid002549
          coordinate file            : xtb_rrho.coord
          omp threads                :                     1


           -------------------------------------------------
          |                 G F N 2 - x T B                 |
           -------------------------------------------------

        Reference                      10.1021/acs.jctc.8b01176
      * Hamiltonian:
        H0-scaling (s, p, d)           1.850000    2.230000    2.230000
        zeta-weighting                 0.500000
      * Dispersion:
        s8                             2.700000
        a1                             0.520000
        a2                             5.000000
        s9                             5.000000
      * Repulsion:
        kExp                           1.500000    1.000000
        rExp                           1.000000
      * Coulomb:
        alpha                          2.000000
        third order                    shell-resolved
        anisotropic                    true
        a3                             3.000000
        a5                             4.000000
        cn-shift                       1.200000
        cn-exp                         4.000000
        max-rad                        5.000000

      * Solvation model:               ALPB
        Solvent                        water
        Parameter file                 internal GFN2-xTB/ALPB
        Dielectric constant                8.0200E+01
        Reference state                gsolv [1 M gas/solution]
        Free energy shift                  1.0808E-03 Eh       6.7819E-01 kcal/mol
        Temperature                        2.9815E+02 K
        Density                            1.0000E+00 kg/L
        Solvent mass                       1.8000E+01 g/mol
        Interaction kernel             P16
        Born radius scaling (c1)           1.4744E+00
        Born radii integrator          GBOBC
        Born offset                        0.0000E+00 a0       0.0000E+00 AA
        H-bond correction              true
        Ion screening                  false
        Surface tension                    1.0000E-05 Eh       1.5569E+01 dyn/cm
        Grid points                               974 per atom

          ...................................................
          :                      SETUP                      :
          :.................................................:
          :  # basis functions                  36          :
          :  # atomic orbitals                  36          :
          :  # shells                           24          :
          :  # electrons                        36          :
          :  max. iterations                   250          :
          :  Hamiltonian                  GFN2-xTB          :
          :  restarted?                      false          :
          :  GBSA solvation                   true          :
          :  PC potential                    false          :
          :  electronic temp.          300.0000000     K    :
          :  accuracy                    1.0000000          :
          :  -> integral cutoff          0.2500000E+02      :
          :  -> integral neglect         0.1000000E-07      :
          :  -> SCF convergence          0.1000000E-05 Eh   :
          :  -> wf. convergence          0.1000000E-03 e    :
          :  Broyden damping             0.4000000          :
          :  net charge                          0          :
          :  unpaired electrons                  0          :
          ...................................................

 iter      E             dE          RMSdq      gap      omega  full diag
   1    -19.2055206 -0.192055E+02  0.339E+00    5.39       0.0  T
   2    -19.2318914 -0.263707E-01  0.200E+00    5.31       1.0  T
   3    -19.2308278  0.106360E-02  0.810E-01    5.30       1.0  T
   4    -19.2322692 -0.144147E-02  0.426E-01    5.25       1.0  T
   5    -19.2339794 -0.171012E-02  0.632E-02    5.26       1.0  T
   6    -19.2339836 -0.419938E-05  0.298E-02    5.27       1.0  T
   7    -19.2339844 -0.819955E-06  0.546E-03    5.27       4.3  T
   8    -19.2339844 -0.556568E-07  0.169E-03    5.27      14.0  T
   9    -19.2339844 -0.272676E-08  0.756E-04    5.27      31.2  T
  10    -19.2339844 -0.154458E-08  0.182E-04    5.27     129.5  T

   *** convergence criteria satisfied after 10 iterations ***

         #    Occupation            Energy/Eh            Energy/eV
      -------------------------------------------------------------
         1        2.0000           -0.6216708             -16.9165
       ...           ...                  ...                  ...
        12        2.0000           -0.4523725             -12.3097
        13        2.0000           -0.4435889             -12.0707
        14        2.0000           -0.4427372             -12.0475
        15        2.0000           -0.4276491             -11.6369
        16        2.0000           -0.4191985             -11.4070
        17        2.0000           -0.4188640             -11.3979
        18        2.0000           -0.3918093             -10.6617 (HOMO)
        19                         -0.1982708              -5.3952 (LUMO)
        20                          0.0616030               1.6763
        21                          0.1164197               3.1679
        22                          0.1175059               3.1975
        23                          0.1224525               3.3321
       ...                                ...                  ...
        36                          0.5913278              16.0908
      -------------------------------------------------------------
                  HL-Gap            0.1935385 Eh            5.2664 eV
             Fermi-level           -0.2950401 Eh           -8.0284 eV

 SCC (total)                   0 d,  0 h,  0 min,  0.037 sec
 SCC setup                      ...        0 min,  0.001 sec (  3.092%)
 Dispersion                     ...        0 min,  0.000 sec (  0.278%)
 classical contributions        ...        0 min,  0.000 sec (  0.096%)
 integral evaluation            ...        0 min,  0.001 sec (  3.088%)
 iterations                     ...        0 min,  0.032 sec ( 85.650%)
 molecular gradient             ...        0 min,  0.003 sec (  7.508%)
 printout                       ...        0 min,  0.000 sec (  0.237%)

         :::::::::::::::::::::::::::::::::::::::::::::::::::::
         ::                     SUMMARY                     ::
         :::::::::::::::::::::::::::::::::::::::::::::::::::::
         :: total energy             -18.933605606012 Eh    ::
         :: total w/o Gsasa/hb       -18.933081579105 Eh    ::
         :: gradient norm              0.027289987518 Eh/a0 ::
         :: HOMO-LUMO gap              5.266449764566 eV    ::
         ::.................................................::
         :: SCC energy               -19.233979571508 Eh    ::
         :: -> isotropic ES            0.004192761019 Eh    ::
         :: -> anisotropic ES          0.005947351487 Eh    ::
         :: -> anisotropic XC          0.014316329823 Eh    ::
         :: -> dispersion             -0.009724090744 Eh    ::
         :: -> Gsolv                  -0.000804907362 Eh    ::
         ::    -> Gelec               -0.000280880454 Eh    ::
         ::    -> Gsasa               -0.001115001460 Eh    ::
         ::    -> Ghb                 -0.000489785145 Eh    ::
         ::    -> Gshift               0.001080759698 Eh    ::
         :: repulsion energy           0.300373965496 Eh    ::
         :: add. restraining           0.000000000000 Eh    ::
         :: total charge               0.000000000000 e     ::
         :::::::::::::::::::::::::::::::::::::::::::::::::::::

      ----------------------------------------------------------- 
     |                   =====================                   |
     |                        A N C O P T                        |
     |                   =====================                   |
     |               Approximate Normal Coordinate               |
     |                Rational Function Optimizer                |
      ----------------------------------------------------------- 
      ----------------------------------------------------------- 
     |                   =====================                   |
     |                        A N C O P T                        |
     |                   =====================                   |
     |               Approximate Normal Coordinate               |
     |                Rational Function Optimizer                |
      ----------------------------------------------------------- 

          ...................................................
          :                      SETUP                      :
          :.................................................:
          :   optimization level         verytight          :
          :   max. optcycles                   360          :
          :   ANC micro-cycles                  20          :
          :   degrees of freedom                48          :
          :.................................................:
          :   RF solver                   davidson          :
          :   write xtbopt.log                true          :
          :   linear?                        false          :
          :   energy convergence         0.1000000E-06 Eh   :
          :   grad. convergence          0.2000000E-03 Eh/α :
          :   maxmium RF displ.          1.0000000          :
          :   Hlow (freq-cutoff)         0.1000000E-01      :
          :   Hmax (freq-cutoff)         5.0000000          :
          :   S6 in model hess.         20.0000000          :
          ...................................................

generating ANC from exact Hessian ...
Using Lindh-Hessian (1995)
 Shifting diagonal of input Hessian by   7.419825327536227E-003
 Lowest  eigenvalues of input Hessian
    0.000000    0.000000    0.000000    0.000000    0.000000    0.000000
    0.010000    0.010117    0.010399    0.013873    0.017494    0.018888
    0.022745    0.022842    0.038484    0.046322    0.049705    0.051064
 Highest eigenvalues
    1.160916    1.193800    1.206369    1.275503    1.479942    1.885070
 

........................................................................
.............................. CYCLE    1 ..............................
........................................................................

 iter      E             dE          RMSdq      gap      omega  full diag
   1    -19.2339844 -0.192340E+02  0.691E-05    5.27       0.0  T
   2    -19.2339844 -0.122391E-10  0.460E-05    5.27     512.0  T
   3    -19.2339844 -0.155218E-10  0.268E-05    5.27     879.1  T
     SCC iter.                  ...        0 min,  0.001 sec
     gradient                   ...        0 min,  0.005 sec
 * total energy  :   -18.9336056 Eh     change       -0.3550937E-10 Eh
   gradient norm :     0.0272900 Eh/α   predicted     0.0000000E+00 (-100.00%)
   displ. norm   :     0.1100791 α      lambda       -0.1425366E-02
   maximum displ.:     0.0675797 α      in ANC's #7, #20, #13, ...

........................................................................
.............................. CYCLE    2 ..............................
........................................................................

 iter      E             dE          RMSdq      gap      omega  full diag
   1    -19.2468369 -0.192468E+02  0.116E-01    5.40       0.0  T
   2    -19.2468404 -0.352033E-05  0.663E-02    5.40       1.0  T
   3    -19.2468401  0.312642E-06  0.100E-02    5.40       2.3  T
   4    -19.2468406 -0.508527E-06  0.395E-03    5.40       6.0  T
   5    -19.2468408 -0.173083E-06  0.160E-03    5.40      14.7  T
   6    -19.2468408 -0.443151E-08  0.481E-04    5.40      49.0  T
   7    -19.2468408 -0.262503E-09  0.607E-05    5.40     388.4  T
     SCC iter.                  ...        0 min,  0.002 sec
     gradient                   ...        0 min,  0.005 sec
 * total energy  :   -18.9344556 Eh     change       -0.8499820E-03 Eh
   gradient norm :     0.0077067 Eh/α   predicted    -0.7213196E-03 ( -15.14%)
   displ. norm   :     0.0249181 α      lambda       -0.1052914E-03
   maximum displ.:     0.0163727 α      in ANC's #20, #32, #7, ...

........................................................................
.............................. CYCLE    3 ..............................
........................................................................

 iter      E             dE          RMSdq      gap      omega  full diag
   1    -19.2504767 -0.192505E+02  0.317E-02    5.42       0.0  T
   2    -19.2504776 -0.867261E-06  0.176E-02    5.42       1.3  T
   3    -19.2504776 -0.193523E-07  0.359E-03    5.42       6.6  T
   4    -19.2504776 -0.824690E-08  0.121E-03    5.42      19.5  T
   5    -19.2504777 -0.116443E-07  0.436E-04    5.42      54.0  T
   6    -19.2504777 -0.201727E-09  0.249E-04    5.42      94.8  T
     SCC iter.                  ...        0 min,  0.002 sec
     gradient                   ...        0 min,  0.004 sec
 * total energy  :   -18.9345123 Eh     change       -0.5675010E-04 Eh
   gradient norm :     0.0018318 Eh/α   predicted    -0.5267971E-04 (  -7.17%)
   displ. norm   :     0.0083395 α      lambda       -0.5390756E-05
   maximum displ.:     0.0051073 α      in ANC's #22, #2, #7, ...

........................................................................
.............................. CYCLE    4 ..............................
........................................................................

 iter      E             dE          RMSdq      gap      omega  full diag
   1    -19.2504433 -0.192504E+02  0.109E-02    5.42       0.0  T
   2    -19.2504433 -0.757904E-07  0.627E-03    5.42       3.8  T
   3    -19.2504433  0.598932E-07  0.305E-03    5.42       7.7  T
   4    -19.2504434 -0.764092E-07  0.509E-04    5.42      46.3  T
   5    -19.2504434 -0.240231E-08  0.103E-04    5.42     228.7  T
     SCC iter.                  ...        0 min,  0.002 sec
     gradient                   ...        0 min,  0.005 sec
 * total energy  :   -18.9345158 Eh     change       -0.3508103E-05 Eh
   gradient norm :     0.0005418 Eh/α   predicted    -0.2693760E-05 ( -23.21%)
   displ. norm   :     0.0046161 α      lambda       -0.5299968E-06
   maximum displ.:     0.0032575 α      in ANC's #7, #11, #1, ...

........................................................................
.............................. CYCLE    5 ..............................
........................................................................

 iter      E             dE          RMSdq      gap      omega  full diag
   1    -19.2502448 -0.192502E+02  0.424E-03    5.42       0.0  T
   2    -19.2502448 -0.280047E-08  0.248E-03    5.42       9.5  T
   3    -19.2502448  0.509581E-08  0.711E-04    5.42      33.2  T
   4    -19.2502448 -0.590852E-08  0.990E-05    5.42     238.1  T
     SCC iter.                  ...        0 min,  0.002 sec
     gradient                   ...        0 min,  0.006 sec
 * total energy  :   -18.9345162 Eh     change       -0.3070770E-06 Eh
   gradient norm :     0.0001345 Eh/α   predicted    -0.2653230E-06 ( -13.60%)
   displ. norm   :     0.0023050 α      lambda       -0.1125139E-06
   maximum displ.:     0.0013085 α      in ANC's #2, #9, #1, ...

........................................................................
.............................. CYCLE    6 ..............................
........................................................................

 iter      E             dE          RMSdq      gap      omega  full diag
   1    -19.2502541 -0.192503E+02  0.184E-03    5.42       0.0  T
   2    -19.2502541 -0.420542E-09  0.110E-03    5.42      21.4  T
   3    -19.2502541 -0.559730E-10  0.586E-05    5.42     402.5  T
   4    -19.2502541 -0.154792E-10  0.352E-05    5.42     670.2  T
     SCC iter.                  ...        0 min,  0.002 sec
     gradient                   ...        0 min,  0.005 sec
 * total energy  :   -18.9345162 Eh     change       -0.4556259E-07 Eh
   gradient norm :     0.0001029 Eh/α   predicted    -0.5481981E-07 (  20.32%)
   displ. norm   :     0.0022885 α      lambda       -0.6607714E-07
   maximum displ.:     0.0013369 α      in ANC's #1, #2, #7, ...

   *** GEOMETRY OPTIMIZATION CONVERGED AFTER 6 ITERATIONS ***

------------------------------------------------------------------------
 total energy gain   :        -0.0009106 Eh       -0.5714 kcal/mol
 total RMSD          :         0.0307784 a0        0.0163 Å
 total power (kW/mol):        -0.3984602 (step)  -35.2143 (real)
------------------------------------------------------------------------

 ANCopt (total)                0 d,  0 h,  0 min,  0.068 sec
 optimizer setup                ...        0 min,  0.000 sec (  0.707%)
 model hessian                  ...        0 min,  0.005 sec (  7.962%)
 ANC generation                 ...        0 min,  0.001 sec (  0.782%)
 coordinate transformation      ...        0 min,  0.000 sec (  0.064%)
 single point calculation       ...        0 min,  0.058 sec ( 86.084%)
 optimization log               ...        0 min,  0.002 sec (  2.468%)
 hessian update                 ...        0 min,  0.000 sec (  0.070%)
 rational function              ...        0 min,  0.001 sec (  1.356%)

================
 final structure:
================
$coord
        5.40437078642408        1.14065879555816       -0.00589123179728      C
        3.33105126331121       -0.84822105950271        0.19980481427150      C
        0.70051361523155        0.31843470660037       -0.02426390444086      C
       -1.36784622097734       -1.67924544912819        0.18238966969650      C
       -4.01752211336581       -0.70476212663626       -0.01570694344122      C
       -4.72448772399376        1.66527060717537       -0.34084667678214      C
        7.25917975050942        0.27223506242129        0.15857480465617      H
        5.20797198249351        2.54135934208943        1.48571704858929      H
        5.29730118053527        2.10667307590500       -1.81718008073929      H
        3.58307826692417       -2.25545950095838       -1.28974000673914      H
        3.49416345817456       -1.82112538896976        2.01348291752393      H
        0.45251477058447        1.72018916781386        1.46983629472021      H
        0.54140564802890        1.28554919833236       -1.84035226654539      H
       -1.09542357521854       -3.09935731241165       -1.29751999788763      H
       -1.18282656671522       -2.66864445743300        1.99017117924520      H
       -5.44650910353943       -2.16415682028456        0.13449042775527      H
       -6.69028948522217        2.17816564531941       -0.45926790754739      H
       -3.39504138439440        3.19530480181260       -0.50164744713320      H
$end
 
 Bond Distances (Angstroems)
 ---------------------------
C1-C2=1.5242         C1-H7=1.0873         C1-H8=1.0878         C1-H9=1.0878         C2-C1=1.5242         C2-C3=1.5274         
C2-H10=1.0925        C2-H11=1.0925        C3-C2=1.5274         C3-C4=1.5256         C3-H12=1.0920        C3-H13=1.0921        
C4-C3=1.5256         C4-C5=1.4976         C4-H14=1.0949        C4-H15=1.0949        C5-C4=1.4976         C5-C6=1.3200         
C5-H16=1.0838        C6-C5=1.3200         C6-H17=1.0769        C6-H18=1.0760        H7-C1=1.0873         H8-C1=1.0878         
H9-C1=1.0878         H10-C2=1.0925        H11-C2=1.0925        H12-C3=1.0920        H13-C3=1.0921        H14-C4=1.0949        
H15-C4=1.0949        H16-C5=1.0838        H17-C6=1.0769        H18-C6=1.0760        
 C  H  Rav=1.0882 sigma=0.0062  Rmin=1.0760  Rmax=1.0949    12
 C  C  Rav=1.4790 sigma=0.0802  Rmin=1.3200  Rmax=1.5274     5
 
 selected bond angles (degree)
 --------------------
H7-C1-C2=110.62                H8-C1-C2=110.48                H8-C1-H7=108.43                H9-C1-C2=110.48                
H9-C1-H7=108.43                H9-C1-H8=108.31                C3-C2-C1=111.80                H10-C2-C1=109.34               
H10-C2-C3=109.31               H11-C2-C1=109.34               H11-C2-C3=109.31               H11-C2-H10=107.63              
C4-C3-C2=111.61                H12-C3-C2=109.14               H12-C3-C4=109.42               H13-C3-C2=109.15               
H13-C3-C4=109.42               H13-C3-H12=108.03              C5-C4-C3=115.35                H14-C4-C3=109.26               
H14-C4-C5=108.03               H15-C4-C3=109.26               H15-C4-C5=108.03               H15-C4-H14=106.56              
C6-C5-C4=126.98                H16-C5-C4=113.75               H16-C5-C6=119.26               H17-C6-C5=121.39               
H18-C6-C5=122.68               H18-C6-H17=115.93              
 
 selected dihedral angles (degree)
 ---------------------------------
C3-C2-C1-H7=179.99            C3-C2-C1-H8= 59.91            C3-C2-C1-H9=300.07            H10-C2-C1-H7=301.18           
H10-C2-C1-H8=181.10           H10-C2-C1-H9= 61.26           H11-C2-C1-H7= 58.80           H11-C2-C1-H8=298.72           
H11-C2-C1-H9=178.88           C4-C3-C2-C1=179.99            C4-C3-C2-H10= 58.78           C4-C3-C2-H11=301.20           
H12-C3-C2-C1=301.06           H12-C3-C2-H10=179.85          H12-C3-C2-H11= 62.27          H13-C3-C2-C1= 58.92           
H13-C3-C2-H10=297.71          H13-C3-C2-H11=180.13          C5-C4-C3-C2=179.97            C5-C4-C3-H12= 59.07           
C5-C4-C3-H13=300.88           H14-C4-C3-C2=301.86           H14-C4-C3-H12=180.96          H14-C4-C3-H13= 62.77          
H15-C4-C3-C2= 58.08           H15-C4-C3-H12=297.18          H15-C4-C3-H13=178.99          C6-C5-C4-C3=359.88            
C6-C5-C4-H14=237.33           C6-C5-C4-H15=122.43           H16-C5-C4-C3=179.91           H16-C5-C4-H14= 57.36          
H16-C5-C4-H15=302.46          H17-C6-C5-C4=180.05           H17-C6-C5-H16=  0.00          H18-C6-C5-C4=  0.00           
H18-C6-C5-H16=179.96          
           -------------------------------------------------
          |                Final Singlepoint                |
           -------------------------------------------------

          ...................................................
          :                      SETUP                      :
          :.................................................:
          :  # basis functions                  36          :
          :  # atomic orbitals                  36          :
          :  # shells                           24          :
          :  # electrons                        36          :
          :  max. iterations                   250          :
          :  Hamiltonian                  GFN2-xTB          :
          :  restarted?                      false          :
          :  GBSA solvation                   true          :
          :  PC potential                    false          :
          :  electronic temp.          300.0000000     K    :
          :  accuracy                    1.0000000          :
          :  -> integral cutoff          0.2500000E+02      :
          :  -> integral neglect         0.1000000E-07      :
          :  -> SCF convergence          0.1000000E-05 Eh   :
          :  -> wf. convergence          0.1000000E-03 e    :
          :  Broyden damping             0.4000000          :
          :  net charge                          0          :
          :  unpaired electrons                  0          :
          ...................................................

 iter      E             dE          RMSdq      gap      omega  full diag
   1    -19.2502541 -0.192503E+02  0.179E-05    5.42       0.0  T
   2    -19.2502541 -0.277112E-12  0.121E-05    5.42    1955.2  T
   3    -19.2502541 -0.213163E-12  0.739E-06    5.42    3190.0  T

   *** convergence criteria satisfied after 3 iterations ***

         #    Occupation            Energy/Eh            Energy/eV
      -------------------------------------------------------------
         1        2.0000           -0.6225088             -16.9393
       ...           ...                  ...                  ...
        12        2.0000           -0.4517263             -12.2921
        13        2.0000           -0.4444440             -12.0939
        14        2.0000           -0.4421342             -12.0311
        15        2.0000           -0.4274507             -11.6315
        16        2.0000           -0.4203712             -11.4389
        17        2.0000           -0.4168006             -11.3417
        18        2.0000           -0.3938260             -10.7166 (HOMO)
        19                         -0.1945989              -5.2953 (LUMO)
        20                          0.0699650               1.9038
        21                          0.1178410               3.2066
        22                          0.1275452               3.4707
        23                          0.1287244               3.5028
       ...                                ...                  ...
        36                          0.6304031              17.1541
      -------------------------------------------------------------
                  HL-Gap            0.1992271 Eh            5.4212 eV
             Fermi-level           -0.2942124 Eh           -8.0059 eV

 SCC (total)                   0 d,  0 h,  0 min,  0.009 sec
 SCC setup                      ...        0 min,  0.001 sec ( 15.237%)
 Dispersion                     ...        0 min,  0.000 sec (  0.704%)
 classical contributions        ...        0 min,  0.000 sec (  0.223%)
 integral evaluation            ...        0 min,  0.002 sec ( 18.860%)
 iterations                     ...        0 min,  0.001 sec ( 11.954%)
 molecular gradient             ...        0 min,  0.005 sec ( 51.721%)
 printout                       ...        0 min,  0.000 sec (  1.081%)

         :::::::::::::::::::::::::::::::::::::::::::::::::::::
         ::                     SUMMARY                     ::
         :::::::::::::::::::::::::::::::::::::::::::::::::::::
         :: total energy             -18.934516198903 Eh    ::
         :: total w/o Gsasa/hb       -18.933975632004 Eh    ::
         :: gradient norm              0.000102896333 Eh/a0 ::
         :: HOMO-LUMO gap              5.421245934875 eV    ::
         ::.................................................::
         :: SCC energy               -19.250248811081 Eh    ::
         :: -> isotropic ES            0.004380782033 Eh    ::
         :: -> anisotropic ES          0.005559129605 Eh    ::
         :: -> anisotropic XC          0.013997947008 Eh    ::
         :: -> dispersion             -0.009752396934 Eh    ::
         :: -> Gsolv                  -0.000812826003 Eh    ::
         ::    -> Gelec               -0.000272259104 Eh    ::
         ::    -> Gsasa               -0.001111910382 Eh    ::
         ::    -> Ghb                 -0.000509416215 Eh    ::
         ::    -> Gshift               0.001080759698 Eh    ::
         :: repulsion energy           0.315732612177 Eh    ::
         :: add. restraining           0.000000000000 Eh    ::
         :: total charge              -0.000000000000 e     ::
         :::::::::::::::::::::::::::::::::::::::::::::::::::::

           ------------------------------------------------- 
          |                Numerical Hessian                |
           ------------------------------------------------- 
step length          :   0.00500
SCC accuracy         :   0.30000
Hessian scale factor :   1.00000
frozen atoms in %    :   0.00000    0
RMS gradient         :   0.00010
estimated CPU  time      0.02 min
estimated wall time      0.02 min

writing file <hessian>.

 projected vibrational frequencies (cm⁻¹)
eigval :       -0.00    -0.00    -0.00     0.00     0.00     0.00
eigval :       91.32   103.36   137.88   146.07   235.60   306.27
eigval :      396.45   540.92   555.05   776.49   825.43   893.82
eigval :      937.95   949.88   954.08  1021.41  1023.23  1091.61
eigval :     1102.51  1114.57  1146.29  1218.42  1262.28  1269.42
eigval :     1282.91  1302.62  1341.89  1373.90  1411.98  1413.90
eigval :     1465.33  1494.20  1500.45  1500.49  1503.82  1721.14
eigval :     2924.31  2950.27  2955.17  2968.95  2974.64  2980.38
eigval :     3024.60  3027.65  3030.91  3037.65  3105.28  3126.71
           -------------------------------------------------
          |                Property Printout                |
           -------------------------------------------------

    * Orbital Energies and Occupations

         #    Occupation            Energy/Eh            Energy/eV
      -------------------------------------------------------------
         1        2.0000           -0.6225088             -16.9393
       ...           ...                  ...                  ...
         6        2.0000           -0.5325023             -14.4901
         7        2.0000           -0.5153721             -14.0240
         8        2.0000           -0.5064420             -13.7810
         9        2.0000           -0.4879967             -13.2791
        10        2.0000           -0.4839839             -13.1699
        11        2.0000           -0.4755101             -12.9393
        12        2.0000           -0.4517263             -12.2921
        13        2.0000           -0.4444440             -12.0939
        14        2.0000           -0.4421342             -12.0311
        15        2.0000           -0.4274508             -11.6315
        16        2.0000           -0.4203712             -11.4389
        17        2.0000           -0.4168006             -11.3417
        18        2.0000           -0.3938260             -10.7166 (HOMO)
        19                         -0.1945988              -5.2953 (LUMO)
        20                          0.0699650               1.9038
        21                          0.1178410               3.2066
        22                          0.1275452               3.4707
        23                          0.1287244               3.5028
        24                          0.1430206               3.8918
        25                          0.1644988               4.4762
        26                          0.1718746               4.6769
        27                          0.1878306               5.1111
        28                          0.1980911               5.3903
        29                          0.2062913               5.6135
       ...                                ...                  ...
        36                          0.6304031              17.1541
      -------------------------------------------------------------
                  HL-Gap            0.1992271 Eh            5.4212 eV
             Fermi-level           -0.2942124 Eh           -8.0059 eV

     #   Z          covCN         q      C6AA      α(0)
     1   6 C        3.752    -0.111    22.686     6.792
     2   6 C        3.801    -0.058    21.615     6.619
     3   6 C        3.803    -0.062    21.695     6.631
     4   6 C        3.805    -0.064    21.730     6.636
     5   6 C        2.885    -0.034    28.837     8.804
     6   6 C        2.835    -0.107    30.685     9.078
     7   1 H        0.925     0.037     2.485     2.465
     8   1 H        0.925     0.036     2.497     2.471
     9   1 H        0.925     0.036     2.497     2.471
    10   1 H        0.924     0.030     2.580     2.512
    11   1 H        0.924     0.030     2.580     2.512
    12   1 H        0.924     0.035     2.517     2.481
    13   1 H        0.924     0.035     2.517     2.481
    14   1 H        0.924     0.046     2.368     2.406
    15   1 H        0.924     0.046     2.367     2.406
    16   1 H        0.925     0.030     2.580     2.512
    17   1 H        0.926     0.033     2.544     2.494
    18   1 H        0.926     0.039     2.461     2.453

 Mol. C6AA /au·bohr⁶  :       2355.747616
 Mol. C8AA /au·bohr⁸  :      50629.564078
 Mol. α(0) /au        :         74.225186


Wiberg/Mayer (AO) data.
largest (>0.10) Wiberg bond orders for each atom

 ---------------------------------------------------------------------------
     #   Z sym  total        # sym  WBO       # sym  WBO       # sym  WBO
 ---------------------------------------------------------------------------
     1   6 C    3.996 --     2 C    1.019     9 H    0.988     8 H    0.988
                             7 H    0.987
     2   6 C    3.998 --     1 C    1.019     3 C    1.008    10 H    0.978
                            11 H    0.978
     3   6 C    3.997 --     4 C    1.008     2 C    1.008    13 H    0.977
                            12 H    0.977
     4   6 C    3.998 --     5 C    1.028     3 C    1.008    14 H    0.958
                            15 H    0.958
     5   6 C    3.991 --     6 C    1.974     4 C    1.028    16 H    0.966
     6   6 C    3.991 --     5 C    1.974    17 H    0.977    18 H    0.974
     7   1 H    0.998 --     1 C    0.987
     8   1 H    0.999 --     1 C    0.988
     9   1 H    0.999 --     1 C    0.988
    10   1 H    0.999 --     2 C    0.978
    11   1 H    0.999 --     2 C    0.978
    12   1 H    0.999 --     3 C    0.977
    13   1 H    0.999 --     3 C    0.977
    14   1 H    0.998 --     4 C    0.958
    15   1 H    0.998 --     4 C    0.958
    16   1 H    0.999 --     5 C    0.966
    17   1 H    0.999 --     6 C    0.977
    18   1 H    0.998 --     6 C    0.974
 ---------------------------------------------------------------------------

Topologies differ in total number of bonds
Writing topology from bond orders to xtbtopo.mol

molecular dipole:
                 x           y           z       tot (Debye)
 q only:        0.170      -0.119       0.020
   full:        0.163      -0.142       0.023       0.553
molecular quadrupole (traceless):
                xx          xy          yy          xz          yz          zz
 q only:       -0.476       0.587       0.816      -0.080      -0.137      -0.340
  q+dip:       -1.172       0.265       1.714      -0.050      -0.286      -0.542
   full:       -0.867       0.522       1.110      -0.085      -0.162      -0.243

           -------------------------------------------------
          |                Geometry Summary                 |
           -------------------------------------------------

      molecular mass/u    :       84.1597044
   center of mass at/Å    :       -0.0000316       0.0000343      -0.0000458
  moments of inertia/u·Å² :        0.5149525E+02   0.3420384E+03   0.3810101E+03
rotational constants/cm⁻¹ :        0.3273628E+00   0.4928578E-01   0.4424458E-01

 * 16 selected distances

     #   Z          #   Z                                           value/Å
     1   6 C        2   6 C                                       1.5242333
     2   6 C        3   6 C                                       1.5273912 (max)
     3   6 C        4   6 C                                       1.5256047
     5   6 C        6   6 C                                       1.3200370
     1   6 C        7   1 H                                       1.0872661
     1   6 C        8   1 H                                       1.0877688
     1   6 C        9   1 H                                       1.0877669
     2   6 C       10   1 H                                       1.0925404
     2   6 C       11   1 H                                       1.0925398
     3   6 C       12   1 H                                       1.0920499
     3   6 C       13   1 H                                       1.0920561
     4   6 C       14   1 H                                       1.0949066
     4   6 C       15   1 H                                       1.0949260
     5   6 C       16   1 H                                       1.0837669
     6   6 C       17   1 H                                       1.0769065
     6   6 C       18   1 H                                       1.0759735 (min)

 * 2 distinct bonds (by element types)

   Z      Z             #   av. dist./Å        max./Å        min./Å
   1 H    6 C          12     1.0882056     1.0949260     1.0759735
   6 C    6 C           4     1.4743166     1.5273912     1.3200370

           -------------------------------------------------
          |               Frequency Printout                |
           -------------------------------------------------
 projected vibrational frequencies (cm⁻¹)
eigval :       -0.00    -0.00    -0.00     0.00     0.00     0.00
eigval :       91.32   103.36   137.88   146.07   235.60   306.27
eigval :      396.45   540.92   555.05   776.49   825.43   893.82
eigval :      937.95   949.88   954.08  1021.41  1023.23  1091.61
eigval :     1102.51  1114.57  1146.29  1218.42  1262.28  1269.42
eigval :     1282.91  1302.62  1341.89  1373.90  1411.98  1413.90
eigval :     1465.33  1494.20  1500.45  1500.49  1503.82  1721.14
eigval :     2924.31  2950.27  2955.17  2968.95  2974.64  2980.38
eigval :     3024.60  3027.65  3030.91  3037.65  3105.28  3126.71
 reduced masses (amu)
   1:  9.44   2:  9.65   3: 10.35   4: 10.03   5: 10.23   6:  8.08   7:  6.52   8:  6.89
   9:  5.73  10:  8.91  11:  2.22  12:  9.18  13:  9.09  14:  8.35  15:  3.40  16:  1.99
  17:  3.03  18:  3.81  19:  5.76  20:  2.88  21:  8.52  22:  5.79  23:  1.62  24:  8.35
  25:  4.17  26:  6.98  27:  8.19  28:  4.82  29:  4.03  30:  2.62  31:  1.87  32:  3.01
  33:  4.70  34:  5.82  35:  3.08  36:  2.38  37:  1.97  38:  1.94  39:  1.53  40:  1.84
  41:  1.61  42: 11.16  43:  1.95  44:  1.48  45:  1.94  46:  2.03  47:  1.46  48:  1.49
  49:  1.95  50:  1.92  51:  1.80  52:  1.27  53:  1.62  54:  2.00
 IR intensities (km·mol⁻¹)
   1:  0.01   2:  0.02   3:  0.00   4:  0.01   5:  0.01   6:  0.12   7:  0.00   8:  0.02
   9:  0.45  10:  0.19  11:  0.00  12:  0.03  13:  0.14  14:  1.56  15:  3.53  16: 14.56
  17:  0.00  18: 14.72  19:  5.55  20:  1.31  21:  7.41  22:  0.30  23: 10.21  24:  0.12
  25:  0.58  26:  0.50  27:  9.53  28:  0.07  29:  0.17  30:  0.02  31:  0.00  32:  8.15
  33:  1.33  34:  0.81  35:  0.99  36: 14.74  37:  3.81  38:  2.38  39:  1.18  40:  0.25
  41:  0.45  42: 32.47  43: 49.19  44: 61.79  45: 22.01  46:162.02  47: 54.84  48: 91.55
  49: 90.14  50: 86.25  51:116.27  52: 39.64  53: 58.23  54: 81.50
 Raman intensities (Ä⁴*amu⁻¹)
   1:  0.00   2:  0.00   3:  0.00   4:  0.00   5:  0.00   6:  0.00   7:  0.00   8:  0.00
   9:  0.00  10:  0.00  11:  0.00  12:  0.00  13:  0.00  14:  0.00  15:  0.00  16:  0.00
  17:  0.00  18:  0.00  19:  0.00  20:  0.00  21:  0.00  22:  0.00  23:  0.00  24:  0.00
  25:  0.00  26:  0.00  27:  0.00  28:  0.00  29:  0.00  30:  0.00  31:  0.00  32:  0.00
  33:  0.00  34:  0.00  35:  0.00  36:  0.00  37:  0.00  38:  0.00  39:  0.00  40:  0.00
  41:  0.00  42:  0.00  43:  0.00  44:  0.00  45:  0.00  46:  0.00  47:  0.00  48:  0.00
  49:  0.00  50:  0.00  51:  0.00  52:  0.00  53:  0.00  54:  0.00
 output can be read by thermo (or use thermo option).
 writing <g98.out> molden fake output.
 recommended (thermochemical) frequency scaling factor: 1.0
           -------------------------------------------------
          |             Thermodynamic Functions             |
           -------------------------------------------------

Molecule has the following symmetry elements: (sigma) 
It seems to be the Cs point group
cs  symmetry found (for desy threshold:  0.10E+00) used in thermo

          ...................................................
          :                      SETUP                      :
          :.................................................:
          :  # frequencies                          48      :
          :  # imaginary freq.                       0      :
          :  linear?                             false      :
          :  only rotor calc.                    false      :
          :  symmetry                               cs      :
          :  rotational number                       1      :
          :  scaling factor                  1.0000000      :
          :  rotor cutoff                    0.0000000 cm⁻¹ :
          :  imag. cutoff                 -100.0000000 cm⁻¹ :
          :.................................................:

    mode    ω/cm⁻¹     T·S(HO)/kcal·mol⁻¹    T·S(FR)/kcal·mol⁻¹   T·S(vib)
   ------------------------------------------------------------------------
       1     91.32    -1.08277 (100.00%)    -0.87791 (  0.00%)    -1.08277
       2    103.36    -1.01070 (100.00%)    -0.84123 (  0.00%)    -1.01070
       3    137.88    -0.84469 (100.00%)    -0.75592 (  0.00%)    -0.84469
       4    146.07    -0.81179 (100.00%)    -0.73882 (  0.00%)    -0.81179
       5    235.60    -0.54737 (100.00%)    -0.59726 (  0.00%)    -0.54737
   ------------------------------------------------------------------------

   temp. (K)  partition function   enthalpy   heat capacity  entropy
                                   cal/mol     cal/K/mol   cal/K/mol   J/K/mol
 298.15  VIB   86.8                 3164.002     21.541     19.482
         ROT  0.198E+06              888.752      2.981     27.216
         INT  0.172E+08             4052.754     24.522     46.698
         TR   0.747E+27             1481.254      4.968     39.186
         TOT                        5534.0082    29.4903    85.8844   359.3402

       T/K    H(0)-H(T)+PV         H(T)/Eh          T*S/Eh         G(T)/Eh
   ------------------------------------------------------------------------
    298.15    0.881900E-02    0.171752E+00    0.408064E-01    0.130946E+00
   ------------------------------------------------------------------------

         :::::::::::::::::::::::::::::::::::::::::::::::::::::
         ::                  THERMODYNAMIC                  ::
         :::::::::::::::::::::::::::::::::::::::::::::::::::::
         :: total free energy         -18.803570321087 Eh   ::
         ::.................................................::
         :: total energy              -18.934516198897 Eh   ::
         :: zero point energy           0.162933311431 Eh   ::
         :: G(RRHO) w/o ZPVE           -0.031987433622 Eh   ::
         :: G(RRHO) contrib.            0.130945877810 Eh   ::
         :::::::::::::::::::::::::::::::::::::::::::::::::::::

optimized geometry written to: xtbopt.coord


           -------------------------------------------------
          | TOTAL ENERGY              -18.934516198897 Eh   |
          | TOTAL ENTHALPY            -18.762763884121 Eh   |
          | TOTAL FREE ENERGY         -18.803570321087 Eh   |
          | GRADIENT NORM               0.000102899048 Eh/α |
          | HOMO-LUMO GAP               5.421246223007 eV   |
           -------------------------------------------------

------------------------------------------------------------------------
 * finished run on 2025/04/11 at 14:48:46.901     
------------------------------------------------------------------------
 total:
 * wall-time:     0 d,  0 h,  0 min,  1.208 sec
 *  cpu-time:     0 d,  0 h,  0 min,  1.146 sec
 * ratio c/w:     0.949 speedup
 SCF:
 * wall-time:     0 d,  0 h,  0 min,  0.038 sec
 *  cpu-time:     0 d,  0 h,  0 min,  0.016 sec
 * ratio c/w:     0.411 speedup
 ANC optimizer:
 * wall-time:     0 d,  0 h,  0 min,  0.081 sec
 *  cpu-time:     0 d,  0 h,  0 min,  0.078 sec
 * ratio c/w:     0.955 speedup
 analytical hessian:
 * wall-time:     0 d,  0 h,  0 min,  1.040 sec
 *  cpu-time:     0 d,  0 h,  0 min,  1.036 sec
 * ratio c/w:     0.997 speedup

