! pbe def2-sv(p) def2/J RI DEFGRID1 loosescf d4 GCP(DFT/SV(P)) printgap
%output
    printlevel normal
end
* xyz 0 1
C -3.6309537698 -0.5013299256 0.3573485786
C -2.2637197491 -0.4717423516 -0.3130420062
C -1.2139267919 0.1864980754 0.5918884375
C 0.102341813 0.2777181512 -0.1332369825
O 0.3001460802 0.9529931583 -1.122262255
O 1.0213226384 -0.5028293453 0.4202926061
C 2.3350791327 -0.5389658685 -0.1634840119
C 3.2097731552 0.5780621152 0.3846225188
H -4.3561209833 -0.9820657684 -0.2932270816
H -3.5842989416 -1.0547156324 1.2916303962
H -3.9735936289 0.5080064447 0.5698514033
H -2.317338123 0.0870610488 -1.2495265034
H -1.9463851681 -1.4898093523 -0.5477256373
H -1.0765619227 -0.3904146772 1.5052218592
H -1.5391433968 1.1982466889 0.8380650825
H 2.7278662581 -1.5198123132 0.1057147993
H 2.2358496048 -0.4526232124 -1.2497740712
H 2.8018300992 1.5447622682 0.0977923041
H 3.2552234682 0.5201362914 1.4687127822
H 4.2110529022 0.4833902271 -0.0226270614
*
