! r2scan-3c def2/J RI DEFGRID2 scfconv6 printgap
%output
    printlevel normal
end
* xyz 0 1
C -3.8747151505 -0.3838968724 -0.3128134768
C -2.6978438825 0.0715831916 0.5414793711
C -1.3699554012 -0.1283424547 -0.1844476682
C -0.1807665452 0.301399388 0.6770274758
C 1.1088723678 0.2401514358 -0.0986064677
O 1.2501166956 0.6145074136 -1.2440086791
O 2.0880128958 -0.2783597518 0.6335052125
C 3.3973936342 -0.3940278818 0.0658262354
H -4.8118285158 -0.2297288881 0.2155967889
H -3.907494962 0.1764497286 -1.2442532449
H -3.7846047167 -1.4405812996 -0.5533961387
H -2.8177407711 1.1275492664 0.7908144708
H -2.6865796851 -0.4934744227 1.4754372735
H -1.3595986937 0.4524975884 -1.1090859947
H -1.2574510301 -1.1803387482 -0.4550961043
H -0.0845494519 -0.3194899849 1.5669628846
H -0.3198441182 1.3393197282 0.9892204443
H 3.7414614509 -1.4071503883 0.2600576092
H 4.0477226757 0.3287530831 0.5563163858
H 3.3545035598 -0.1965858148 -1.0057895668
*
