20
 xtb: 6.7.1 (edcfbbe)
C           -3.32035702130908        0.39344672375709       -0.86257179315264
C           -2.88293814062435       -0.23842219575869        0.45819529723132
C           -1.49236231058008        0.20088083361031        0.92602593533991
C           -0.40598380234906       -0.20093998117047       -0.04879645304677
O            0.87331659169410        0.14780587813786        0.56903729270850
C            1.97793846580071       -0.12154884431313       -0.14974457788737
O            1.94343229532975       -0.61659376612182       -1.26617621793513
C            3.23407400109935        0.22676355612033        0.58225277557651
H           -4.36316939001056        0.14544041953345       -1.08506795403374
H           -3.23733737702285        1.48580668416895       -0.82019875573658
H           -2.71328531353249        0.04350433820407       -1.70396278065494
H           -3.60218111063415        0.02595371609029        1.24151683931897
H           -2.90624894714488       -1.33216467745164        0.37057693356369
H           -1.47268636183606        1.28945526148180        1.06053188479304
H           -1.27524347277731       -0.25505941644969        1.89892678488432
H           -0.41551790097203       -1.27933191173478       -0.24166920785753
H           -0.48001080425944        0.33144407244889       -1.00115266697376
H            3.68447232975960       -0.70429976640289        0.94391328599562
H            3.04580238957752        0.88249149864013        1.43243891147090
H            3.93885644427297        0.69016134075342       -0.11139217305254
