      -----------------------------------------------------------      
     |                   =====================                   |     
     |                           x T B                           |     
     |                   =====================                   |     
     |                         S. Grimme                         |     
     |          Mulliken Center for Theoretical Chemistry        |     
     |                    University of Bonn                     |     
      -----------------------------------------------------------      

   * xtb version 6.7.1 (edcfbbe) compiled by 'albert@albert-system' on 2024-07-22

   xtb is free software: you can redistribute it and/or modify it under
   the terms of the GNU Lesser General Public License as published by
   the Free Software Foundation, either version 3 of the License, or
   (at your option) any later version.
   
   xtb is distributed in the hope that it will be useful,
   but WITHOUT ANY WARRANTY; without even the implied warranty of
   MERCHANTABILITY or FITNESS FOR A PARTICULAR PURPOSE.  See the
   GNU Lesser General Public License for more details.
   
   Cite this work as:
   * C. Bannwarth, E. Caldeweyher, S. Ehlert, A. Hansen, P. Pracht,
     J. Seibert, S. Spicher, S. Grimme, WIREs Comput. Mol. Sci., 2020, 11,
     e01493. DOI: 10.1002/wcms.1493
   
   for GFN2-xTB:
   * C. Bannwarth, S. Ehlert and S. Grimme., J. Chem. Theory Comput., 2019,
     15, 1652-1671. DOI: 10.1021/acs.jctc.8b01176
   for GFN1-xTB:
   * S. Grimme, C. Bannwarth, P. Shushkov, J. Chem. Theory Comput., 2017,
     13, 1989-2009. DOI: 10.1021/acs.jctc.7b00118
   for GFN0-xTB:
   * P. Pracht, E. Caldeweyher, S. Ehlert, S. Grimme, ChemRxiv, 2019, preprint.
     DOI: 10.26434/chemrxiv.8326202.v1
   for GFN-FF:
   * S. Spicher and S. Grimme, Angew. Chem. Int. Ed., 2020, 59, 15665-15673.
     DOI: 10.1002/anie.202004239
   
   for ALPB and GBSA implicit solvation:
   * S. Ehlert, M. Stahn, S. Spicher, S. Grimme, J. Chem. Theory Comput.,
     2021, 17, 4250-4261. DOI: 10.1021/acs.jctc.1c00471
   
   for ddCOSMO and CPCM-X implicit solvation:
   * M. Stahn, S. Ehlert, S. Grimme, J. Phys. Chem. A,
     2023, XX, XXXX-XXXX. DOI: 10.1021/acs.jpca.3c04382
   
   for DFT-D4:
   * E. Caldeweyher, C. Bannwarth and S. Grimme, J. Chem. Phys., 2017,
     147, 034112. DOI: 10.1063/1.4993215
   * E. Caldeweyher, S. Ehlert, A. Hansen, H. Neugebauer, S. Spicher,
     C. Bannwarth and S. Grimme, J. Chem. Phys., 2019, 150, 154122.
     DOI: 10.1063/1.5090222
   * E. Caldeweyher, J.-M. Mewes, S. Ehlert and S. Grimme, Phys. Chem. Chem. Phys.
     2020, 22, 8499-8512. DOI: 10.1039/D0CP00502A
   
   for sTDA-xTB:
   * S. Grimme and C. Bannwarth, J. Chem. Phys., 2016, 145, 054103.
     DOI: 10.1063/1.4959605
   
   in the mass-spec context:
   * V. Asgeirsson, C. Bauer and S. Grimme, Chem. Sci., 2017, 8, 4879.
     DOI: 10.1039/c7sc00601b
   * J. Koopman and S. Grimme, ACS Omega 2019, 4, 12, 15120-15133.
     DOI: 10.1021/acsomega.9b02011
   
   for metadynamics refer to:
   * S. Grimme, J. Chem. Theory Comput., 2019, 155, 2847-2862
     DOI: 10.1021/acs.jctc.9b00143
   
   for SPH calculations refer to:
   * S. Spicher and S. Grimme, J. Chem. Theory Comput., 2021, 17, 1701-1714
     DOI: 10.1021/acs.jctc.0c01306
   
   for ONIOM refer to:
   * C. Plett, A. Katbashev, S. Ehlert, S. Grimme, M. Bursch,
     Phys. Chem. Chem. Phys., 2023, 25, 17860-17868. DOI: 10.1039/D3CP02178E
   
   for DIPRO refer to:
   * J. Kohn, N. Gildemeister, S. Grimme, D. Fazzi, A. Hansen,
     J. Chem. Phys., 2023, just accepted.
   
   for PTB refer to:
   * S. Grimme, M. Mueller, A. Hansen, J. Chem. Phys., 2023, 158, 124111.
     DOI: 10.1063/5.0137838
   
   with help from (in alphabetical order)
   P. Atkinson, C. Bannwarth, F. Bohle, G. Brandenburg, E. Caldeweyher
   M. Checinski, S. Dohm, S. Ehlert, S. Ehrlich, I. Gerasimov, C. Hölzer
   A. Katbashev, J. Kohn, J. Koopman, C. Lavigne, S. Lehtola, F. März, M. Müller,
   F. Musil, H. Neugebauer, J. Pisarek, C. Plett, P. Pracht, F. Pultar,
   J. Seibert, P. Shushkov, S. Spicher, M. Stahn, M. Steiner, T. Strunk,
   J. Stückrath, T. Rose, and J. Unsleber
   
 * started run on 2025/04/11 at 16:11:56.849     
   ID    Z sym.   atoms
    1    6 C      1-5
    2    8 O      6, 7
    3    1 H      8-17

           -------------------------------------------------
          |                Calculation Setup                |
           -------------------------------------------------

          program call               : /srv/scratch/z5358697/.xtb/bin/xtb solv.coord --gfn2 --sp --chrg 0 --norestart --parallel 1 --alpb water reference -I xtb_sp-xcontrol-inp
          hostname                   : k018
          coordinate file            : solv.coord
          omp threads                :                     1


           -------------------------------------------------
          |                 G F N 2 - x T B                 |
           -------------------------------------------------

        Reference                      10.1021/acs.jctc.8b01176
      * Hamiltonian:
        H0-scaling (s, p, d)           1.850000    2.230000    2.230000
        zeta-weighting                 0.500000
      * Dispersion:
        s8                             2.700000
        a1                             0.520000
        a2                             5.000000
        s9                             5.000000
      * Repulsion:
        kExp                           1.500000    1.000000
        rExp                           1.000000
      * Coulomb:
        alpha                          2.000000
        third order                    shell-resolved
        anisotropic                    true
        a3                             3.000000
        a5                             4.000000
        cn-shift                       1.200000
        cn-exp                         4.000000
        max-rad                        5.000000

      * Solvation model:               ALPB
        Solvent                        water
        Parameter file                 internal GFN2-xTB/ALPB
        Dielectric constant                8.0200E+01
        Reference state                gsolv=reference [X=1]
        Free energy shift                  2.8945E-03 Eh       1.8164E+00 kcal/mol
        Temperature                        2.9815E+02 K
        Density                            1.0000E+00 kg/L
        Solvent mass                       1.8000E+01 g/mol
        Interaction kernel             P16
        Born radius scaling (c1)           1.4744E+00
        Born radii integrator          GBOBC
        Born offset                        0.0000E+00 a0       0.0000E+00 AA
        H-bond correction              true
        Ion screening                  false
        Surface tension                    1.0000E-05 Eh       1.5569E+01 dyn/cm
        Grid points                               974 per atom

          ...................................................
          :                      SETUP                      :
          :.................................................:
          :  # basis functions                  38          :
          :  # atomic orbitals                  38          :
          :  # shells                           24          :
          :  # electrons                        42          :
          :  max. iterations                   250          :
          :  Hamiltonian                  GFN2-xTB          :
          :  restarted?                      false          :
          :  GBSA solvation                   true          :
          :  PC potential                    false          :
          :  electronic temp.          300.0000000     K    :
          :  accuracy                    1.0000000          :
          :  -> integral cutoff          0.2500000E+02      :
          :  -> integral neglect         0.1000000E-07      :
          :  -> SCF convergence          0.1000000E-05 Eh   :
          :  -> wf. convergence          0.1000000E-03 e    :
          :  Broyden damping             0.4000000          :
          :  net charge                          0          :
          :  unpaired electrons                  0          :
          ...................................................

 iter      E             dE          RMSdq      gap      omega  full diag
   1    -24.1718326 -0.241718E+02  0.396E+00    5.54       0.0  T
   2    -24.2239131 -0.520805E-01  0.193E+00    4.81       1.0  T
   3    -24.2256610 -0.174797E-02  0.983E-01    5.12       1.0  T
   4    -24.2268728 -0.121175E-02  0.174E-01    4.92       1.0  T
   5    -24.2270305 -0.157727E-03  0.776E-02    4.97       1.0  T
   6    -24.2270330 -0.249921E-05  0.225E-02    4.96       1.1  T
   7    -24.2270341 -0.106739E-05  0.578E-03    4.96       4.2  T
   8    -24.2270341 -0.466989E-07  0.297E-03    4.96       8.2  T
   9    -24.2270341 -0.111084E-07  0.646E-04    4.96      37.6  T
  10    -24.2270341 -0.160002E-08  0.230E-04    4.96     105.6  T

   *** convergence criteria satisfied after 10 iterations ***

         #    Occupation            Energy/Eh            Energy/eV
      -------------------------------------------------------------
         1        2.0000           -0.7449508             -20.2711
       ...           ...                  ...                  ...
        15        2.0000           -0.4775403             -12.9945
        16        2.0000           -0.4749330             -12.9236
        17        2.0000           -0.4573258             -12.4445
        18        2.0000           -0.4385142             -11.9326
        19        2.0000           -0.4306580             -11.7188
        20        2.0000           -0.4275729             -11.6349
        21        2.0000           -0.4201258             -11.4322 (HOMO)
        22                         -0.2377152              -6.4686 (LUMO)
        23                          0.0534698               1.4550
        24                          0.0770032               2.0954
        25                          0.1068832               2.9084
        26                          0.1251357               3.4051
       ...                                ...                  ...
        38                          0.6054820              16.4760
      -------------------------------------------------------------
                  HL-Gap            0.1824106 Eh            4.9636 eV
             Fermi-level           -0.3289205 Eh           -8.9504 eV

 SCC (total)                   0 d,  0 h,  0 min,  0.019 sec
 SCC setup                      ...        0 min,  0.001 sec (  5.553%)
 Dispersion                     ...        0 min,  0.000 sec (  0.474%)
 classical contributions        ...        0 min,  0.000 sec (  0.105%)
 integral evaluation            ...        0 min,  0.001 sec (  6.721%)
 iterations                     ...        0 min,  0.013 sec ( 66.278%)
 molecular gradient             ...        0 min,  0.004 sec ( 19.842%)
 printout                       ...        0 min,  0.000 sec (  0.940%)

         :::::::::::::::::::::::::::::::::::::::::::::::::::::
         ::                     SUMMARY                     ::
         :::::::::::::::::::::::::::::::::::::::::::::::::::::
         :: total energy             -23.954371499488 Eh    ::
         :: total w/o Gsasa/hb       -23.951912034263 Eh    ::
         :: gradient norm              0.000032081146 Eh/a0 ::
         :: HOMO-LUMO gap              4.963644551775 eV    ::
         ::.................................................::
         :: SCC energy               -24.227015886337 Eh    ::
         :: -> isotropic ES            0.073707802412 Eh    ::
         :: -> anisotropic ES          0.002459731899 Eh    ::
         :: -> anisotropic XC          0.005971169102 Eh    ::
         :: -> dispersion             -0.009393230479 Eh    ::
         :: -> Gsolv                  -0.018966748469 Eh    ::
         ::    -> Gelec               -0.016507283244 Eh    ::
         ::    -> Gsasa                0.002867509293 Eh    ::
         ::    -> Ghb                 -0.008221523678 Eh    ::
         ::    -> Gshift               0.002894549160 Eh    ::
         :: repulsion energy           0.272644386849 Eh    ::
         :: add. restraining           0.000000000000 Eh    ::
         :: total charge              -0.000000000000 e     ::
         :::::::::::::::::::::::::::::::::::::::::::::::::::::

           -------------------------------------------------
          |                Property Printout                |
           -------------------------------------------------

    * Orbital Energies and Occupations

         #    Occupation            Energy/Eh            Energy/eV
      -------------------------------------------------------------
         1        2.0000           -0.7449508             -20.2711
       ...           ...                  ...                  ...
         9        2.0000           -0.5635998             -15.3363
        10        2.0000           -0.5473856             -14.8951
        11        2.0000           -0.5147705             -14.0076
        12        2.0000           -0.5121382             -13.9360
        13        2.0000           -0.4968401             -13.5197
        14        2.0000           -0.4835924             -13.1592
        15        2.0000           -0.4775403             -12.9945
        16        2.0000           -0.4749330             -12.9236
        17        2.0000           -0.4573258             -12.4445
        18        2.0000           -0.4385142             -11.9326
        19        2.0000           -0.4306580             -11.7188
        20        2.0000           -0.4275729             -11.6349
        21        2.0000           -0.4201258             -11.4322 (HOMO)
        22                         -0.2377152              -6.4686 (LUMO)
        23                          0.0534698               1.4550
        24                          0.0770032               2.0954
        25                          0.1068832               2.9084
        26                          0.1251357               3.4051
        27                          0.1390730               3.7844
        28                          0.1446633               3.9365
        29                          0.1494978               4.0680
        30                          0.1823628               4.9623
        31                          0.1912521               5.2042
        32                          0.2164465               5.8898
       ...                                ...                  ...
        38                          0.6054820              16.4760
      -------------------------------------------------------------
                  HL-Gap            0.1824106 Eh            4.9636 eV
             Fermi-level           -0.3289205 Eh           -8.9504 eV

     #   Z          covCN         q      C6AA      α(0)
     1   6 C        3.751    -0.116    22.773     6.805
     2   6 C        3.800    -0.061    21.675     6.629
     3   6 C        3.803    -0.059    21.635     6.622
     4   6 C        3.802    -0.111    22.615     6.770
     5   6 C        2.689     0.369    20.738     7.453
     6   8 O        0.856    -0.469    23.114     6.446
     7   8 O        1.659    -0.431    21.455     6.253
     8   1 H        0.925     0.043     2.409     2.427
     9   1 H        0.925     0.039     2.464     2.455
    10   1 H        0.925     0.040     2.445     2.445
    11   1 H        0.924     0.037     2.484     2.464
    12   1 H        0.924     0.040     2.447     2.446
    13   1 H        0.924     0.040     2.445     2.445
    14   1 H        0.924     0.042     2.418     2.432
    15   1 H        0.924     0.089     1.885     2.147
    16   1 H        0.924     0.090     1.878     2.143
    17   1 H        0.804     0.415     0.458     1.063

 Mol. C6AA /au·bohr⁶  :       2215.116938
 Mol. C8AA /au·bohr⁸  :      47348.374530
 Mol. α(0) /au        :         69.445002


Wiberg/Mayer (AO) data.
largest (>0.10) Wiberg bond orders for each atom

 ---------------------------------------------------------------------------
     #   Z sym  total        # sym  WBO       # sym  WBO       # sym  WBO
 ---------------------------------------------------------------------------
     1   6 C    3.996 --     2 C    1.020     9 H    0.987    10 H    0.987
                             8 H    0.986
     2   6 C    3.996 --     1 C    1.020     3 C    1.007    11 H    0.978
                            12 H    0.977
     3   6 C    3.994 --     2 C    1.007     4 C    1.007    14 H    0.976
                            13 H    0.976
     4   6 C    3.992 --     3 C    1.007     5 C    0.987    15 H    0.945
                            16 H    0.945
     5   6 C    3.900 --     6 O    1.724     7 O    1.151     4 C    0.987
     6   8 O    1.994 --     5 C    1.724     7 O    0.157
     7   8 O    2.165 --     5 C    1.151    17 H    0.806     6 O    0.157
     8   1 H    0.998 --     1 C    0.986
     9   1 H    0.998 --     1 C    0.987
    10   1 H    0.998 --     1 C    0.987
    11   1 H    0.998 --     2 C    0.978
    12   1 H    0.998 --     2 C    0.977
    13   1 H    0.998 --     3 C    0.976
    14   1 H    0.998 --     3 C    0.976
    15   1 H    0.992 --     4 C    0.945
    16   1 H    0.992 --     4 C    0.945
    17   1 H    0.828 --     7 O    0.806
 ---------------------------------------------------------------------------

Topologies differ in total number of bonds
Writing topology from bond orders to xtbtopo.mol

molecular dipole:
                 x           y           z       tot (Debye)
 q only:       -1.051       1.535       1.227
   full:       -1.139       1.677       1.342       6.181
molecular quadrupole (traceless):
                xx          xy          yy          xz          yz          zz
 q only:       -4.888       7.216       3.179       5.711       0.468       1.709
  q+dip:       -7.004       7.698       3.533       6.424      -0.122       3.470
   full:       -6.980       7.733       3.677       6.568      -0.380       3.303


           -------------------------------------------------
          | TOTAL ENERGY              -23.954371499488 Eh   |
          | GRADIENT NORM               0.000032081146 Eh/α |
          | HOMO-LUMO GAP               4.963644551775 eV   |
           -------------------------------------------------

------------------------------------------------------------------------
 * finished run on 2025/04/11 at 16:11:56.909     
------------------------------------------------------------------------
 total:
 * wall-time:     0 d,  0 h,  0 min,  0.060 sec
 *  cpu-time:     0 d,  0 h,  0 min,  0.020 sec
 * ratio c/w:     0.332 speedup
 SCF:
 * wall-time:     0 d,  0 h,  0 min,  0.019 sec
 *  cpu-time:     0 d,  0 h,  0 min,  0.012 sec
 * ratio c/w:     0.635 speedup

