23
 xtb: 6.7.1 (edcfbbe)
C           -3.87353615113992       -0.69437297667543       -0.28160021338987
O           -2.96126170334115        0.40477010763901       -0.10578158418444
C           -1.64276747063038        0.09261331161271        0.01313926214854
C           -1.10452123637981       -1.17783969028830       -0.02410143595140
C            0.28014835534471       -1.39060129157355        0.11998327916065
C            1.12220443065434       -0.28358268729701        0.29600588408128
C            0.59745698675321        1.00625178219150        0.32257539290207
C           -0.78186938978314        1.19689347572805        0.19097276983151
O           -1.32379949212409        2.43234381032412        0.23717337738758
O            1.37003388001996        2.12410153606959        0.52739066910896
C            1.94728862479245        2.65364391651809       -0.70033489093900
Cl           2.85069636889629       -0.45910625976205        0.51319688040597
C            0.78261811726859       -2.76040040334756        0.08541125257102
O            0.06419886016646       -3.74670738643381       -0.06761822682814
H           -3.83407767780657       -1.37174095886489        0.57838095106802
H           -3.64810193936305       -1.24150734768257       -1.20338197507478
H           -4.86320912304303       -0.24326572049532       -0.35200522491008
H           -1.73233549647821       -2.05028599422625       -0.15753419447308
H           -0.61038902029482        3.07059248556336        0.41068298306998
H            1.15353401840212        2.91332777179251       -1.40887560795404
H            2.62716135267948        1.92370820951144       -1.14971884753610
H            2.49875636925400        3.54861556867569       -0.40949209751708
H            1.87069931785542       -2.88951114833392        0.20709025643620
