 Entering Gaussian System
 *********************************************
 Gaussian 98:
 frequency output generated by the xtb code
 *********************************************
                         Standard orientation:
 --------------------------------------------------------------------
  Center     Atomic     Atomic              Coordinates (Angstroms)
  Number     Number      Type              X           Y           Z
 --------------------------------------------------------------------
    1          6             0       -3.673513   -0.811454   -0.201649
    2          6             0       -2.643875    0.090676    0.468340
    3          6             0       -1.245288   -0.142222   -0.098483
    4          6             0       -0.205193    0.762720    0.578509
    5          6             0        1.142074    0.509636   -0.039749
    6          8             0        1.610055    1.127195   -0.973780
    7          8             0        1.761837   -0.513899    0.536587
    8          6             0        3.032782   -0.901703    0.008560
    9          1             0       -4.662648   -0.630576    0.210664
   10          1             0       -3.706791   -0.621949   -1.272068
   11          1             0       -3.421698   -1.857971   -0.046927
   12          1             0       -2.923780    1.135095    0.319533
   13          1             0       -2.633927   -0.103434    1.542267
   14          1             0       -1.247261    0.058567   -1.172296
   15          1             0       -0.959905   -1.185693    0.049702
   16          1             0       -0.158082    0.535723    1.642681
   17          1             0       -0.469921    1.808575    0.426244
   18          1             0        3.719451   -0.054685    0.030711
   19          1             0        2.920334   -1.239638   -1.022229
   20          1             0        3.382508   -1.706339    0.647453
 --------------------------------------------------------------------
     1 basis functions        1 primitive gaussians
     1 alpha electrons        1 beta electrons
 
 Harmonic frequencies (cm**-1), IR intensities (km*mol⁻¹),
 Raman scattering activities (A**4/amu), Raman depolarization ratios,
 reduced masses (AMU), force constants (mDyne/A) and normal coordinates:
                      1                      2                      3
                        a                      a                      a 
 Frequencies --    22.9722                34.0206                73.6403
 Red. masses --    11.1398                 1.9385                 6.5190
 Frc consts  --     0.0000                 0.0000                 0.0000
 IR Inten    --     3.1097                 0.3952                 0.3665
 Raman Activ --     0.0000                 0.0000                 0.0000
 Depolar     --     0.0000                 0.0000                 0.0000
 Atom AN      X      Y      Z        X      Y      Z        X      Y      Z
   1   6     0.12  -0.27   0.18     0.02  -0.02  -0.01    -0.01   0.01  -0.03
   2   6     0.03   0.02  -0.06     0.00  -0.01  -0.01    -0.09   0.30  -0.29
   3   6     0.06  -0.02   0.03     0.01   0.00  -0.00     0.05  -0.25   0.27
   4   6    -0.03   0.24  -0.18    -0.00   0.01   0.00     0.01  -0.14   0.18
   5   6     0.03   0.14  -0.02     0.01   0.02   0.01    -0.01  -0.04   0.08
   6   8     0.35   0.31   0.24     0.08   0.14   0.12    -0.15   0.05   0.08
   7   8    -0.30  -0.13  -0.18    -0.06  -0.06  -0.07     0.12  -0.04  -0.04
   8   6    -0.24  -0.23  -0.03    -0.05  -0.07  -0.04     0.08   0.09  -0.20
   9   1     0.03  -0.07   0.03     0.00  -0.01  -0.00    -0.04   0.14  -0.15
  10   1     0.04  -0.17   0.04     0.01  -0.01  -0.00     0.12  -0.21  -0.05
  11   1     0.06  -0.06   0.14     0.01  -0.01   0.00    -0.08   0.02   0.23
  12   1    -0.02  -0.01  -0.11    -0.00  -0.00  -0.01     0.03   0.07  -0.30
  13   1     0.01   0.10  -0.00     0.00   0.00  -0.00    -0.13   0.28  -0.05
  14   1     0.02  -0.09  -0.01     0.00   0.00  -0.00     0.12  -0.21   0.05
  15   1     0.04   0.01   0.09     0.00   0.00   0.00    -0.06  -0.07   0.24
  16   1    -0.02   0.16  -0.03    -0.00   0.00   0.00     0.03  -0.02   0.05
  17   1    -0.02   0.05  -0.14    -0.00   0.00   0.00    -0.02  -0.05   0.03
  18   1    -0.02  -0.11   0.10    -0.18   0.12  -0.52     0.01   0.04  -0.06
  19   1    -0.04   0.03  -0.04    -0.10  -0.54   0.17    -0.00   0.04  -0.06
  20   1    -0.15  -0.14  -0.06     0.23   0.35   0.32     0.06   0.02  -0.08
                      4                      5                      6
                        a                      a                      a 
 Frequencies --    94.4433               107.3730               200.7330
 Red. masses --    10.2709                 7.7431                10.9324
 Frc consts  --     0.0000                 0.0000                 0.0000
 IR Inten    --     0.0104                 0.0936                 6.5690
 Raman Activ --     0.0000                 0.0000                 0.0000
 Depolar     --     0.0000                 0.0000                 0.0000
 Atom AN      X      Y      Z        X      Y      Z        X      Y      Z
   1   6    -0.31   0.14   0.25     0.08  -0.28   0.25     0.25  -0.09  -0.15
   2   6    -0.06   0.04  -0.01    -0.06   0.21  -0.21    -0.10   0.11   0.14
   3   6    -0.15  -0.16  -0.17    -0.09   0.40  -0.36    -0.05   0.22   0.24
   4   6    -0.05  -0.22  -0.24     0.02  -0.10   0.14     0.07   0.13   0.13
   5   6     0.03  -0.11  -0.10     0.00  -0.06   0.08    -0.08  -0.13  -0.11
   6   8     0.24   0.17   0.18    -0.08  -0.07   0.06    -0.07  -0.12  -0.10
   7   8     0.01  -0.19  -0.20     0.07  -0.05   0.06    -0.25  -0.37  -0.36
   8   6     0.29   0.24   0.21     0.04  -0.02  -0.03     0.15   0.19   0.18
   9   1    -0.06   0.10   0.12     0.02  -0.10   0.08     0.03  -0.10  -0.12
  10   1    -0.14   0.01   0.07    -0.02  -0.21   0.05     0.14  -0.01  -0.04
  11   1    -0.13   0.03   0.09     0.10  -0.05   0.19     0.14  -0.01  -0.04
  12   1     0.02   0.02  -0.01    -0.10   0.03  -0.13    -0.07   0.02   0.03
  13   1     0.02   0.04   0.00     0.05   0.15  -0.05    -0.07   0.02   0.04
  14   1    -0.07  -0.05  -0.05    -0.02   0.28  -0.07    -0.02   0.06   0.07
  15   1    -0.07  -0.05  -0.05    -0.06   0.08  -0.26    -0.02   0.06   0.07
  16   1    -0.02  -0.06  -0.07    -0.02  -0.18   0.01     0.06   0.05   0.04
  17   1    -0.01  -0.06  -0.07     0.06   0.00   0.18     0.06   0.05   0.04
  18   1     0.01   0.13   0.13     0.01  -0.01  -0.02    -0.07   0.14   0.14
  19   1     0.21   0.07   0.05    -0.01  -0.00  -0.01     0.21   0.05   0.04
  20   1     0.10   0.09   0.08     0.02  -0.01  -0.02     0.06   0.10   0.09
                      7                      8                      9
                        a                      a                      a 
 Frequencies --   231.3796               250.8348               283.9667
 Red. masses --     2.7380                 9.9528                10.6122
 Frc consts  --     0.0000                 0.0000                 0.0000
 IR Inten    --     1.1513                16.3358                 4.8858
 Raman Activ --     0.0000                 0.0000                 0.0000
 Depolar     --     0.0000                 0.0000                 0.0000
 Atom AN      X      Y      Z        X      Y      Z        X      Y      Z
   1   6    -0.00  -0.05   0.02     0.05   0.05   0.05     0.12   0.16   0.13
   2   6    -0.08   0.17  -0.16     0.12   0.06  -0.11     0.43  -0.05  -0.14
   3   6    -0.01  -0.05   0.09     0.12  -0.12   0.00     0.33  -0.13  -0.22
   4   6    -0.02   0.04  -0.02     0.06  -0.19   0.16    -0.05   0.04   0.06
   5   6     0.00  -0.06   0.07    -0.02   0.13  -0.15    -0.14  -0.02   0.12
   6   8     0.06  -0.11   0.08    -0.32   0.34  -0.18    -0.20  -0.16   0.04
   7   8     0.04  -0.06   0.07    -0.06   0.11  -0.23    -0.33  -0.19   0.01
   8   6     0.01   0.10  -0.12     0.03  -0.30   0.33    -0.19   0.26  -0.01
   9   1     0.08  -0.39   0.36     0.05  -0.08   0.15     0.08   0.13   0.10
  10   1    -0.38   0.28   0.07    -0.12   0.09   0.03    -0.02   0.03   0.04
  11   1     0.32   0.01  -0.37     0.09   0.02  -0.09    -0.03   0.03   0.04
  12   1    -0.02   0.04  -0.13     0.06   0.02  -0.08     0.17   0.00  -0.03
  13   1    -0.05   0.13  -0.03     0.03   0.07  -0.02     0.17  -0.00  -0.04
  14   1     0.04  -0.11   0.01     0.08  -0.03   0.00     0.12  -0.02  -0.06
  15   1    -0.03  -0.01   0.13     0.01  -0.04   0.01     0.12  -0.03  -0.06
  16   1    -0.03   0.07   0.01     0.08  -0.16   0.02    -0.06   0.01   0.02
  17   1     0.01   0.01  -0.07    -0.04  -0.05   0.16    -0.05   0.00  -0.00
  18   1    -0.02   0.05  -0.05     0.08  -0.14   0.14    -0.14   0.14   0.02
  19   1    -0.03   0.05  -0.04     0.11  -0.14   0.10    -0.02   0.10  -0.01
  20   1     0.06   0.03  -0.07    -0.13  -0.08   0.18     0.03   0.09  -0.03
                     10                     11                     12
                        a                      a                      a 
 Frequencies --   389.0605               399.7553               637.3977
 Red. masses --     9.2494                10.6837                11.4304
 Frc consts  --     0.0000                 0.0000                 0.0000
 IR Inten    --     4.4784                10.7799                20.2850
 Raman Activ --     0.0000                 0.0000                 0.0000
 Depolar     --     0.0000                 0.0000                 0.0000
 Atom AN      X      Y      Z        X      Y      Z        X      Y      Z
   1   6    -0.48  -0.11   0.00    -0.10  -0.03  -0.02     0.08   0.05   0.03
   2   6    -0.07  -0.27  -0.25    -0.06  -0.03  -0.03     0.01   0.03   0.03
   3   6     0.22   0.18   0.10     0.02  -0.05   0.11    -0.09  -0.13  -0.10
   4   6     0.13   0.33   0.23     0.14  -0.22   0.22    -0.41   0.09   0.17
   5   6     0.09   0.08   0.09     0.04   0.15  -0.19    -0.06   0.39   0.30
   6   8    -0.02  -0.07  -0.07     0.52  -0.14  -0.19     0.21  -0.35  -0.03
   7   8     0.04  -0.10  -0.14    -0.25   0.16   0.02     0.04   0.10  -0.33
   8   6     0.12  -0.05   0.01    -0.28   0.20   0.01     0.22  -0.09  -0.07
   9   1    -0.07   0.10   0.11    -0.02  -0.01   0.02     0.01  -0.02  -0.02
  10   1    -0.24  -0.06  -0.00    -0.05  -0.00  -0.00     0.05   0.02   0.01
  11   1    -0.24  -0.06   0.01    -0.03  -0.01  -0.02     0.05   0.02   0.01
  12   1    -0.04  -0.08  -0.06    -0.01  -0.01  -0.04     0.02   0.01   0.01
  13   1    -0.03  -0.08  -0.07    -0.05   0.02  -0.00     0.02   0.01   0.01
  14   1     0.13   0.06   0.03     0.03   0.02   0.04    -0.02  -0.04  -0.03
  15   1     0.14   0.07   0.03    -0.02  -0.02   0.00    -0.01  -0.03  -0.01
  16   1     0.03   0.13   0.07     0.20  -0.28   0.01    -0.18  -0.03   0.04
  17   1     0.06   0.10   0.03    -0.04  -0.05   0.32    -0.23   0.00   0.09
  18   1     0.02  -0.00   0.02    -0.10   0.07  -0.01     0.10  -0.06   0.01
  19   1     0.08  -0.03   0.00    -0.09   0.07  -0.00     0.14  -0.08  -0.01
  20   1     0.02  -0.00   0.03    -0.05   0.06  -0.01    -0.06  -0.01   0.07
                     13                     14                     15
                        a                      a                      a 
 Frequencies --   715.5764               777.1698               826.8997
 Red. masses --    12.0652                 1.8815                 3.4685
 Frc consts  --     0.0000                 0.0000                 0.0000
 IR Inten    --    21.3661                 9.4503                 7.7900
 Raman Activ --     0.0000                 0.0000                 0.0000
 Depolar     --     0.0000                 0.0000                 0.0000
 Atom AN      X      Y      Z        X      Y      Z        X      Y      Z
   1   6     0.06   0.03   0.01     0.00  -0.01   0.01    -0.02   0.05  -0.06
   2   6     0.12  -0.06  -0.09     0.03  -0.11   0.11    -0.04   0.15  -0.15
   3   6     0.06   0.10   0.08     0.03  -0.12   0.13     0.03  -0.08   0.09
   4   6    -0.23   0.11   0.13     0.01  -0.08   0.07     0.08  -0.21   0.16
   5   6    -0.53  -0.40  -0.40    -0.00  -0.01  -0.01     0.01  -0.04   0.02
   6   8     0.18  -0.05   0.26     0.03  -0.01   0.00     0.05  -0.05   0.03
   7   8     0.11   0.26  -0.04    -0.00   0.05  -0.05     0.01   0.14  -0.15
   8   6     0.11  -0.03  -0.04    -0.03   0.02   0.01    -0.11   0.06   0.02
   9   1     0.04   0.06   0.05    -0.01   0.04  -0.04     0.02  -0.08   0.08
  10   1    -0.02   0.00   0.00     0.07   0.16   0.03    -0.15  -0.24  -0.05
  11   1    -0.02  -0.00   0.01    -0.10  -0.05  -0.14     0.19   0.09   0.21
  12   1     0.03  -0.02  -0.02     0.08  -0.06  -0.39     0.06   0.10   0.31
  13   1     0.04  -0.01  -0.02    -0.15   0.36   0.10    -0.01  -0.32  -0.10
  14   1     0.06   0.02   0.02    -0.14   0.41   0.11     0.13   0.20   0.06
  15   1     0.07   0.04   0.04     0.06  -0.08  -0.44    -0.16  -0.09  -0.17
  16   1     0.04  -0.00   0.02     0.03   0.24   0.07     0.01   0.33   0.12
  17   1    -0.01   0.05   0.08    -0.07  -0.07  -0.23    -0.03  -0.12  -0.33
  18   1     0.11  -0.07  -0.02     0.00  -0.01   0.00     0.01  -0.02   0.01
  19   1     0.02  -0.04   0.00     0.00  -0.00   0.00     0.00  -0.01   0.01
  20   1    -0.08  -0.02   0.04    -0.03   0.01   0.02    -0.10   0.02   0.05
                     16                     17                     18
                        a                      a                      a 
 Frequencies --   891.4649               940.6299               948.9042
 Red. masses --     9.5774                 5.9936                 4.0957
 Frc consts  --     0.0000                 0.0000                 0.0000
 IR Inten    --    27.2804                 3.1572                 3.0773
 Raman Activ --     0.0000                 0.0000                 0.0000
 Depolar     --     0.0000                 0.0000                 0.0000
 Atom AN      X      Y      Z        X      Y      Z        X      Y      Z
   1   6     0.04   0.08  -0.03     0.36   0.01  -0.05     0.01  -0.09   0.14
   2   6     0.01   0.00  -0.07     0.14  -0.15  -0.19    -0.02   0.03  -0.04
   3   6    -0.04  -0.11   0.09    -0.28   0.20   0.24    -0.03   0.07  -0.15
   4   6    -0.28   0.15   0.12    -0.09  -0.16  -0.09    -0.11  -0.12   0.31
   5   6    -0.01   0.10  -0.22     0.09   0.06   0.07     0.06  -0.03  -0.13
   6   8     0.09   0.22  -0.25    -0.00  -0.00  -0.04     0.10   0.12  -0.15
   7   8    -0.09  -0.29   0.37     0.00  -0.01  -0.02    -0.01  -0.05   0.07
   8   6     0.26  -0.17  -0.02    -0.03   0.01   0.01     0.00  -0.03   0.03
   9   1     0.03  -0.03   0.06     0.30   0.40   0.31    -0.05   0.05  -0.12
  10   1    -0.08  -0.12  -0.03    -0.21  -0.00  -0.00     0.21   0.25   0.08
  11   1     0.11   0.06   0.11    -0.25  -0.07  -0.00    -0.17  -0.10  -0.20
  12   1     0.12   0.04   0.05    -0.14  -0.09  -0.06    -0.28  -0.06   0.03
  13   1    -0.08  -0.09  -0.03    -0.07  -0.07  -0.06     0.33   0.05  -0.01
  14   1    -0.04   0.14   0.05    -0.10   0.01   0.06     0.32  -0.07  -0.06
  15   1     0.04  -0.04  -0.14    -0.16   0.03   0.08    -0.25  -0.02   0.13
  16   1     0.03   0.03   0.03    -0.04  -0.00  -0.01    -0.09   0.24   0.14
  17   1    -0.25   0.00   0.08    -0.00  -0.04  -0.05    -0.08  -0.08  -0.18
  18   1    -0.07   0.06  -0.02    -0.01   0.00  -0.00    -0.04   0.03  -0.01
  19   1    -0.04   0.07  -0.03    -0.01   0.00   0.00    -0.04   0.04  -0.00
  20   1     0.30  -0.06  -0.16    -0.00   0.00  -0.00     0.09  -0.02  -0.05
                     19                     20                     21
                        a                      a                      a 
 Frequencies --  1018.5305              1058.8275              1077.8950
 Red. masses --    10.8086                 9.6593                 7.1732
 Frc consts  --     0.0000                 0.0000                 0.0000
 IR Inten    --     9.9615                10.0770                90.5002
 Raman Activ --     0.0000                 0.0000                 0.0000
 Depolar     --     0.0000                 0.0000                 0.0000
 Atom AN      X      Y      Z        X      Y      Z        X      Y      Z
   1   6     0.05   0.11   0.03    -0.19  -0.14  -0.12     0.01   0.09   0.00
   2   6    -0.03  -0.12  -0.02     0.15   0.16   0.15    -0.02  -0.13   0.03
   3   6    -0.12  -0.05  -0.07     0.39   0.35   0.24    -0.04   0.07  -0.08
   4   6    -0.21   0.13   0.24    -0.36  -0.34  -0.21     0.03  -0.18   0.21
   5   6     0.22  -0.19  -0.10     0.08  -0.00   0.00     0.12  -0.09  -0.02
   6   8     0.07   0.12  -0.14     0.02   0.02  -0.06     0.06   0.04  -0.07
   7   8     0.45  -0.16  -0.14     0.05  -0.03  -0.03    -0.41   0.25   0.03
   8   6    -0.43   0.13   0.18    -0.05   0.01   0.05     0.27  -0.09  -0.07
   9   1     0.00  -0.03   0.01    -0.06  -0.06  -0.04     0.00  -0.03   0.01
  10   1     0.01  -0.03  -0.00    -0.06  -0.06  -0.03    -0.01  -0.04  -0.01
  11   1     0.10   0.06   0.06    -0.04  -0.04  -0.03     0.08   0.05   0.06
  12   1     0.12  -0.01  -0.06     0.03   0.04   0.04     0.12  -0.01  -0.08
  13   1    -0.09   0.00  -0.00    -0.02   0.05   0.04    -0.13   0.03   0.02
  14   1    -0.11  -0.07  -0.03     0.10   0.08   0.06    -0.12  -0.12  -0.04
  15   1     0.13   0.03   0.02     0.15   0.11   0.08     0.14   0.07   0.09
  16   1    -0.31   0.00   0.07    -0.27  -0.10  -0.05    -0.44   0.04   0.09
  17   1     0.09   0.07   0.07    -0.15  -0.10  -0.07     0.42   0.04  -0.12
  18   1    -0.07   0.01   0.02    -0.01   0.00  -0.01     0.01   0.02  -0.03
  19   1    -0.06   0.03   0.03    -0.04   0.02   0.01    -0.05   0.03  -0.02
  20   1    -0.07   0.03   0.02     0.02  -0.01  -0.02     0.08  -0.03  -0.05
                     22                     23                     24
                        a                      a                      a 
 Frequencies --  1097.4511              1112.8026              1120.6815
 Red. masses --     8.5292                 3.9609                 7.2757
 Frc consts  --     0.0000                 0.0000                 0.0000
 IR Inten    --     9.7330                 2.8715                24.5052
 Raman Activ --     0.0000                 0.0000                 0.0000
 Depolar     --     0.0000                 0.0000                 0.0000
 Atom AN      X      Y      Z        X      Y      Z        X      Y      Z
   1   6    -0.17  -0.33  -0.31    -0.04  -0.01   0.00    -0.20   0.03   0.09
   2   6     0.39   0.32   0.26     0.08  -0.01  -0.04     0.37  -0.17  -0.27
   3   6    -0.18  -0.11  -0.10    -0.08   0.00   0.04    -0.38   0.16   0.27
   4   6     0.10   0.13   0.18    -0.01   0.02  -0.01    -0.09  -0.07  -0.08
   5   6    -0.05  -0.01  -0.04     0.01   0.02   0.02     0.08   0.03   0.06
   6   8     0.03   0.02  -0.02    -0.01  -0.01  -0.00    -0.02  -0.01  -0.00
   7   8     0.03   0.01   0.01    -0.09  -0.15  -0.15    -0.01   0.04   0.01
   8   6    -0.02  -0.03   0.01     0.18   0.27   0.27    -0.03  -0.05  -0.06
   9   1     0.03   0.05   0.05    -0.03  -0.03  -0.03    -0.16  -0.20  -0.17
  10   1    -0.22  -0.13  -0.08     0.02   0.00  -0.00     0.17   0.02   0.01
  11   1    -0.20  -0.12  -0.06     0.01   0.00  -0.01     0.16   0.05  -0.02
  12   1     0.17   0.10   0.05     0.06   0.01  -0.00     0.30   0.01  -0.05
  13   1     0.14   0.11   0.07     0.07   0.01  -0.01     0.31   0.01  -0.06
  14   1    -0.21  -0.08  -0.03    -0.01   0.01   0.01    -0.05   0.07   0.07
  15   1    -0.17  -0.05  -0.00    -0.03  -0.00   0.00    -0.07   0.05   0.06
  16   1    -0.07   0.04   0.05     0.06   0.01  -0.00     0.15   0.03  -0.01
  17   1     0.07   0.04   0.00     0.01   0.01   0.02     0.11   0.02   0.02
  18   1    -0.04   0.02   0.01     0.40  -0.22  -0.33    -0.07   0.04   0.06
  19   1     0.02   0.01  -0.01    -0.58   0.03   0.14     0.10  -0.01  -0.03
  20   1     0.04   0.00  -0.01    -0.08  -0.17  -0.16     0.01   0.03   0.03
                     25                     26                     27
                        a                      a                      a 
 Frequencies --  1139.0348              1194.7751              1218.4602
 Red. masses --     6.3087                 8.1595                 7.5940
 Frc consts  --     0.0000                 0.0000                 0.0000
 IR Inten    --    26.3125               177.6830               233.7249
 Raman Activ --     0.0000                 0.0000                 0.0000
 Depolar     --     0.0000                 0.0000                 0.0000
 Atom AN      X      Y      Z        X      Y      Z        X      Y      Z
   1   6     0.01   0.02   0.01    -0.04   0.16  -0.13    -0.03   0.14  -0.16
   2   6    -0.02  -0.03  -0.01     0.05  -0.23   0.19     0.05  -0.18   0.20
   3   6     0.01   0.01  -0.01    -0.05   0.25  -0.20    -0.03   0.09  -0.12
   4   6     0.06  -0.05  -0.05     0.11  -0.23   0.10    -0.08   0.11   0.02
   5   6    -0.21   0.14   0.04    -0.33   0.31  -0.04     0.39  -0.36   0.05
   6   8    -0.01  -0.11   0.11     0.05   0.01  -0.04    -0.07  -0.02   0.08
   7   8     0.16   0.18  -0.29     0.15  -0.23   0.12    -0.15   0.24  -0.12
   8   6    -0.09  -0.27   0.32    -0.05   0.06  -0.02     0.05  -0.05   0.02
   9   1    -0.00  -0.01  -0.00     0.01  -0.07   0.05     0.02  -0.06   0.07
  10   1     0.01   0.00   0.00    -0.10  -0.16  -0.06    -0.12  -0.17  -0.07
  11   1     0.02   0.01   0.01     0.14   0.10   0.14     0.12   0.09   0.14
  12   1    -0.01  -0.01  -0.01     0.02  -0.09  -0.17    -0.09  -0.10  -0.14
  13   1    -0.01  -0.00  -0.00    -0.04   0.16   0.08     0.08   0.17   0.09
  14   1    -0.00  -0.01  -0.01     0.01  -0.17  -0.09     0.11  -0.06  -0.04
  15   1     0.03   0.01   0.01     0.05   0.11   0.19    -0.16  -0.01   0.07
  16   1     0.08   0.01  -0.01     0.18   0.16   0.06     0.20   0.06   0.01
  17   1     0.09   0.00  -0.04    -0.04  -0.10  -0.19    -0.38  -0.05   0.09
  18   1    -0.29   0.17  -0.05     0.08  -0.05   0.01    -0.08   0.06  -0.01
  19   1    -0.19   0.24  -0.01     0.06  -0.06   0.01    -0.06   0.06  -0.01
  20   1     0.52  -0.10  -0.26    -0.05   0.01   0.02     0.03  -0.01  -0.01
                     28                     29                     30
                        a                      a                      a 
 Frequencies --  1240.0373              1258.9959              1277.8561
 Red. masses --     4.1783                 3.1063                 1.8197
 Frc consts  --     0.0000                 0.0000                 0.0000
 IR Inten    --    29.3974                17.5987                 0.5245
 Raman Activ --     0.0000                 0.0000                 0.0000
 Depolar     --     0.0000                 0.0000                 0.0000
 Atom AN      X      Y      Z        X      Y      Z        X      Y      Z
   1   6     0.08  -0.07  -0.10    -0.04   0.15  -0.14    -0.02   0.08  -0.09
   2   6    -0.17   0.09   0.14     0.03  -0.13   0.12    -0.03   0.10  -0.10
   3   6    -0.10  -0.12  -0.09     0.04  -0.15   0.15     0.02  -0.12   0.12
   4   6    -0.38  -0.10  -0.03    -0.00   0.11  -0.13     0.02  -0.06   0.06
   5   6     0.12   0.00   0.07    -0.13   0.10  -0.01     0.01  -0.01  -0.00
   6   8    -0.00   0.01  -0.04     0.03   0.01  -0.04     0.00  -0.00  -0.00
   7   8    -0.02   0.00  -0.00     0.05  -0.06   0.03    -0.01   0.01   0.00
   8   6    -0.00   0.00  -0.02    -0.02   0.01   0.00     0.01  -0.00  -0.00
   9   1     0.08   0.10   0.08     0.01  -0.07   0.06     0.00  -0.01   0.01
  10   1    -0.09  -0.01  -0.02    -0.08  -0.14  -0.06    -0.06  -0.07  -0.04
  11   1    -0.08  -0.03   0.02     0.11   0.08   0.12     0.06   0.05   0.06
  12   1     0.13   0.07   0.03    -0.27  -0.13  -0.09    -0.48  -0.09   0.05
  13   1     0.13   0.07   0.04     0.25   0.15   0.06     0.51   0.07  -0.02
  14   1     0.34   0.09  -0.00     0.33   0.19   0.08    -0.43  -0.03   0.03
  15   1     0.32   0.07   0.01    -0.33  -0.15  -0.12     0.44   0.07  -0.07
  16   1     0.42   0.14   0.01    -0.29  -0.18  -0.07     0.02   0.04   0.03
  17   1     0.42   0.12   0.06     0.33   0.13   0.06    -0.03  -0.03  -0.03
  18   1    -0.01   0.01   0.01     0.02  -0.02   0.00    -0.00   0.00   0.00
  19   1    -0.00  -0.00  -0.00     0.02  -0.01   0.00    -0.00   0.00  -0.00
  20   1    -0.03   0.01   0.02     0.01   0.00  -0.01    -0.01   0.00   0.00
                     31                     32                     33
                        a                      a                      a 
 Frequencies --  1312.0979              1359.2448              1374.0800
 Red. masses --     4.1544                 5.0263                 2.5843
 Frc consts  --     0.0000                 0.0000                 0.0000
 IR Inten    --    24.6086                 0.9379                17.3078
 Raman Activ --     0.0000                 0.0000                 0.0000
 Depolar     --     0.0000                 0.0000                 0.0000
 Atom AN      X      Y      Z        X      Y      Z        X      Y      Z
   1   6     0.06  -0.07  -0.09    -0.07   0.04   0.05     0.00   0.00   0.00
   2   6    -0.28  -0.05   0.02     0.40   0.14   0.05     0.01   0.01   0.00
   3   6    -0.26   0.01   0.06    -0.38  -0.13  -0.04    -0.01  -0.01  -0.00
   4   6     0.33   0.04  -0.04     0.13   0.01  -0.02    -0.01  -0.00  -0.01
   5   6    -0.06  -0.00  -0.03    -0.00  -0.02   0.00     0.08  -0.04  -0.01
   6   8    -0.00  -0.01   0.03    -0.00  -0.00   0.01    -0.02  -0.02   0.03
   7   8     0.00   0.01  -0.00    -0.00   0.01  -0.00    -0.12   0.07   0.01
   8   6     0.00  -0.01   0.01     0.01  -0.01  -0.00    -0.29   0.14   0.05
   9   1     0.09   0.12   0.10    -0.07  -0.08  -0.07    -0.00  -0.00  -0.00
  10   1    -0.02   0.05  -0.00     0.01  -0.07  -0.01    -0.00  -0.00  -0.00
  11   1    -0.01  -0.01   0.05    -0.01  -0.00  -0.07    -0.00  -0.00  -0.00
  12   1     0.36   0.11   0.02    -0.37  -0.10  -0.05    -0.01  -0.00  -0.00
  13   1     0.34   0.10   0.02    -0.36  -0.13  -0.02    -0.01  -0.00  -0.00
  14   1     0.31   0.08   0.03     0.36   0.14   0.02     0.01   0.00  -0.00
  15   1     0.28   0.10   0.01     0.37   0.11   0.05     0.02   0.00   0.00
  16   1    -0.31  -0.11  -0.02    -0.08  -0.02  -0.01     0.00   0.03   0.01
  17   1    -0.32  -0.10  -0.05    -0.09  -0.03   0.00    -0.01   0.00   0.04
  18   1     0.00  -0.00  -0.01    -0.01   0.01  -0.00     0.41  -0.34  -0.06
  19   1     0.00   0.00   0.00    -0.01   0.01  -0.00     0.46  -0.21   0.02
  20   1     0.01  -0.01  -0.01    -0.01  -0.00   0.01     0.47  -0.01  -0.31
                     34                     35                     36
                        a                      a                      a 
 Frequencies --  1411.8538              1424.3422              1438.4306
 Red. masses --     3.1831                 1.5116                 2.1872
 Frc consts  --     0.0000                 0.0000                 0.0000
 IR Inten    --     0.6528                12.7020                 6.9590
 Raman Activ --     0.0000                 0.0000                 0.0000
 Depolar     --     0.0000                 0.0000                 0.0000
 Atom AN      X      Y      Z        X      Y      Z        X      Y      Z
   1   6    -0.31  -0.24  -0.17     0.00   0.00   0.00     0.00   0.00  -0.00
   2   6     0.09   0.02  -0.00    -0.00  -0.00   0.00    -0.02   0.00   0.01
   3   6    -0.00  -0.02  -0.02     0.00  -0.00  -0.00     0.02  -0.00  -0.01
   4   6    -0.02   0.00   0.00     0.00   0.00   0.00     0.11  -0.19  -0.22
   5   6     0.00  -0.00   0.00    -0.00   0.00  -0.00    -0.05   0.04  -0.04
   6   8     0.00   0.00  -0.00     0.00   0.00   0.00    -0.01  -0.02   0.03
   7   8    -0.00   0.00  -0.00    -0.02  -0.03  -0.03     0.02  -0.02   0.01
   8   6    -0.00   0.00   0.00    -0.08  -0.14  -0.13     0.01  -0.01   0.00
   9   1     0.17   0.35   0.32    -0.00  -0.00  -0.00    -0.00  -0.00  -0.00
  10   1     0.39   0.33   0.04    -0.00  -0.00  -0.00    -0.01   0.01   0.00
  11   1     0.44   0.13   0.23    -0.00  -0.00  -0.00    -0.00   0.00   0.01
  12   1    -0.09  -0.01   0.06     0.00   0.00  -0.00     0.01  -0.00  -0.03
  13   1    -0.10   0.03   0.01     0.00   0.00   0.00     0.01  -0.03  -0.00
  14   1    -0.00  -0.00  -0.00    -0.00   0.01   0.00    -0.02   0.00  -0.00
  15   1    -0.00  -0.01  -0.00    -0.00   0.00   0.01    -0.02  -0.01   0.00
  16   1     0.02   0.01   0.00    -0.00   0.00   0.00    -0.21   0.62   0.12
  17   1     0.02   0.01   0.01    -0.00  -0.00   0.00    -0.04   0.07   0.66
  18   1     0.00  -0.00  -0.00     0.30  -0.27   0.22    -0.02   0.02  -0.00
  19   1     0.00   0.00  -0.00    -0.26   0.39  -0.11    -0.01   0.01  -0.00
  20   1     0.00   0.00   0.00     0.31   0.48   0.44    -0.02  -0.00   0.01
                     37                     38                     39
                        a                      a                      a 
 Frequencies --  1449.5684              1485.5195              1491.1948
 Red. masses --     1.6005                 1.9777                 1.8285
 Frc consts  --     0.0000                 0.0000                 0.0000
 IR Inten    --     2.4055                 0.8023                 0.6638
 Raman Activ --     0.0000                 0.0000                 0.0000
 Depolar     --     0.0000                 0.0000                 0.0000
 Atom AN      X      Y      Z        X      Y      Z        X      Y      Z
   1   6    -0.00  -0.00  -0.00    -0.00  -0.02  -0.02    -0.02  -0.02  -0.02
   2   6     0.00   0.00   0.00     0.01   0.10   0.10    -0.07   0.16   0.18
   3   6    -0.00  -0.01  -0.00    -0.06   0.17   0.19     0.06  -0.06  -0.07
   4   6    -0.00   0.00  -0.00    -0.02   0.01   0.01    -0.01   0.00   0.01
   5   6     0.02   0.01  -0.02     0.00  -0.00   0.00     0.00  -0.01   0.00
   6   8    -0.01  -0.02   0.03     0.00   0.00  -0.00     0.00   0.00  -0.00
   7   8     0.03   0.03  -0.05     0.00  -0.00  -0.00    -0.00   0.00  -0.00
   8   6     0.03   0.13  -0.17    -0.00   0.00  -0.00    -0.00  -0.00   0.00
   9   1     0.00  -0.00   0.00    -0.01  -0.02  -0.02     0.00   0.01   0.02
  10   1     0.00   0.00   0.00    -0.02   0.08   0.01     0.01   0.08   0.01
  11   1    -0.00   0.00   0.00    -0.01   0.01   0.09     0.02   0.02   0.07
  12   1    -0.00  -0.00  -0.00    -0.01  -0.04  -0.28     0.06  -0.06  -0.60
  13   1    -0.00  -0.00  -0.00     0.05  -0.27  -0.05     0.18  -0.57  -0.10
  14   1    -0.00   0.01   0.00     0.17  -0.58  -0.10    -0.11   0.27   0.05
  15   1     0.00   0.00   0.01     0.05  -0.06  -0.60    -0.05   0.03   0.29
  16   1    -0.00   0.00   0.00     0.01  -0.00   0.00     0.00  -0.04  -0.01
  17   1    -0.00   0.00   0.01     0.01   0.00  -0.00    -0.00  -0.01  -0.04
  18   1    -0.04   0.02   0.67     0.00  -0.00   0.01     0.00  -0.00  -0.01
  19   1    -0.38  -0.51   0.20    -0.01  -0.00   0.00     0.01   0.00  -0.00
  20   1     0.18  -0.01  -0.14     0.00   0.00   0.00    -0.00  -0.00  -0.00
                     40                     41                     42
                        a                      a                      a 
 Frequencies --  1497.6380              1501.1102              1700.1361
 Red. masses --     1.5253                 1.6001                13.2993
 Frc consts  --     0.0000                 0.0000                 0.0000
 IR Inten    --     1.7348                 0.7667               672.6425
 Raman Activ --     0.0000                 0.0000                 0.0000
 Depolar     --     0.0000                 0.0000                 0.0000
 Atom AN      X      Y      Z        X      Y      Z        X      Y      Z
   1   6     0.02  -0.14   0.16    -0.15   0.10   0.11     0.00  -0.00  -0.00
   2   6     0.00  -0.03   0.04    -0.07   0.04   0.05     0.00   0.00   0.00
   3   6     0.00   0.00  -0.00     0.01   0.01   0.01    -0.01  -0.01  -0.00
   4   6    -0.00   0.00  -0.00    -0.00  -0.00   0.00    -0.06   0.00   0.06
   5   6    -0.00  -0.00   0.00     0.00  -0.00  -0.00     0.35   0.38  -0.61
   6   8     0.00   0.00  -0.00     0.00   0.00  -0.00    -0.23  -0.29   0.45
   7   8     0.00   0.00  -0.00     0.00   0.00  -0.00    -0.00  -0.04   0.04
   8   6     0.00   0.00  -0.00    -0.00   0.00  -0.00     0.01  -0.00  -0.00
   9   1    -0.11   0.52  -0.48     0.12   0.19   0.24     0.00   0.00   0.00
  10   1    -0.44  -0.01   0.02     0.33  -0.56  -0.10    -0.00  -0.00  -0.00
  11   1     0.45   0.07  -0.19     0.14  -0.05  -0.60    -0.00  -0.00  -0.00
  12   1    -0.01  -0.02  -0.03     0.04   0.01  -0.07    -0.00  -0.00  -0.00
  13   1     0.02   0.01   0.01     0.05  -0.07  -0.01    -0.00  -0.00   0.00
  14   1     0.02   0.00   0.00     0.01  -0.06  -0.01     0.01   0.00  -0.00
  15   1    -0.02  -0.01  -0.00     0.00  -0.01  -0.06    -0.00  -0.00  -0.00
  16   1    -0.00  -0.00  -0.00     0.00   0.01   0.00    -0.05  -0.01   0.01
  17   1     0.00   0.00   0.00     0.00   0.00   0.01     0.04   0.01  -0.04
  18   1    -0.00   0.00   0.00     0.00  -0.00   0.00    -0.01   0.01  -0.02
  19   1    -0.00  -0.00   0.00    -0.00  -0.00   0.00    -0.00   0.03  -0.01
  20   1     0.00  -0.00  -0.00     0.00   0.00  -0.00    -0.03   0.00   0.02
                     43                     44                     45
                        a                      a                      a 
 Frequencies --  2966.0002              2976.9386              2983.5695
 Red. masses --     1.9263                 1.9894                 1.4993
 Frc consts  --     0.0000                 0.0000                 0.0000
 IR Inten    --     4.2476               109.2919                17.6052
 Raman Activ --     0.0000                 0.0000                 0.0000
 Depolar     --     0.0000                 0.0000                 0.0000
 Atom AN      X      Y      Z        X      Y      Z        X      Y      Z
   1   6     0.00  -0.01   0.01    -0.00   0.01  -0.02     0.00  -0.01  -0.00
   2   6    -0.03   0.11  -0.11     0.04  -0.18   0.16     0.00  -0.01  -0.07
   3   6     0.03  -0.15   0.19     0.01  -0.08   0.14    -0.05   0.17   0.09
   4   6    -0.00   0.02  -0.02    -0.00   0.02  -0.02     0.01  -0.02  -0.00
   5   6    -0.00   0.00  -0.00    -0.00   0.00  -0.00    -0.00   0.00   0.00
   6   8     0.00   0.00  -0.00     0.00   0.00  -0.00     0.00   0.00  -0.00
   7   8     0.00   0.00   0.00     0.00  -0.00   0.00     0.00  -0.00  -0.00
   8   6    -0.00  -0.00  -0.00     0.00   0.00  -0.00    -0.00  -0.00  -0.00
   9   1    -0.00  -0.00   0.00    -0.00   0.00  -0.00     0.00  -0.00  -0.00
  10   1    -0.00   0.00  -0.03     0.00  -0.01   0.07    -0.00  -0.00   0.00
  11   1    -0.01   0.03  -0.00     0.01  -0.06   0.01    -0.01   0.03  -0.00
  12   1     0.10  -0.36   0.04    -0.15   0.57  -0.07    -0.03   0.10  -0.03
  13   1    -0.00  -0.06   0.36    -0.00   0.08  -0.50     0.00  -0.06   0.28
  14   1    -0.00   0.11  -0.64    -0.00   0.09  -0.49    -0.01   0.12  -0.46
  15   1    -0.12   0.44  -0.05    -0.05   0.17  -0.01     0.20  -0.75   0.14
  16   1     0.00  -0.01   0.07     0.00  -0.01   0.07     0.00  -0.01   0.03
  17   1     0.01  -0.06   0.00     0.01  -0.04   0.00    -0.02   0.09  -0.01
  18   1     0.00   0.00  -0.00    -0.00  -0.00  -0.00     0.00   0.00  -0.00
  19   1     0.00   0.00   0.00     0.00   0.00   0.00     0.00   0.00   0.01
  20   1    -0.00   0.00  -0.00     0.00  -0.00   0.00     0.00  -0.00   0.00
                     46                     47                     48
                        a                      a                      a 
 Frequencies --  2987.3800              2988.6883              2997.1904
 Red. masses --     1.9599                 1.4942                 1.3821
 Frc consts  --     0.0000                 0.0000                 0.0000
 IR Inten    --    15.3791                72.6016                17.3887
 Raman Activ --     0.0000                 0.0000                 0.0000
 Depolar     --     0.0000                 0.0000                 0.0000
 Atom AN      X      Y      Z        X      Y      Z        X      Y      Z
   1   6    -0.00  -0.00   0.00    -0.02   0.01   0.01     0.00  -0.00  -0.00
   2   6     0.00  -0.00  -0.00     0.04  -0.13  -0.14    -0.00   0.00   0.00
   3   6     0.00   0.00   0.00     0.02  -0.05  -0.04    -0.00   0.00  -0.00
   4   6     0.00  -0.00  -0.00    -0.01   0.02   0.02     0.00  -0.00   0.01
   5   6    -0.00  -0.00  -0.00    -0.00   0.00   0.00    -0.00   0.00  -0.00
   6   8     0.00   0.00   0.00    -0.00   0.00  -0.00    -0.00  -0.00   0.00
   7   8     0.00   0.00   0.00     0.00  -0.00  -0.00     0.01  -0.00  -0.01
   8   6     0.13   0.19   0.18    -0.00  -0.00  -0.01     0.09   0.07  -0.14
   9   1     0.00  -0.00  -0.00     0.06  -0.01  -0.03    -0.00   0.00   0.00
  10   1    -0.00   0.00  -0.00    -0.01   0.01  -0.05     0.00  -0.00  -0.00
  11   1    -0.00  -0.00   0.00     0.01  -0.04   0.01     0.00   0.00  -0.00
  12   1    -0.00   0.02  -0.00    -0.16   0.61  -0.12     0.00  -0.01   0.00
  13   1     0.00  -0.00   0.02     0.01  -0.15   0.65    -0.00   0.00  -0.01
  14   1    -0.00   0.00  -0.00     0.01  -0.04   0.16     0.00  -0.00   0.00
  15   1     0.00  -0.00   0.00    -0.05   0.21  -0.04     0.00  -0.00   0.00
  16   1     0.00  -0.00   0.00    -0.00   0.02  -0.09    -0.00   0.01  -0.03
  17   1    -0.00   0.01  -0.00     0.03  -0.10   0.02    -0.00   0.00   0.00
  18   1    -0.41  -0.51   0.01     0.00   0.00  -0.00    -0.44  -0.55  -0.04
  19   1    -0.07  -0.20  -0.66     0.00   0.01   0.03     0.09   0.23   0.62
  20   1     0.02   0.03   0.02    -0.00   0.00  -0.00    -0.03   0.09  -0.08
                     49                     50                     51
                        a                      a                      a 
 Frequencies --  3006.7309              3011.9955              3029.1132
 Red. masses --     1.4871                 2.0190                 1.9527
 Frc consts  --     0.0000                 0.0000                 0.0000
 IR Inten    --    30.1004                42.5605                87.1315
 Raman Activ --     0.0000                 0.0000                 0.0000
 Depolar     --     0.0000                 0.0000                 0.0000
 Atom AN      X      Y      Z        X      Y      Z        X      Y      Z
   1   6    -0.01   0.00   0.00    -0.00   0.00  -0.00     0.03  -0.18   0.22
   2   6     0.00  -0.01  -0.02     0.00  -0.01   0.00     0.01  -0.02   0.03
   3   6     0.00  -0.02  -0.03     0.01  -0.04   0.03     0.00  -0.00   0.00
   4   6     0.03  -0.10  -0.17     0.06  -0.23   0.18     0.00  -0.00   0.00
   5   6     0.00  -0.00  -0.00     0.00  -0.01   0.01     0.00  -0.00   0.00
   6   8    -0.00  -0.00   0.00     0.00   0.00  -0.00    -0.00   0.00  -0.00
   7   8     0.00  -0.00  -0.00    -0.00   0.00  -0.00    -0.00   0.00   0.00
   8   6     0.00  -0.00  -0.00    -0.00  -0.00   0.00    -0.00   0.00  -0.00
   9   1     0.02  -0.00  -0.01     0.00  -0.00  -0.00     0.05  -0.04   0.01
  10   1    -0.00   0.00  -0.01    -0.00  -0.00   0.01    -0.01   0.12  -0.74
  11   1     0.00  -0.01   0.00     0.00  -0.01   0.00    -0.15   0.56  -0.06
  12   1    -0.02   0.07  -0.01    -0.01   0.02  -0.00    -0.02   0.06  -0.01
  13   1     0.00  -0.02   0.07     0.00   0.00  -0.01     0.00   0.02  -0.08
  14   1     0.00  -0.02   0.09     0.00   0.01  -0.07     0.00   0.00  -0.01
  15   1    -0.02   0.08  -0.02    -0.03   0.11  -0.02    -0.00   0.01  -0.00
  16   1     0.03  -0.19   0.74    -0.02   0.10  -0.56    -0.00   0.00  -0.00
  17   1    -0.15   0.56  -0.11    -0.19   0.72  -0.09    -0.00   0.00  -0.00
  18   1    -0.01  -0.01  -0.00     0.01   0.01   0.00     0.00   0.00   0.00
  19   1     0.00   0.01   0.02    -0.00  -0.00  -0.01    -0.00  -0.00  -0.00
  20   1    -0.00  -0.00  -0.00     0.00  -0.01   0.00     0.00  -0.00   0.00
                     52                     53                     54
                        a                      a                      a 
 Frequencies --  3033.7568              3043.3682              3056.9154
 Red. masses --     1.8396                 1.3555                 1.8046
 Frc consts  --     0.0000                 0.0000                 0.0000
 IR Inten    --    77.2684                43.7107                 2.5363
 Raman Activ --     0.0000                 0.0000                 0.0000
 Depolar     --     0.0000                 0.0000                 0.0000
 Atom AN      X      Y      Z        X      Y      Z        X      Y      Z
   1   6     0.16  -0.16  -0.15     0.17   0.04  -0.01    -0.00   0.00  -0.00
   2   6     0.01  -0.02  -0.02     0.01  -0.00  -0.00    -0.00   0.00  -0.00
   3   6     0.00  -0.01  -0.01    -0.00   0.00   0.00     0.00  -0.00  -0.00
   4   6     0.00  -0.00  -0.00     0.00  -0.00  -0.00    -0.00   0.00  -0.00
   5   6    -0.00  -0.00  -0.00    -0.00   0.00   0.00     0.00   0.00  -0.00
   6   8    -0.00  -0.00   0.00     0.00   0.00  -0.00    -0.00  -0.00   0.00
   7   8    -0.00   0.00   0.00     0.00  -0.00   0.00    -0.00   0.00  -0.00
   8   6    -0.00  -0.00  -0.00    -0.00  -0.00   0.00    -0.07   0.20  -0.17
   9   1    -0.45   0.07   0.18    -0.75   0.16   0.33    -0.00   0.00   0.00
  10   1     0.03  -0.12   0.48     0.02   0.07  -0.35     0.00  -0.00   0.00
  11   1    -0.14   0.63  -0.13     0.12  -0.36   0.05     0.00  -0.00   0.00
  12   1    -0.02   0.06  -0.01    -0.00   0.02  -0.00     0.00  -0.00   0.00
  13   1     0.00  -0.01   0.05     0.00  -0.00   0.02    -0.00  -0.00   0.00
  14   1    -0.00  -0.01   0.03    -0.00   0.00  -0.00     0.00  -0.00   0.00
  15   1    -0.01   0.03  -0.01     0.00  -0.00   0.00    -0.00   0.00  -0.00
  16   1     0.00  -0.00   0.00     0.00  -0.00   0.00    -0.00  -0.00   0.00
  17   1    -0.00   0.01  -0.00    -0.00   0.01  -0.00     0.00  -0.01   0.00
  18   1     0.00   0.00   0.00     0.00   0.00   0.00    -0.05  -0.04  -0.03
  19   1     0.00   0.00   0.00    -0.00  -0.00  -0.00     0.00   0.05   0.04
  20   1     0.00  -0.00   0.00    -0.00  -0.00   0.00     0.31  -0.71   0.57
