      -----------------------------------------------------------      
     |                   =====================                   |     
     |                           x T B                           |     
     |                   =====================                   |     
     |                         S. Grimme                         |     
     |          Mulliken Center for Theoretical Chemistry        |     
     |                    University of Bonn                     |     
      -----------------------------------------------------------      

   * xtb version 6.7.1 (edcfbbe) compiled by 'albert@albert-system' on 2024-07-22

   xtb is free software: you can redistribute it and/or modify it under
   the terms of the GNU Lesser General Public License as published by
   the Free Software Foundation, either version 3 of the License, or
   (at your option) any later version.
   
   xtb is distributed in the hope that it will be useful,
   but WITHOUT ANY WARRANTY; without even the implied warranty of
   MERCHANTABILITY or FITNESS FOR A PARTICULAR PURPOSE.  See the
   GNU Lesser General Public License for more details.
   
   Cite this work as:
   * C. Bannwarth, E. Caldeweyher, S. Ehlert, A. Hansen, P. Pracht,
     J. Seibert, S. Spicher, S. Grimme, WIREs Comput. Mol. Sci., 2020, 11,
     e01493. DOI: 10.1002/wcms.1493
   
   for GFN2-xTB:
   * C. Bannwarth, S. Ehlert and S. Grimme., J. Chem. Theory Comput., 2019,
     15, 1652-1671. DOI: 10.1021/acs.jctc.8b01176
   for GFN1-xTB:
   * S. Grimme, C. Bannwarth, P. Shushkov, J. Chem. Theory Comput., 2017,
     13, 1989-2009. DOI: 10.1021/acs.jctc.7b00118
   for GFN0-xTB:
   * P. Pracht, E. Caldeweyher, S. Ehlert, S. Grimme, ChemRxiv, 2019, preprint.
     DOI: 10.26434/chemrxiv.8326202.v1
   for GFN-FF:
   * S. Spicher and S. Grimme, Angew. Chem. Int. Ed., 2020, 59, 15665-15673.
     DOI: 10.1002/anie.202004239
   
   for ALPB and GBSA implicit solvation:
   * S. Ehlert, M. Stahn, S. Spicher, S. Grimme, J. Chem. Theory Comput.,
     2021, 17, 4250-4261. DOI: 10.1021/acs.jctc.1c00471
   
   for ddCOSMO and CPCM-X implicit solvation:
   * M. Stahn, S. Ehlert, S. Grimme, J. Phys. Chem. A,
     2023, XX, XXXX-XXXX. DOI: 10.1021/acs.jpca.3c04382
   
   for DFT-D4:
   * E. Caldeweyher, C. Bannwarth and S. Grimme, J. Chem. Phys., 2017,
     147, 034112. DOI: 10.1063/1.4993215
   * E. Caldeweyher, S. Ehlert, A. Hansen, H. Neugebauer, S. Spicher,
     C. Bannwarth and S. Grimme, J. Chem. Phys., 2019, 150, 154122.
     DOI: 10.1063/1.5090222
   * E. Caldeweyher, J.-M. Mewes, S. Ehlert and S. Grimme, Phys. Chem. Chem. Phys.
     2020, 22, 8499-8512. DOI: 10.1039/D0CP00502A
   
   for sTDA-xTB:
   * S. Grimme and C. Bannwarth, J. Chem. Phys., 2016, 145, 054103.
     DOI: 10.1063/1.4959605
   
   in the mass-spec context:
   * V. Asgeirsson, C. Bauer and S. Grimme, Chem. Sci., 2017, 8, 4879.
     DOI: 10.1039/c7sc00601b
   * J. Koopman and S. Grimme, ACS Omega 2019, 4, 12, 15120-15133.
     DOI: 10.1021/acsomega.9b02011
   
   for metadynamics refer to:
   * S. Grimme, J. Chem. Theory Comput., 2019, 155, 2847-2862
     DOI: 10.1021/acs.jctc.9b00143
   
   for SPH calculations refer to:
   * S. Spicher and S. Grimme, J. Chem. Theory Comput., 2021, 17, 1701-1714
     DOI: 10.1021/acs.jctc.0c01306
   
   for ONIOM refer to:
   * C. Plett, A. Katbashev, S. Ehlert, S. Grimme, M. Bursch,
     Phys. Chem. Chem. Phys., 2023, 25, 17860-17868. DOI: 10.1039/D3CP02178E
   
   for DIPRO refer to:
   * J. Kohn, N. Gildemeister, S. Grimme, D. Fazzi, A. Hansen,
     J. Chem. Phys., 2023, just accepted.
   
   for PTB refer to:
   * S. Grimme, M. Mueller, A. Hansen, J. Chem. Phys., 2023, 158, 124111.
     DOI: 10.1063/5.0137838
   
   with help from (in alphabetical order)
   P. Atkinson, C. Bannwarth, F. Bohle, G. Brandenburg, E. Caldeweyher
   M. Checinski, S. Dohm, S. Ehlert, S. Ehrlich, I. Gerasimov, C. Hölzer
   A. Katbashev, J. Kohn, J. Koopman, C. Lavigne, S. Lehtola, F. März, M. Müller,
   F. Musil, H. Neugebauer, J. Pisarek, C. Plett, P. Pracht, F. Pultar,
   J. Seibert, P. Shushkov, S. Spicher, M. Stahn, M. Steiner, T. Strunk,
   J. Stückrath, T. Rose, and J. Unsleber
   
 * started run on 2025/04/11 at 14:23:05.086     
   ID    Z sym.   atoms
    1    6 C      1-5, 7, 9
    2    8 O      6, 8
    3    1 H      10-23

           -------------------------------------------------
          |                Calculation Setup                |
           -------------------------------------------------

          program call               : /software/projects/pawsey0265/mwang1/xtb/bin/xtb gas.coord --gfn2 --sp --chrg 0 --norestart --parallel 1
          hostname                   : nid001577
          coordinate file            : gas.coord
          omp threads                :                     1


           -------------------------------------------------
          |                 G F N 2 - x T B                 |
           -------------------------------------------------

        Reference                      10.1021/acs.jctc.8b01176
      * Hamiltonian:
        H0-scaling (s, p, d)           1.850000    2.230000    2.230000
        zeta-weighting                 0.500000
      * Dispersion:
        s8                             2.700000
        a1                             0.520000
        a2                             5.000000
        s9                             5.000000
      * Repulsion:
        kExp                           1.500000    1.000000
        rExp                           1.000000
      * Coulomb:
        alpha                          2.000000
        third order                    shell-resolved
        anisotropic                    true
        a3                             3.000000
        a5                             4.000000
        cn-shift                       1.200000
        cn-exp                         4.000000
        max-rad                        5.000000


          ...................................................
          :                      SETUP                      :
          :.................................................:
          :  # basis functions                  50          :
          :  # atomic orbitals                  50          :
          :  # shells                           32          :
          :  # electrons                        54          :
          :  max. iterations                   250          :
          :  Hamiltonian                  GFN2-xTB          :
          :  restarted?                      false          :
          :  GBSA solvation                  false          :
          :  PC potential                    false          :
          :  electronic temp.          300.0000000     K    :
          :  accuracy                    1.0000000          :
          :  -> integral cutoff          0.2500000E+02      :
          :  -> integral neglect         0.1000000E-07      :
          :  -> SCF convergence          0.1000000E-05 Eh   :
          :  -> wf. convergence          0.1000000E-03 e    :
          :  Broyden damping             0.4000000          :
          :  net charge                          0          :
          :  unpaired electrons                  0          :
          ...................................................

 iter      E             dE          RMSdq      gap      omega  full diag
   1    -30.5610036 -0.305610E+02  0.373E+00    6.15       0.0  T
   2    -30.6392962 -0.782927E-01  0.196E+00    4.81       1.0  T
   3    -30.6430012 -0.370492E-02  0.110E+00    5.34       1.0  T
   4    -30.6453877 -0.238656E-02  0.174E-01    5.04       1.0  T
   5    -30.6456809 -0.293216E-03  0.728E-02    5.12       1.0  T
   6    -30.6456856 -0.462759E-05  0.241E-02    5.11       1.0  T
   7    -30.6456878 -0.225253E-05  0.727E-03    5.11       2.9  T
   8    -30.6456880 -0.158675E-06  0.218E-03    5.11       9.6  T
   9    -30.6456880 -0.143005E-07  0.100E-03    5.11      20.8  T
  10    -30.6456880 -0.303396E-08  0.193E-04    5.11     108.2  T
  11    -30.6456880 -0.185999E-09  0.781E-05    5.11     267.1  T

   *** convergence criteria satisfied after 11 iterations ***

         #    Occupation            Energy/Eh            Energy/eV
      -------------------------------------------------------------
         1        2.0000           -0.7411920             -20.1689
       ...           ...                  ...                  ...
        21        2.0000           -0.4677986             -12.7294
        22        2.0000           -0.4567004             -12.4275
        23        2.0000           -0.4441522             -12.0860
        24        2.0000           -0.4394767             -11.9588
        25        2.0000           -0.4352549             -11.8439
        26        2.0000           -0.4316889             -11.7469
        27        2.0000           -0.4128350             -11.2338 (HOMO)
        28                         -0.2248823              -6.1194 (LUMO)
        29                         -0.0098155              -0.2671
        30                          0.0793026               2.1579
        31                          0.0863519               2.3498
        32                          0.1059319               2.8826
       ...                                ...                  ...
        50                          0.6248408              17.0028
      -------------------------------------------------------------
                  HL-Gap            0.1879527 Eh            5.1145 eV
             Fermi-level           -0.3188586 Eh           -8.6766 eV

 SCC (total)                   0 d,  0 h,  0 min,  0.090 sec
 SCC setup                      ...        0 min,  0.000 sec (  0.333%)
 Dispersion                     ...        0 min,  0.000 sec (  0.210%)
 classical contributions        ...        0 min,  0.000 sec (  0.065%)
 integral evaluation            ...        0 min,  0.002 sec (  2.311%)
 iterations                     ...        0 min,  0.082 sec ( 91.230%)
 molecular gradient             ...        0 min,  0.005 sec (  5.699%)
 printout                       ...        0 min,  0.000 sec (  0.127%)

         :::::::::::::::::::::::::::::::::::::::::::::::::::::
         ::                     SUMMARY                     ::
         :::::::::::::::::::::::::::::::::::::::::::::::::::::
         :: total energy             -30.281505766239 Eh    ::
         :: gradient norm              0.028466667762 Eh/a0 ::
         :: HOMO-LUMO gap              5.114454506585 eV    ::
         ::.................................................::
         :: SCC energy               -30.645711055579 Eh    ::
         :: -> isotropic ES            0.049414845394 Eh    ::
         :: -> anisotropic ES          0.003421437350 Eh    ::
         :: -> anisotropic XC          0.009516070555 Eh    ::
         :: -> dispersion             -0.013909116621 Eh    ::
         :: repulsion energy           0.364205289340 Eh    ::
         :: add. restraining           0.000000000000 Eh    ::
         :: total charge               0.000000000000 e     ::
         :::::::::::::::::::::::::::::::::::::::::::::::::::::

           -------------------------------------------------
          |                Property Printout                |
           -------------------------------------------------

    * Orbital Energies and Occupations

         #    Occupation            Energy/Eh            Energy/eV
      -------------------------------------------------------------
         1        2.0000           -0.7411920             -20.1689
       ...           ...                  ...                  ...
        15        2.0000           -0.5023541             -13.6698
        16        2.0000           -0.4978714             -13.5478
        17        2.0000           -0.4857242             -13.2172
        18        2.0000           -0.4835227             -13.1573
        19        2.0000           -0.4769791             -12.9793
        20        2.0000           -0.4706043             -12.8058
        21        2.0000           -0.4677986             -12.7294
        22        2.0000           -0.4567004             -12.4275
        23        2.0000           -0.4441522             -12.0860
        24        2.0000           -0.4394767             -11.9588
        25        2.0000           -0.4352549             -11.8439
        26        2.0000           -0.4316889             -11.7469
        27        2.0000           -0.4128350             -11.2338 (HOMO)
        28                         -0.2248823              -6.1194 (LUMO)
        29                         -0.0098155              -0.2671
        30                          0.0793026               2.1579
        31                          0.0863519               2.3498
        32                          0.1059319               2.8826
        33                          0.1237797               3.3682
        34                          0.1274053               3.4669
        35                          0.1377882               3.7494
        36                          0.1582881               4.3072
        37                          0.1688333               4.5942
        38                          0.1727381               4.7004
       ...                                ...                  ...
        50                          0.6248408              17.0028
      -------------------------------------------------------------
                  HL-Gap            0.1879527 Eh            5.1145 eV
             Fermi-level           -0.3188586 Eh           -8.6766 eV

     #   Z          covCN         q      C6AA      α(0)
     1   6 C        3.757    -0.110    22.653     6.786
     2   6 C        3.850    -0.012    20.752     6.480
     3   6 C        3.756    -0.112    22.699     6.793
     4   6 C        3.805    -0.071    21.859     6.656
     5   6 C        3.695     0.078    19.449     6.309
     6   8 O        1.704    -0.264    18.378     5.788
     7   6 C        2.710     0.360    20.891     7.482
     8   8 O        0.856    -0.427    22.229     6.321
     9   6 C        3.754    -0.146    23.377     6.894
    10   1 H        0.925     0.040     2.453     2.449
    11   1 H        0.925     0.036     2.498     2.472
    12   1 H        0.925     0.040     2.443     2.444
    13   1 H        0.924     0.031     2.573     2.508
    14   1 H        0.925     0.040     2.446     2.446
    15   1 H        0.925     0.041     2.436     2.441
    16   1 H        0.925     0.036     2.500     2.473
    17   1 H        0.924     0.053     2.288     2.365
    18   1 H        0.924     0.050     2.319     2.381
    19   1 H        0.924     0.047     2.359     2.402
    20   1 H        0.924     0.059     2.205     2.322
    21   1 H        0.925     0.071     2.080     2.255
    22   1 H        0.925     0.081     1.972     2.196
    23   1 H        0.925     0.079     1.984     2.203

 Mol. C6AA /au·bohr⁶  :       3937.740182
 Mol. C8AA /au·bohr⁸  :      83598.130350
 Mol. α(0) /au        :         92.866077


Wiberg/Mayer (AO) data.
largest (>0.10) Wiberg bond orders for each atom

 ---------------------------------------------------------------------------
     #   Z sym  total        # sym  WBO       # sym  WBO       # sym  WBO
 ---------------------------------------------------------------------------
     1   6 C    3.996 --     2 C    1.008    10 H    0.987    11 H    0.987
                            12 H    0.986
     2   6 C    3.995 --     3 C    1.010     1 C    1.008     4 C    0.994
                            13 H    0.969
     3   6 C    3.996 --     2 C    1.010    14 H    0.986    15 H    0.986
                            16 H    0.985
     4   6 C    3.992 --     5 C    1.005     2 C    0.994    18 H    0.975
                            17 H    0.973
     5   6 C    3.923 --     4 C    1.005    19 H    0.968    20 H    0.967
                             6 O    0.931
     6   8 O    2.315 --     7 C    1.151     5 C    0.931     8 O    0.175
     7   6 C    3.918 --     8 O    1.732     6 O    1.151     9 C    0.990
     8   8 O    2.015 --     7 C    1.732     6 O    0.175
     9   6 C    3.991 --     7 C    0.990    21 H    0.983    23 H    0.968
                            22 H    0.958
    10   1 H    0.998 --     1 C    0.987
    11   1 H    0.999 --     1 C    0.987
    12   1 H    0.998 --     1 C    0.986
    13   1 H    0.999 --     2 C    0.969
    14   1 H    0.998 --     3 C    0.986
    15   1 H    0.998 --     3 C    0.986
    16   1 H    0.999 --     3 C    0.985
    17   1 H    0.997 --     4 C    0.973
    18   1 H    0.997 --     4 C    0.975
    19   1 H    0.998 --     5 C    0.968
    20   1 H    0.996 --     5 C    0.967
    21   1 H    0.995 --     9 C    0.983
    22   1 H    0.993 --     9 C    0.958
    23   1 H    0.994 --     9 C    0.968
 ---------------------------------------------------------------------------

Topologies differ in total number of bonds
Writing topology from bond orders to xtbtopo.mol

molecular dipole:
                 x           y           z       tot (Debye)
 q only:        0.599      -0.821      -0.183
   full:        0.533      -0.888      -0.182       2.673
molecular quadrupole (traceless):
                xx          xy          yy          xz          yz          zz
 q only:        3.753       7.671      -3.686       2.440       0.080      -0.067
  q+dip:        1.838       8.554      -4.736       2.373      -0.532       2.898
   full:        2.411       8.719      -4.982       2.314      -0.531       2.570


           -------------------------------------------------
          | TOTAL ENERGY              -30.281505766239 Eh   |
          | GRADIENT NORM               0.028466667762 Eh/α |
          | HOMO-LUMO GAP               5.114454506585 eV   |
           -------------------------------------------------

------------------------------------------------------------------------
 * finished run on 2025/04/11 at 14:23:05.224     
------------------------------------------------------------------------
 total:
 * wall-time:     0 d,  0 h,  0 min,  0.132 sec
 *  cpu-time:     0 d,  0 h,  0 min,  0.033 sec
 * ratio c/w:     0.251 speedup
 SCF:
 * wall-time:     0 d,  0 h,  0 min,  0.090 sec
 *  cpu-time:     0 d,  0 h,  0 min,  0.021 sec
 * ratio c/w:     0.228 speedup

