      -----------------------------------------------------------      
     |                   =====================                   |     
     |                           x T B                           |     
     |                   =====================                   |     
     |                         S. Grimme                         |     
     |          Mulliken Center for Theoretical Chemistry        |     
     |                    University of Bonn                     |     
      -----------------------------------------------------------      

   * xtb version 6.7.1 (edcfbbe) compiled by 'albert@albert-system' on 2024-07-22

   xtb is free software: you can redistribute it and/or modify it under
   the terms of the GNU Lesser General Public License as published by
   the Free Software Foundation, either version 3 of the License, or
   (at your option) any later version.
   
   xtb is distributed in the hope that it will be useful,
   but WITHOUT ANY WARRANTY; without even the implied warranty of
   MERCHANTABILITY or FITNESS FOR A PARTICULAR PURPOSE.  See the
   GNU Lesser General Public License for more details.
   
   Cite this work as:
   * C. Bannwarth, E. Caldeweyher, S. Ehlert, A. Hansen, P. Pracht,
     J. Seibert, S. Spicher, S. Grimme, WIREs Comput. Mol. Sci., 2020, 11,
     e01493. DOI: 10.1002/wcms.1493
   
   for GFN2-xTB:
   * C. Bannwarth, S. Ehlert and S. Grimme., J. Chem. Theory Comput., 2019,
     15, 1652-1671. DOI: 10.1021/acs.jctc.8b01176
   for GFN1-xTB:
   * S. Grimme, C. Bannwarth, P. Shushkov, J. Chem. Theory Comput., 2017,
     13, 1989-2009. DOI: 10.1021/acs.jctc.7b00118
   for GFN0-xTB:
   * P. Pracht, E. Caldeweyher, S. Ehlert, S. Grimme, ChemRxiv, 2019, preprint.
     DOI: 10.26434/chemrxiv.8326202.v1
   for GFN-FF:
   * S. Spicher and S. Grimme, Angew. Chem. Int. Ed., 2020, 59, 15665-15673.
     DOI: 10.1002/anie.202004239
   
   for ALPB and GBSA implicit solvation:
   * S. Ehlert, M. Stahn, S. Spicher, S. Grimme, J. Chem. Theory Comput.,
     2021, 17, 4250-4261. DOI: 10.1021/acs.jctc.1c00471
   
   for ddCOSMO and CPCM-X implicit solvation:
   * M. Stahn, S. Ehlert, S. Grimme, J. Phys. Chem. A,
     2023, XX, XXXX-XXXX. DOI: 10.1021/acs.jpca.3c04382
   
   for DFT-D4:
   * E. Caldeweyher, C. Bannwarth and S. Grimme, J. Chem. Phys., 2017,
     147, 034112. DOI: 10.1063/1.4993215
   * E. Caldeweyher, S. Ehlert, A. Hansen, H. Neugebauer, S. Spicher,
     C. Bannwarth and S. Grimme, J. Chem. Phys., 2019, 150, 154122.
     DOI: 10.1063/1.5090222
   * E. Caldeweyher, J.-M. Mewes, S. Ehlert and S. Grimme, Phys. Chem. Chem. Phys.
     2020, 22, 8499-8512. DOI: 10.1039/D0CP00502A
   
   for sTDA-xTB:
   * S. Grimme and C. Bannwarth, J. Chem. Phys., 2016, 145, 054103.
     DOI: 10.1063/1.4959605
   
   in the mass-spec context:
   * V. Asgeirsson, C. Bauer and S. Grimme, Chem. Sci., 2017, 8, 4879.
     DOI: 10.1039/c7sc00601b
   * J. Koopman and S. Grimme, ACS Omega 2019, 4, 12, 15120-15133.
     DOI: 10.1021/acsomega.9b02011
   
   for metadynamics refer to:
   * S. Grimme, J. Chem. Theory Comput., 2019, 155, 2847-2862
     DOI: 10.1021/acs.jctc.9b00143
   
   for SPH calculations refer to:
   * S. Spicher and S. Grimme, J. Chem. Theory Comput., 2021, 17, 1701-1714
     DOI: 10.1021/acs.jctc.0c01306
   
   for ONIOM refer to:
   * C. Plett, A. Katbashev, S. Ehlert, S. Grimme, M. Bursch,
     Phys. Chem. Chem. Phys., 2023, 25, 17860-17868. DOI: 10.1039/D3CP02178E
   
   for DIPRO refer to:
   * J. Kohn, N. Gildemeister, S. Grimme, D. Fazzi, A. Hansen,
     J. Chem. Phys., 2023, just accepted.
   
   for PTB refer to:
   * S. Grimme, M. Mueller, A. Hansen, J. Chem. Phys., 2023, 158, 124111.
     DOI: 10.1063/5.0137838
   
   with help from (in alphabetical order)
   P. Atkinson, C. Bannwarth, F. Bohle, G. Brandenburg, E. Caldeweyher
   M. Checinski, S. Dohm, S. Ehlert, S. Ehrlich, I. Gerasimov, C. Hölzer
   A. Katbashev, J. Kohn, J. Koopman, C. Lavigne, S. Lehtola, F. März, M. Müller,
   F. Musil, H. Neugebauer, J. Pisarek, C. Plett, P. Pracht, F. Pultar,
   J. Seibert, P. Shushkov, S. Spicher, M. Stahn, M. Steiner, T. Strunk,
   J. Stückrath, T. Rose, and J. Unsleber
   
 * started run on 2025/04/11 at 16:29:08.433     
   ID    Z sym.   atoms
    1    6 C      1-4, 6, 8
    2    8 O      5, 7
    3    1 H      9-20

           -------------------------------------------------
          |                Calculation Setup                |
           -------------------------------------------------

          program call               : /srv/scratch/z5358697/.xtb/bin/xtb xtb_rrho.coord --gfn2 --bhess vtight --chrg 0 --enso --norestart -I rrho-xcontrol-inp --parallel 1 --alpb water
          hostname                   : k124
          coordinate file            : xtb_rrho.coord
          omp threads                :                     1


           -------------------------------------------------
          |                 G F N 2 - x T B                 |
           -------------------------------------------------

        Reference                      10.1021/acs.jctc.8b01176
      * Hamiltonian:
        H0-scaling (s, p, d)           1.850000    2.230000    2.230000
        zeta-weighting                 0.500000
      * Dispersion:
        s8                             2.700000
        a1                             0.520000
        a2                             5.000000
        s9                             5.000000
      * Repulsion:
        kExp                           1.500000    1.000000
        rExp                           1.000000
      * Coulomb:
        alpha                          2.000000
        third order                    shell-resolved
        anisotropic                    true
        a3                             3.000000
        a5                             4.000000
        cn-shift                       1.200000
        cn-exp                         4.000000
        max-rad                        5.000000

      * Solvation model:               ALPB
        Solvent                        water
        Parameter file                 internal GFN2-xTB/ALPB
        Dielectric constant                8.0200E+01
        Reference state                gsolv [1 M gas/solution]
        Free energy shift                  1.0808E-03 Eh       6.7819E-01 kcal/mol
        Temperature                        2.9815E+02 K
        Density                            1.0000E+00 kg/L
        Solvent mass                       1.8000E+01 g/mol
        Interaction kernel             P16
        Born radius scaling (c1)           1.4744E+00
        Born radii integrator          GBOBC
        Born offset                        0.0000E+00 a0       0.0000E+00 AA
        H-bond correction              true
        Ion screening                  false
        Surface tension                    1.0000E-05 Eh       1.5569E+01 dyn/cm
        Grid points                               974 per atom

          ...................................................
          :                      SETUP                      :
          :.................................................:
          :  # basis functions                  44          :
          :  # atomic orbitals                  44          :
          :  # shells                           28          :
          :  # electrons                        48          :
          :  max. iterations                   250          :
          :  Hamiltonian                  GFN2-xTB          :
          :  restarted?                      false          :
          :  GBSA solvation                   true          :
          :  PC potential                    false          :
          :  electronic temp.          300.0000000     K    :
          :  accuracy                    1.0000000          :
          :  -> integral cutoff          0.2500000E+02      :
          :  -> integral neglect         0.1000000E-07      :
          :  -> SCF convergence          0.1000000E-05 Eh   :
          :  -> wf. convergence          0.1000000E-03 e    :
          :  Broyden damping             0.4000000          :
          :  net charge                          0          :
          :  unpaired electrons                  0          :
          ...................................................

 iter      E             dE          RMSdq      gap      omega  full diag
   1    -27.3585156 -0.273585E+02  0.384E+00    5.61       0.0  T
   2    -27.4212725 -0.627568E-01  0.187E+00    4.80       1.0  T
   3    -27.4234277 -0.215528E-02  0.101E+00    5.16       1.0  T
   4    -27.4249215 -0.149373E-02  0.156E-01    4.92       1.0  T
   5    -27.4251075 -0.186078E-03  0.642E-02    4.97       1.0  T
   6    -27.4251092 -0.169426E-05  0.205E-02    4.96       1.1  T
   7    -27.4251102 -0.101055E-05  0.462E-03    4.97       4.8  T
   8    -27.4251103 -0.407290E-07  0.272E-03    4.97       8.2  T
   9    -27.4251103 -0.187433E-07  0.534E-04    4.97      41.8  T
  10    -27.4251103 -0.887390E-09  0.289E-04    4.97      77.2  T

   *** convergence criteria satisfied after 10 iterations ***

         #    Occupation            Energy/Eh            Energy/eV
      -------------------------------------------------------------
         1        2.0000           -0.7430326             -20.2189
       ...           ...                  ...                  ...
        18        2.0000           -0.4721025             -12.8466
        19        2.0000           -0.4644542             -12.6384
        20        2.0000           -0.4541817             -12.3589
        21        2.0000           -0.4387891             -11.9401
        22        2.0000           -0.4338330             -11.8052
        23        2.0000           -0.4267013             -11.6111
        24        2.0000           -0.4236616             -11.5284 (HOMO)
        25                         -0.2410880              -6.5603 (LUMO)
        26                         -0.0237047              -0.6450
        27                          0.0818619               2.2276
        28                          0.0978930               2.6638
        29                          0.1100653               2.9950
       ...                                ...                  ...
        44                          0.5892818              16.0352
      -------------------------------------------------------------
                  HL-Gap            0.1825736 Eh            4.9681 eV
             Fermi-level           -0.3323748 Eh           -9.0444 eV

 SCC (total)                   0 d,  0 h,  0 min,  0.055 sec
 SCC setup                      ...        0 min,  0.001 sec (  2.257%)
 Dispersion                     ...        0 min,  0.000 sec (  0.197%)
 classical contributions        ...        0 min,  0.000 sec (  0.044%)
 integral evaluation            ...        0 min,  0.002 sec (  2.858%)
 iterations                     ...        0 min,  0.047 sec ( 85.359%)
 molecular gradient             ...        0 min,  0.005 sec (  8.957%)
 printout                       ...        0 min,  0.000 sec (  0.299%)

         :::::::::::::::::::::::::::::::::::::::::::::::::::::
         ::                     SUMMARY                     ::
         :::::::::::::::::::::::::::::::::::::::::::::::::::::
         :: total energy             -27.121299184233 Eh    ::
         :: total w/o Gsasa/hb       -27.121164865647 Eh    ::
         :: gradient norm              0.034313778633 Eh/a0 ::
         :: HOMO-LUMO gap              4.968081877050 eV    ::
         ::.................................................::
         :: SCC energy               -27.425062675496 Eh    ::
         :: -> isotropic ES            0.060374181084 Eh    ::
         :: -> anisotropic ES          0.001584162370 Eh    ::
         :: -> anisotropic XC          0.008808811950 Eh    ::
         :: -> dispersion             -0.011835328398 Eh    ::
         :: -> Gsolv                  -0.009530087868 Eh    ::
         ::    -> Gelec               -0.009395769282 Eh    ::
         ::    -> Gsasa                0.001329389525 Eh    ::
         ::    -> Ghb                 -0.002544467809 Eh    ::
         ::    -> Gshift               0.001080759698 Eh    ::
         :: repulsion energy           0.303763491263 Eh    ::
         :: add. restraining           0.000000000000 Eh    ::
         :: total charge               0.000000000000 e     ::
         :::::::::::::::::::::::::::::::::::::::::::::::::::::

metadynamics with 1 initial structures loaded
           -------------------------------------------------
          |           Optimal kpush determination           |
           -------------------------------------------------
      ----------------------------------------------------------- 
     |                   =====================                   |
     |                        A N C O P T                        |
     |                   =====================                   |
     |               Approximate Normal Coordinate               |
     |                Rational Function Optimizer                |
      ----------------------------------------------------------- 
target rmsd / Å         0.100000
unbiased initial rmsd   0.284985
 
iter. min.        max.        rmsd       kpush
      ----------------------------------------------------------- 
     |                   =====================                   |
     |                        A N C O P T                        |
     |                   =====================                   |
     |               Approximate Normal Coordinate               |
     |                Rational Function Optimizer                |
      ----------------------------------------------------------- 
 1    0.000000    0.909091    0.010517   -0.454545
      ----------------------------------------------------------- 
     |                   =====================                   |
     |                        A N C O P T                        |
     |                   =====================                   |
     |               Approximate Normal Coordinate               |
     |                Rational Function Optimizer                |
      ----------------------------------------------------------- 
 2    0.000000    0.454545    0.013335   -0.227273
      ----------------------------------------------------------- 
     |                   =====================                   |
     |                        A N C O P T                        |
     |                   =====================                   |
     |               Approximate Normal Coordinate               |
     |                Rational Function Optimizer                |
      ----------------------------------------------------------- 
 3    0.000000    0.227273    0.016802   -0.113636
      ----------------------------------------------------------- 
     |                   =====================                   |
     |                        A N C O P T                        |
     |                   =====================                   |
     |               Approximate Normal Coordinate               |
     |                Rational Function Optimizer                |
      ----------------------------------------------------------- 
 4    0.000000    0.113636    0.021121   -0.056818
      ----------------------------------------------------------- 
     |                   =====================                   |
     |                        A N C O P T                        |
     |                   =====================                   |
     |               Approximate Normal Coordinate               |
     |                Rational Function Optimizer                |
      ----------------------------------------------------------- 
 5    0.000000    0.056818    0.026223   -0.028409
      ----------------------------------------------------------- 
     |                   =====================                   |
     |                        A N C O P T                        |
     |                   =====================                   |
     |               Approximate Normal Coordinate               |
     |                Rational Function Optimizer                |
      ----------------------------------------------------------- 
 6    0.000000    0.028409    0.031889   -0.014205
      ----------------------------------------------------------- 
     |                   =====================                   |
     |                        A N C O P T                        |
     |                   =====================                   |
     |               Approximate Normal Coordinate               |
     |                Rational Function Optimizer                |
      ----------------------------------------------------------- 
 7    0.000000    0.014205    0.038067   -0.007102
      ----------------------------------------------------------- 
     |                   =====================                   |
     |                        A N C O P T                        |
     |                   =====================                   |
     |               Approximate Normal Coordinate               |
     |                Rational Function Optimizer                |
      ----------------------------------------------------------- 
 8    0.000000    0.007102    0.049336   -0.003551
      ----------------------------------------------------------- 
     |                   =====================                   |
     |                        A N C O P T                        |
     |                   =====================                   |
     |               Approximate Normal Coordinate               |
     |                Rational Function Optimizer                |
      ----------------------------------------------------------- 
 9    0.000000    0.003551    0.078094   -0.001776
      ----------------------------------------------------------- 
     |                   =====================                   |
     |                        A N C O P T                        |
     |                   =====================                   |
     |               Approximate Normal Coordinate               |
     |                Rational Function Optimizer                |
      ----------------------------------------------------------- 
10    0.000000    0.001776    0.155338   -0.000888
final kpush: -0.000888
           -------------------------------------------------
          |            Biased Numerical Hessian             |
           -------------------------------------------------
kpush                :  -0.00089
alpha                :   1.00000
step length          :   0.00500
SCC accuracy         :   0.30000
Hessian scale factor :   1.00000
frozen atoms in %    :   0.00000    0
RMS gradient         :   0.00006
estimated CPU  time      0.02 min
estimated wall time      0.02 min

writing file <hessian>.

 projected vibrational frequencies (cm⁻¹)
eigval :       -0.00    -0.00    -0.00     0.00     0.00     0.00
eigval :       38.94    45.69    49.74    87.82   134.44   200.93
eigval :      253.38   302.64   384.80   413.75   483.25   583.83
eigval :      634.04   770.07   839.26   880.13   912.13   970.94
eigval :      997.75  1000.77  1008.84  1038.99  1102.75  1128.65
eigval :     1142.08  1182.19  1216.04  1238.33  1274.88  1314.73
eigval :     1344.20  1350.78  1358.80  1409.65  1422.54  1428.56
eigval :     1429.61  1469.31  1484.50  1496.47  1503.57  1697.79
eigval :     2943.98  2971.25  2973.19  2988.49  2997.23  3003.69
eigval :     3026.41  3032.74  3037.94  3048.60  3059.20  3072.85
           -------------------------------------------------
          |                Property Printout                |
           -------------------------------------------------

    * Orbital Energies and Occupations

         #    Occupation            Energy/Eh            Energy/eV
      -------------------------------------------------------------
         1        2.0000           -0.7484166             -20.3655
       ...           ...                  ...                  ...
        12        2.0000           -0.5222942             -14.2123
        13        2.0000           -0.5155624             -14.0292
        14        2.0000           -0.4963070             -13.5052
        15        2.0000           -0.4925868             -13.4040
        16        2.0000           -0.4820866             -13.1182
        17        2.0000           -0.4762491             -12.9594
        18        2.0000           -0.4728583             -12.8671
        19        2.0000           -0.4647811             -12.6473
        20        2.0000           -0.4536137             -12.3435
        21        2.0000           -0.4378422             -11.9143
        22        2.0000           -0.4327785             -11.7765
        23        2.0000           -0.4275131             -11.6332
        24        2.0000           -0.4228921             -11.5075 (HOMO)
        25                         -0.2358871              -6.4188 (LUMO)
        26                          0.0005962               0.0162
        27                          0.0877016               2.3865
        28                          0.1046743               2.8483
        29                          0.1180292               3.2117
        30                          0.1351790               3.6784
        31                          0.1474992               4.0137
        32                          0.1536646               4.1814
        33                          0.1616186               4.3979
        34                          0.1674837               4.5575
        35                          0.1858667               5.0577
       ...                                ...                  ...
        44                          0.6159871              16.7619
      -------------------------------------------------------------
                  HL-Gap            0.1870050 Eh            5.0887 eV
             Fermi-level           -0.3293896 Eh           -8.9631 eV

     #   Z          covCN         q      C6AA      α(0)
     1   6 C        3.752    -0.117    22.792     6.808
     2   6 C        3.800    -0.059    21.631     6.622
     3   6 C        3.800    -0.068    21.805     6.648
     4   6 C        3.696     0.067    19.620     6.336
     5   8 O        1.704    -0.269    18.453     5.800
     6   6 C        2.710     0.370    20.733     7.453
     7   8 O        0.856    -0.493    23.639     6.519
     8   6 C        3.754    -0.171    23.890     6.970
     9   1 H        0.925     0.043     2.415     2.430
    10   1 H        0.925     0.042     2.425     2.435
    11   1 H        0.925     0.043     2.405     2.425
    12   1 H        0.924     0.040     2.447     2.447
    13   1 H        0.924     0.040     2.454     2.450
    14   1 H        0.924     0.058     2.226     2.333
    15   1 H        0.924     0.042     2.428     2.437
    16   1 H        0.925     0.079     1.987     2.204
    17   1 H        0.924     0.054     2.271     2.356
    18   1 H        0.925     0.099     1.791     2.093
    19   1 H        0.925     0.108     1.711     2.046
    20   1 H        0.925     0.092     1.860     2.133

 Mol. C6AA /au·bohr⁶  :       2997.985760
 Mol. C8AA /au·bohr⁸  :      63876.595519
 Mol. α(0) /au        :         80.944552


Wiberg/Mayer (AO) data.
largest (>0.10) Wiberg bond orders for each atom

 ---------------------------------------------------------------------------
     #   Z sym  total        # sym  WBO       # sym  WBO       # sym  WBO
 ---------------------------------------------------------------------------
     1   6 C    3.996 --     2 C    1.020     9 H    0.987    11 H    0.987
                            10 H    0.985
     2   6 C    3.996 --     1 C    1.020     3 C    1.007    12 H    0.978
                            13 H    0.977
     3   6 C    3.993 --     2 C    1.007     4 C    0.999    15 H    0.976
                            14 H    0.971
     4   6 C    3.915 --     3 C    0.999    17 H    0.969    16 H    0.966
                             5 O    0.925
     5   8 O    2.319 --     6 C    1.163     4 C    0.925     7 O    0.168
     6   6 C    3.905 --     7 O    1.690     5 O    1.163     8 C    0.999
     7   8 O    1.968 --     6 C    1.690     5 O    0.168
     8   6 C    3.983 --     6 C    0.999    20 H    0.975    18 H    0.969
                            19 H    0.945
     9   1 H    0.998 --     1 C    0.987
    10   1 H    0.998 --     1 C    0.985
    11   1 H    0.998 --     1 C    0.987
    12   1 H    0.998 --     2 C    0.978
    13   1 H    0.998 --     2 C    0.977
    14   1 H    0.996 --     3 C    0.971
    15   1 H    0.998 --     3 C    0.976
    16   1 H    0.994 --     4 C    0.966
    17   1 H    0.997 --     4 C    0.969
    18   1 H    0.990 --     8 C    0.969
    19   1 H    0.988 --     8 C    0.945
    20   1 H    0.992 --     8 C    0.975
 ---------------------------------------------------------------------------

Topologies differ in total number of bonds
Writing topology from bond orders to xtbtopo.mol

molecular dipole:
                 x           y           z       tot (Debye)
 q only:       -0.723      -0.981      -0.219
   full:       -0.673      -0.977      -0.242       3.077
molecular quadrupole (traceless):
                xx          xy          yy          xz          yz          zz
 q only:        1.403      -9.440      -1.459       0.428      -2.493       0.056
  q+dip:        0.186      -9.451      -1.736      -0.366      -2.721       1.550
   full:        0.375      -9.605      -2.112      -0.553      -2.940       1.737

           -------------------------------------------------
          |                Geometry Summary                 |
           -------------------------------------------------

      molecular mass/u    :      116.1585142
   center of mass at/Å    :       -0.0050407       0.0026583       0.0030024
  moments of inertia/u·Å² :        0.1203953E+03   0.4942223E+03   0.5362057E+03
rotational constants/cm⁻¹ :        0.1400190E+00   0.3410941E-01   0.3143874E-01

 * 18 selected distances

     #   Z          #   Z                                           value/Å
     1   6 C        2   6 C                                       1.5245873
     2   6 C        3   6 C                                       1.5299030 (max)
     3   6 C        4   6 C                                       1.5268424
     4   6 C        5   8 O                                       1.4343938
     5   8 O        6   6 C                                       1.3282595
     6   6 C        7   8 O                                       1.2141012
     1   6 C        9   1 H                                       1.0874016
     1   6 C       10   1 H                                       1.0863864
     1   6 C       11   1 H                                       1.0869445
     2   6 C       12   1 H                                       1.0916239
     2   6 C       13   1 H                                       1.0918457
     3   6 C       14   1 H                                       1.0904253
     3   6 C       15   1 H                                       1.0927395
     4   6 C       16   1 H                                       1.0894702
     4   6 C       17   1 H                                       1.0945004
     8   6 C       18   1 H                                       1.0850164 (min)
     8   6 C       19   1 H                                       1.0879827
     8   6 C       20   1 H                                       1.0850487

 * 3 distinct bonds (by element types)

   Z      Z             #   av. dist./Å        max./Å        min./Å
   1 H    6 C          12     1.0891154     1.0945004     1.0850164
   6 C    6 C           3     1.5271109     1.5299030     1.5245873
   6 C    8 O           3     1.3255848     1.4343938     1.2141012

           -------------------------------------------------
          |               Frequency Printout                |
           -------------------------------------------------
 projected vibrational frequencies (cm⁻¹)
eigval :       -0.00    -0.00    -0.00     0.00     0.00     0.00
eigval :       38.94    45.69    49.74    87.82   134.44   200.93
eigval :      253.38   302.64   384.80   413.75   483.25   583.83
eigval :      634.04   770.07   839.26   880.13   912.13   970.94
eigval :      997.75  1000.77  1008.84  1038.99  1102.75  1128.65
eigval :     1142.08  1182.19  1216.04  1238.33  1274.88  1314.73
eigval :     1344.20  1350.78  1358.80  1409.65  1422.54  1428.56
eigval :     1429.61  1469.31  1484.50  1496.47  1503.57  1697.79
eigval :     2943.98  2971.25  2973.19  2988.49  2997.23  3003.69
eigval :     3026.41  3032.74  3037.94  3048.60  3059.20  3072.85
 reduced masses (amu)
   1: 10.81   2: 11.60   3: 10.80   4: 10.64   5: 11.31   6: 12.14   7: 10.79   8:  7.00
   9:  5.45  10:  8.21  11:  8.61  12:  8.91  13:  6.21  14:  8.68  15:  8.54  16:  8.19
  17:  9.23  18: 10.03  19: 11.57  20:  4.14  21:  6.00  22:  9.26  23:  6.68  24:  7.81
  25:  6.06  26:  6.06  27:  7.21  28:  8.27  29:  6.49  30:  7.77  31:  7.67  32:  8.10
  33:  6.24  34:  4.16  35:  2.31  36:  3.40  37:  4.19  38:  5.08  39:  3.39  40:  3.18
  41:  1.76  42:  1.62  43:  1.92  44:  1.92  45:  1.89  46:  1.61  47:  1.54  48: 13.27
  49:  1.73  50:  1.87  51:  1.89  52:  1.50  53:  1.65  54:  1.76  55:  1.76  56:  1.88
  57:  1.91  58:  1.36  59:  1.45  60:  1.97
 IR intensities (km·mol⁻¹)
   1:  0.13   2:  0.15   3:  0.85   4:  0.16   5:  1.94   6:  0.08   7:  2.02   8:  2.67
   9:  1.96  10:  3.85  11:  2.67  12:  5.73  13:  1.35  14: 12.67  15:  5.55  16:  6.06
  17:  4.18  18: 18.34  19: 13.97  20: 18.21  21: 18.24  22: 13.98  23:  2.36  24:  5.94
  25: 11.40  26: 34.66  27: 16.49  28: 49.44  29: 17.83  30:  7.62  31:  4.98  32:377.60
  33:164.93  34: 54.26  35:  5.77  36:  4.96  37:  8.27  38:  0.83  39: 65.05  40:  3.29
  41: 30.44  42:  9.15  43:  4.51  44:  1.24  45:  0.35  46:  1.61  47:  1.15  48:683.48
  49: 34.38  50: 40.74  51: 42.78  52: 58.30  53: 65.68  54: 32.87  55:  0.52  56: 78.25
  57: 73.17  58: 44.29  59:  1.08  60:  8.01
 Raman intensities (Ä⁴*amu⁻¹)
   1:  0.00   2:  0.00   3:  0.00   4:  0.00   5:  0.00   6:  0.00   7:  0.00   8:  0.00
   9:  0.00  10:  0.00  11:  0.00  12:  0.00  13:  0.00  14:  0.00  15:  0.00  16:  0.00
  17:  0.00  18:  0.00  19:  0.00  20:  0.00  21:  0.00  22:  0.00  23:  0.00  24:  0.00
  25:  0.00  26:  0.00  27:  0.00  28:  0.00  29:  0.00  30:  0.00  31:  0.00  32:  0.00
  33:  0.00  34:  0.00  35:  0.00  36:  0.00  37:  0.00  38:  0.00  39:  0.00  40:  0.00
  41:  0.00  42:  0.00  43:  0.00  44:  0.00  45:  0.00  46:  0.00  47:  0.00  48:  0.00
  49:  0.00  50:  0.00  51:  0.00  52:  0.00  53:  0.00  54:  0.00  55:  0.00  56:  0.00
  57:  0.00  58:  0.00  59:  0.00  60:  0.00
 output can be read by thermo (or use thermo option).
 writing <g98.out> molden fake output.
 recommended (thermochemical) frequency scaling factor: 1.0
           -------------------------------------------------
          |             Thermodynamic Functions             |
           -------------------------------------------------

Molecule has no symmetry elements
It seems to be the C1 point group
c1  symmetry found (for desy threshold:  0.10E+00) used in thermo

          ...................................................
          :                      SETUP                      :
          :.................................................:
          :  # frequencies                          54      :
          :  # imaginary freq.                       0      :
          :  linear?                             false      :
          :  only rotor calc.                    false      :
          :  symmetry                               c1      :
          :  rotational number                       1      :
          :  scaling factor                  1.0000000      :
          :  rotor cutoff                    0.0000000 cm⁻¹ :
          :  imag. cutoff                 -100.0000000 cm⁻¹ :
          :.................................................:

    mode    ω/cm⁻¹     T·S(HO)/kcal·mol⁻¹    T·S(FR)/kcal·mol⁻¹   T·S(vib)
   ------------------------------------------------------------------------
       1     38.94    -1.58384 (100.00%)    -1.13027 (  0.00%)    -1.58384
       2     45.69    -1.48944 (100.00%)    -1.08295 (  0.00%)    -1.48944
       3     49.74    -1.43932 (100.00%)    -1.05781 (  0.00%)    -1.43932
       4     87.82    -1.10558 (100.00%)    -0.88955 (  0.00%)    -1.10558
       5    134.44    -0.85914 (100.00%)    -0.76345 (  0.00%)    -0.85914
       6    200.93    -0.63345 (100.00%)    -0.64444 (  0.00%)    -0.63345
       7    253.38    -0.50893 (100.00%)    -0.57574 (  0.00%)    -0.50893
   ------------------------------------------------------------------------

   temp. (K)  partition function   enthalpy   heat capacity  entropy
                                   cal/mol     cal/K/mol   cal/K/mol   J/K/mol
 298.15  VIB  0.489E+04             4553.877     28.301     32.156
         ROT  0.431E+06              888.752      2.981     28.766
         INT  0.211E+10             5442.629     31.281     60.922
         TR   0.121E+28             1481.254      4.968     40.146
         TOT                        6923.8830    36.2496   101.0678   422.8678

       T/K    H(0)-H(T)+PV         H(T)/Eh          T*S/Eh         G(T)/Eh
   ------------------------------------------------------------------------
    298.15    0.110339E-01    0.182314E+00    0.480206E-01    0.134293E+00
   ------------------------------------------------------------------------

         :::::::::::::::::::::::::::::::::::::::::::::::::::::
         ::                  THERMODYNAMIC                  ::
         :::::::::::::::::::::::::::::::::::::::::::::::::::::
         :: total free energy         -26.989510479256 Eh   ::
         ::.................................................::
         :: total energy              -27.123803525584 Eh   ::
         :: zero point energy           0.171279720382 Eh   ::
         :: G(RRHO) w/o ZPVE           -0.036986674054 Eh   ::
         :: G(RRHO) contrib.            0.134293046328 Eh   ::
         :::::::::::::::::::::::::::::::::::::::::::::::::::::

optimized geometry written to: xtbopt.coord


           -------------------------------------------------
          | TOTAL ENERGY              -27.123803525584 Eh   |
          | TOTAL ENTHALPY            -26.941489895317 Eh   |
          | TOTAL FREE ENERGY         -26.989510479256 Eh   |
          | GRADIENT NORM               0.000059761010 Eh/α |
          | HOMO-LUMO GAP               5.088664939672 eV   |
           -------------------------------------------------

------------------------------------------------------------------------
 * finished run on 2025/04/11 at 16:29:12.657     
------------------------------------------------------------------------
 total:
 * wall-time:     0 d,  0 h,  0 min,  4.223 sec
 *  cpu-time:     0 d,  0 h,  0 min,  4.005 sec
 * ratio c/w:     0.948 speedup
 SCF:
 * wall-time:     0 d,  0 h,  0 min,  0.055 sec
 *  cpu-time:     0 d,  0 h,  0 min,  0.015 sec
 * ratio c/w:     0.273 speedup
 analytical hessian:
 * wall-time:     0 d,  0 h,  0 min,  1.234 sec
 *  cpu-time:     0 d,  0 h,  0 min,  1.219 sec
 * ratio c/w:     0.988 speedup

