      -----------------------------------------------------------      
     |                   =====================                   |     
     |                           x T B                           |     
     |                   =====================                   |     
     |                         S. Grimme                         |     
     |          Mulliken Center for Theoretical Chemistry        |     
     |                    University of Bonn                     |     
      -----------------------------------------------------------      

   * xtb version 6.7.1 (edcfbbe) compiled by 'albert@albert-system' on 2024-07-22

   xtb is free software: you can redistribute it and/or modify it under
   the terms of the GNU Lesser General Public License as published by
   the Free Software Foundation, either version 3 of the License, or
   (at your option) any later version.
   
   xtb is distributed in the hope that it will be useful,
   but WITHOUT ANY WARRANTY; without even the implied warranty of
   MERCHANTABILITY or FITNESS FOR A PARTICULAR PURPOSE.  See the
   GNU Lesser General Public License for more details.
   
   Cite this work as:
   * C. Bannwarth, E. Caldeweyher, S. Ehlert, A. Hansen, P. Pracht,
     J. Seibert, S. Spicher, S. Grimme, WIREs Comput. Mol. Sci., 2020, 11,
     e01493. DOI: 10.1002/wcms.1493
   
   for GFN2-xTB:
   * C. Bannwarth, S. Ehlert and S. Grimme., J. Chem. Theory Comput., 2019,
     15, 1652-1671. DOI: 10.1021/acs.jctc.8b01176
   for GFN1-xTB:
   * S. Grimme, C. Bannwarth, P. Shushkov, J. Chem. Theory Comput., 2017,
     13, 1989-2009. DOI: 10.1021/acs.jctc.7b00118
   for GFN0-xTB:
   * P. Pracht, E. Caldeweyher, S. Ehlert, S. Grimme, ChemRxiv, 2019, preprint.
     DOI: 10.26434/chemrxiv.8326202.v1
   for GFN-FF:
   * S. Spicher and S. Grimme, Angew. Chem. Int. Ed., 2020, 59, 15665-15673.
     DOI: 10.1002/anie.202004239
   
   for ALPB and GBSA implicit solvation:
   * S. Ehlert, M. Stahn, S. Spicher, S. Grimme, J. Chem. Theory Comput.,
     2021, 17, 4250-4261. DOI: 10.1021/acs.jctc.1c00471
   
   for ddCOSMO and CPCM-X implicit solvation:
   * M. Stahn, S. Ehlert, S. Grimme, J. Phys. Chem. A,
     2023, XX, XXXX-XXXX. DOI: 10.1021/acs.jpca.3c04382
   
   for DFT-D4:
   * E. Caldeweyher, C. Bannwarth and S. Grimme, J. Chem. Phys., 2017,
     147, 034112. DOI: 10.1063/1.4993215
   * E. Caldeweyher, S. Ehlert, A. Hansen, H. Neugebauer, S. Spicher,
     C. Bannwarth and S. Grimme, J. Chem. Phys., 2019, 150, 154122.
     DOI: 10.1063/1.5090222
   * E. Caldeweyher, J.-M. Mewes, S. Ehlert and S. Grimme, Phys. Chem. Chem. Phys.
     2020, 22, 8499-8512. DOI: 10.1039/D0CP00502A
   
   for sTDA-xTB:
   * S. Grimme and C. Bannwarth, J. Chem. Phys., 2016, 145, 054103.
     DOI: 10.1063/1.4959605
   
   in the mass-spec context:
   * V. Asgeirsson, C. Bauer and S. Grimme, Chem. Sci., 2017, 8, 4879.
     DOI: 10.1039/c7sc00601b
   * J. Koopman and S. Grimme, ACS Omega 2019, 4, 12, 15120-15133.
     DOI: 10.1021/acsomega.9b02011
   
   for metadynamics refer to:
   * S. Grimme, J. Chem. Theory Comput., 2019, 155, 2847-2862
     DOI: 10.1021/acs.jctc.9b00143
   
   for SPH calculations refer to:
   * S. Spicher and S. Grimme, J. Chem. Theory Comput., 2021, 17, 1701-1714
     DOI: 10.1021/acs.jctc.0c01306
   
   for ONIOM refer to:
   * C. Plett, A. Katbashev, S. Ehlert, S. Grimme, M. Bursch,
     Phys. Chem. Chem. Phys., 2023, 25, 17860-17868. DOI: 10.1039/D3CP02178E
   
   for DIPRO refer to:
   * J. Kohn, N. Gildemeister, S. Grimme, D. Fazzi, A. Hansen,
     J. Chem. Phys., 2023, just accepted.
   
   for PTB refer to:
   * S. Grimme, M. Mueller, A. Hansen, J. Chem. Phys., 2023, 158, 124111.
     DOI: 10.1063/5.0137838
   
   with help from (in alphabetical order)
   P. Atkinson, C. Bannwarth, F. Bohle, G. Brandenburg, E. Caldeweyher
   M. Checinski, S. Dohm, S. Ehlert, S. Ehrlich, I. Gerasimov, C. Hölzer
   A. Katbashev, J. Kohn, J. Koopman, C. Lavigne, S. Lehtola, F. März, M. Müller,
   F. Musil, H. Neugebauer, J. Pisarek, C. Plett, P. Pracht, F. Pultar,
   J. Seibert, P. Shushkov, S. Spicher, M. Stahn, M. Steiner, T. Strunk,
   J. Stückrath, T. Rose, and J. Unsleber
   
 * started run on 2025/04/11 at 14:20:51.991     
   ID    Z sym.   atoms
    1    6 C      1-7
    2    1 H      8-23

           -------------------------------------------------
          |                Calculation Setup                |
           -------------------------------------------------

          program call               : /software/projects/pawsey0265/mwang1/xtb/bin/xtb xtb_rrho.coord --gfn2 --bhess vtight --chrg 0 --enso --norestart -I rrho-xcontrol-inp --parallel 1 --alpb water
          hostname                   : nid001220
          coordinate file            : xtb_rrho.coord
          omp threads                :                     1


           -------------------------------------------------
          |                 G F N 2 - x T B                 |
           -------------------------------------------------

        Reference                      10.1021/acs.jctc.8b01176
      * Hamiltonian:
        H0-scaling (s, p, d)           1.850000    2.230000    2.230000
        zeta-weighting                 0.500000
      * Dispersion:
        s8                             2.700000
        a1                             0.520000
        a2                             5.000000
        s9                             5.000000
      * Repulsion:
        kExp                           1.500000    1.000000
        rExp                           1.000000
      * Coulomb:
        alpha                          2.000000
        third order                    shell-resolved
        anisotropic                    true
        a3                             3.000000
        a5                             4.000000
        cn-shift                       1.200000
        cn-exp                         4.000000
        max-rad                        5.000000

      * Solvation model:               ALPB
        Solvent                        water
        Parameter file                 internal GFN2-xTB/ALPB
        Dielectric constant                8.0200E+01
        Reference state                gsolv [1 M gas/solution]
        Free energy shift                  1.0808E-03 Eh       6.7819E-01 kcal/mol
        Temperature                        2.9815E+02 K
        Density                            1.0000E+00 kg/L
        Solvent mass                       1.8000E+01 g/mol
        Interaction kernel             P16
        Born radius scaling (c1)           1.4744E+00
        Born radii integrator          GBOBC
        Born offset                        0.0000E+00 a0       0.0000E+00 AA
        H-bond correction              true
        Ion screening                  false
        Surface tension                    1.0000E-05 Eh       1.5569E+01 dyn/cm
        Grid points                               974 per atom

          ...................................................
          :                      SETUP                      :
          :.................................................:
          :  # basis functions                  44          :
          :  # atomic orbitals                  44          :
          :  # shells                           30          :
          :  # electrons                        44          :
          :  max. iterations                   250          :
          :  Hamiltonian                  GFN2-xTB          :
          :  restarted?                      false          :
          :  GBSA solvation                   true          :
          :  PC potential                    false          :
          :  electronic temp.          300.0000000     K    :
          :  accuracy                    1.0000000          :
          :  -> integral cutoff          0.2500000E+02      :
          :  -> integral neglect         0.1000000E-07      :
          :  -> SCF convergence          0.1000000E-05 Eh   :
          :  -> wf. convergence          0.1000000E-03 e    :
          :  Broyden damping             0.4000000          :
          :  net charge                          0          :
          :  unpaired electrons                  0          :
          ...................................................

 iter      E             dE          RMSdq      gap      omega  full diag
   1    -23.4485036 -0.234485E+02  0.237E+00   12.65       0.0  T
   2    -23.4901024 -0.415988E-01  0.128E+00   12.48       1.0  T
   3    -23.4912871 -0.118464E-02  0.618E-01   12.46       1.0  T
   4    -23.4914330 -0.145911E-03  0.101E-01   12.48       1.0  T
   5    -23.4914694 -0.364670E-04  0.524E-02   12.48       1.0  T
   6    -23.4914698 -0.359017E-06  0.323E-03   12.48       6.4  T
   7    -23.4914699 -0.101421E-06  0.109E-03   12.48      19.1  T
   8    -23.4914699 -0.101535E-08  0.491E-04   12.48      42.5  T
   9    -23.4914699 -0.413404E-09  0.115E-04   12.48     180.8  T

   *** convergence criteria satisfied after 9 iterations ***

         #    Occupation            Energy/Eh            Energy/eV
      -------------------------------------------------------------
         1        2.0000           -0.6219096             -16.9230
       ...           ...                  ...                  ...
        16        2.0000           -0.4499769             -12.2445
        17        2.0000           -0.4416614             -12.0182
        18        2.0000           -0.4296777             -11.6921
        19        2.0000           -0.4283947             -11.6572
        20        2.0000           -0.4207645             -11.4496
        21        2.0000           -0.4146349             -11.2828
        22        2.0000           -0.4107585             -11.1773 (HOMO)
        23                          0.0477618               1.2997 (LUMO)
        24                          0.0902130               2.4548
        25                          0.1016736               2.7667
        26                          0.1084568               2.9513
        27                          0.1222948               3.3278
       ...                                ...                  ...
        44                          0.3193919               8.6911
      -------------------------------------------------------------
                  HL-Gap            0.4585203 Eh           12.4770 eV
             Fermi-level           -0.1814983 Eh           -4.9388 eV

 SCC (total)                   0 d,  0 h,  0 min,  0.055 sec
 SCC setup                      ...        0 min,  0.002 sec (  3.171%)
 Dispersion                     ...        0 min,  0.000 sec (  0.284%)
 classical contributions        ...        0 min,  0.000 sec (  0.080%)
 integral evaluation            ...        0 min,  0.002 sec (  2.973%)
 iterations                     ...        0 min,  0.044 sec ( 79.715%)
 molecular gradient             ...        0 min,  0.007 sec ( 13.481%)
 printout                       ...        0 min,  0.000 sec (  0.247%)

         :::::::::::::::::::::::::::::::::::::::::::::::::::::
         ::                     SUMMARY                     ::
         :::::::::::::::::::::::::::::::::::::::::::::::::::::
         :: total energy             -23.155784300783 Eh    ::
         :: total w/o Gsasa/hb       -23.155419677879 Eh    ::
         :: gradient norm              0.023663424760 Eh/a0 ::
         :: HOMO-LUMO gap             12.476972062065 eV    ::
         ::.................................................::
         :: SCC energy               -23.491433927728 Eh    ::
         :: -> isotropic ES            0.005181595915 Eh    ::
         :: -> anisotropic ES          0.008206115614 Eh    ::
         :: -> anisotropic XC          0.014837690012 Eh    ::
         :: -> dispersion             -0.013697671697 Eh    ::
         :: -> Gsolv                  -0.000511932861 Eh    ::
         ::    -> Gelec               -0.000147309957 Eh    ::
         ::    -> Gsasa               -0.000956634386 Eh    ::
         ::    -> Ghb                 -0.000488748216 Eh    ::
         ::    -> Gshift               0.001080759698 Eh    ::
         :: repulsion energy           0.335649626945 Eh    ::
         :: add. restraining           0.000000000000 Eh    ::
         :: total charge              -0.000000000000 e     ::
         :::::::::::::::::::::::::::::::::::::::::::::::::::::

metadynamics with 1 initial structures loaded
           -------------------------------------------------
          |           Optimal kpush determination           |
           -------------------------------------------------
      ----------------------------------------------------------- 
     |                   =====================                   |
     |                        A N C O P T                        |
     |                   =====================                   |
     |               Approximate Normal Coordinate               |
     |                Rational Function Optimizer                |
      ----------------------------------------------------------- 
target rmsd / Å         0.100000
unbiased initial rmsd   0.218536
 
iter. min.        max.        rmsd       kpush
      ----------------------------------------------------------- 
     |                   =====================                   |
     |                        A N C O P T                        |
     |                   =====================                   |
     |               Approximate Normal Coordinate               |
     |                Rational Function Optimizer                |
      ----------------------------------------------------------- 
 1    0.000000    1.045455    0.008378   -0.522727
      ----------------------------------------------------------- 
     |                   =====================                   |
     |                        A N C O P T                        |
     |                   =====================                   |
     |               Approximate Normal Coordinate               |
     |                Rational Function Optimizer                |
      ----------------------------------------------------------- 
 2    0.000000    0.522727    0.010663   -0.261364
      ----------------------------------------------------------- 
     |                   =====================                   |
     |                        A N C O P T                        |
     |                   =====================                   |
     |               Approximate Normal Coordinate               |
     |                Rational Function Optimizer                |
      ----------------------------------------------------------- 
 3    0.000000    0.261364    0.013127   -0.130682
      ----------------------------------------------------------- 
     |                   =====================                   |
     |                        A N C O P T                        |
     |                   =====================                   |
     |               Approximate Normal Coordinate               |
     |                Rational Function Optimizer                |
      ----------------------------------------------------------- 
 4    0.000000    0.130682    0.015889   -0.065341
      ----------------------------------------------------------- 
     |                   =====================                   |
     |                        A N C O P T                        |
     |                   =====================                   |
     |               Approximate Normal Coordinate               |
     |                Rational Function Optimizer                |
      ----------------------------------------------------------- 
 5    0.000000    0.065341    0.020282   -0.032670
      ----------------------------------------------------------- 
     |                   =====================                   |
     |                        A N C O P T                        |
     |                   =====================                   |
     |               Approximate Normal Coordinate               |
     |                Rational Function Optimizer                |
      ----------------------------------------------------------- 
 6    0.000000    0.032670    0.029037   -0.016335
      ----------------------------------------------------------- 
     |                   =====================                   |
     |                        A N C O P T                        |
     |                   =====================                   |
     |               Approximate Normal Coordinate               |
     |                Rational Function Optimizer                |
      ----------------------------------------------------------- 
 7    0.000000    0.016335    0.048574   -0.008168
      ----------------------------------------------------------- 
     |                   =====================                   |
     |                        A N C O P T                        |
     |                   =====================                   |
     |               Approximate Normal Coordinate               |
     |                Rational Function Optimizer                |
      ----------------------------------------------------------- 
 8    0.000000    0.008168    0.103238   -0.004084
      ----------------------------------------------------------- 
     |                   =====================                   |
     |                        A N C O P T                        |
     |                   =====================                   |
     |               Approximate Normal Coordinate               |
     |                Rational Function Optimizer                |
      ----------------------------------------------------------- 
 9    0.004084    0.008168    0.066392   -0.006126
      ----------------------------------------------------------- 
     |                   =====================                   |
     |                        A N C O P T                        |
     |                   =====================                   |
     |               Approximate Normal Coordinate               |
     |                Rational Function Optimizer                |
      ----------------------------------------------------------- 
10    0.004084    0.006126    0.082198   -0.005105
final kpush: -0.005105
           -------------------------------------------------
          |            Biased Numerical Hessian             |
           -------------------------------------------------
kpush                :  -0.00510
alpha                :   1.00000
step length          :   0.00500
SCC accuracy         :   0.30000
Hessian scale factor :   1.00000
frozen atoms in %    :   0.00000    0
RMS gradient         :   0.00011
estimated CPU  time      0.02 min
estimated wall time      0.02 min

writing file <hessian>.

 projected vibrational frequencies (cm⁻¹)
eigval :       -0.00    -0.00     0.00     0.00     0.00     0.00
eigval :      -40.14    86.71    89.01   202.91   225.66   233.17
eigval :      242.45   286.24   318.06   391.17   420.84   510.07
eigval :      760.63   828.47   890.34   910.46   936.81   946.63
eigval :      977.67   985.80  1077.92  1082.23  1098.13  1107.17
eigval :     1161.76  1171.18  1192.09  1238.65  1243.95  1284.05
eigval :     1295.50  1311.91  1338.37  1359.36  1372.53  1405.77
eigval :     1411.18  1419.18  1484.27  1492.87  1497.44  1499.38
eigval :     1500.12  1501.00  1503.29  1507.69  1510.44  2913.01
eigval :     2952.46  2960.12  2964.92  2978.88  2981.46  2983.63
eigval :     3020.78  3021.96  3022.23  3024.37  3025.78  3028.10
eigval :     3035.91  3036.52  3044.80
           -------------------------------------------------
          |                Property Printout                |
           -------------------------------------------------

    * Orbital Energies and Occupations

         #    Occupation            Energy/Eh            Energy/eV
      -------------------------------------------------------------
         1        2.0000           -0.6227562             -16.9461
       ...           ...                  ...                  ...
        10        2.0000           -0.4950222             -13.4702
        11        2.0000           -0.4882538             -13.2861
        12        2.0000           -0.4821571             -13.1202
        13        2.0000           -0.4657204             -12.6729
        14        2.0000           -0.4565273             -12.4227
        15        2.0000           -0.4548915             -12.3782
        16        2.0000           -0.4504632             -12.2577
        17        2.0000           -0.4413587             -12.0100
        18        2.0000           -0.4295601             -11.6889
        19        2.0000           -0.4283461             -11.6559
        20        2.0000           -0.4199182             -11.4266
        21        2.0000           -0.4148748             -11.2893
        22        2.0000           -0.4106389             -11.1741 (HOMO)
        23                          0.0584685               1.5910 (LUMO)
        24                          0.0960469               2.6136
        25                          0.1051358               2.8609
        26                          0.1168292               3.1791
        27                          0.1266097               3.4452
        28                          0.1426811               3.8826
        29                          0.1448361               3.9412
        30                          0.1609220               4.3789
        31                          0.1667271               4.5369
        32                          0.1753550               4.7717
        33                          0.1927680               5.2455
       ...                                ...                  ...
        44                          0.3315147               9.0210
      -------------------------------------------------------------
                  HL-Gap            0.4691074 Eh           12.7651 eV
             Fermi-level           -0.1760852 Eh           -4.7915 eV

     #   Z          covCN         q      C6AA      α(0)
     1   6 C        3.752    -0.111    22.674     6.790
     2   6 C        3.800    -0.057    21.603     6.618
     3   6 C        3.801    -0.063    21.706     6.633
     4   6 C        3.804    -0.069    21.815     6.649
     5   6 C        3.849    -0.013    20.772     6.483
     6   6 C        3.757    -0.114    22.732     6.798
     7   6 C        3.756    -0.111    22.676     6.790
     8   1 H        0.925     0.035     2.520     2.482
     9   1 H        0.925     0.035     2.521     2.483
    10   1 H        0.925     0.037     2.495     2.470
    11   1 H        0.924     0.033     2.540     2.492
    12   1 H        0.924     0.029     2.604     2.524
    13   1 H        0.924     0.033     2.538     2.491
    14   1 H        0.924     0.029     2.608     2.525
    15   1 H        0.924     0.030     2.584     2.514
    16   1 H        0.924     0.035     2.511     2.478
    17   1 H        0.924     0.025     2.653     2.547
    18   1 H        0.925     0.037     2.483     2.464
    19   1 H        0.925     0.034     2.537     2.491
    20   1 H        0.925     0.037     2.491     2.468
    21   1 H        0.925     0.034     2.529     2.487
    22   1 H        0.925     0.038     2.473     2.459
    23   1 H        0.925     0.036     2.506     2.475

 Mol. C6AA /au·bohr⁶  :       3389.461092
 Mol. C8AA /au·bohr⁸  :      70100.818084
 Mol. α(0) /au        :         86.612292


Wiberg/Mayer (AO) data.
largest (>0.10) Wiberg bond orders for each atom

 ---------------------------------------------------------------------------
     #   Z sym  total        # sym  WBO       # sym  WBO       # sym  WBO
 ---------------------------------------------------------------------------
     1   6 C    3.996 --     2 C    1.019     9 H    0.988     8 H    0.988
                            10 H    0.987
     2   6 C    3.997 --     1 C    1.019     3 C    1.010    12 H    0.979
                            11 H    0.978
     3   6 C    3.997 --     2 C    1.010     4 C    1.001    14 H    0.981
                            13 H    0.975
     4   6 C    3.996 --     3 C    1.001     5 C    0.998    15 H    0.979
                            16 H    0.976
     5   6 C    3.996 --     7 C    1.010     6 C    1.008     4 C    0.998
                            17 H    0.969
     6   6 C    3.996 --     5 C    1.008    20 H    0.987    19 H    0.987
                            18 H    0.986
     7   6 C    3.997 --     5 C    1.010    23 H    0.987    21 H    0.986
                            22 H    0.984
     8   1 H    0.999 --     1 C    0.988
     9   1 H    0.999 --     1 C    0.988
    10   1 H    0.998 --     1 C    0.987
    11   1 H    0.999 --     2 C    0.978
    12   1 H    0.999 --     2 C    0.979
    13   1 H    0.999 --     3 C    0.975
    14   1 H    0.999 --     3 C    0.981
    15   1 H    0.999 --     4 C    0.979
    16   1 H    0.999 --     4 C    0.976
    17   1 H    0.999 --     5 C    0.969
    18   1 H    0.998 --     6 C    0.986
    19   1 H    0.999 --     6 C    0.987
    20   1 H    0.999 --     6 C    0.987
    21   1 H    0.999 --     7 C    0.986
    22   1 H    0.999 --     7 C    0.984
    23   1 H    0.999 --     7 C    0.987
 ---------------------------------------------------------------------------

Topologies differ in total number of bonds
Writing topology from bond orders to xtbtopo.mol

molecular dipole:
                 x           y           z       tot (Debye)
 q only:       -0.010      -0.035      -0.012
   full:       -0.007      -0.026      -0.011       0.073
molecular quadrupole (traceless):
                xx          xy          yy          xz          yz          zz
 q only:        0.211      -0.157      -0.082       0.160      -0.058      -0.129
  q+dip:       -0.915       0.657       0.182      -0.444       0.184       0.734
   full:       -0.316       0.264       0.039      -0.147       0.056       0.278

           -------------------------------------------------
          |                Geometry Summary                 |
           -------------------------------------------------

      molecular mass/u    :      100.2022033
   center of mass at/Å    :       -0.0005949       0.0031038       0.0015857
  moments of inertia/u·Å² :        0.8808515E+02   0.4552058E+03   0.4989324E+03
rotational constants/cm⁻¹ :        0.1913788E+00   0.3703299E-01   0.3378741E-01

 * 22 selected distances

     #   Z          #   Z                                           value/Å
     1   6 C        2   6 C                                       1.5243722
     2   6 C        3   6 C                                       1.5282814
     3   6 C        4   6 C                                       1.5379428 (max)
     4   6 C        5   6 C                                       1.5335618
     5   6 C        6   6 C                                       1.5282553
     5   6 C        7   6 C                                       1.5267217
     1   6 C        8   1 H                                       1.0878848
     1   6 C        9   1 H                                       1.0878586
     1   6 C       10   1 H                                       1.0873141
     2   6 C       11   1 H                                       1.0917744
     2   6 C       12   1 H                                       1.0925946
     3   6 C       13   1 H                                       1.0918832
     3   6 C       14   1 H                                       1.0920115
     4   6 C       15   1 H                                       1.0917403
     4   6 C       16   1 H                                       1.0922205
     5   6 C       17   1 H                                       1.0963754
     6   6 C       18   1 H                                       1.0874248
     6   6 C       19   1 H                                       1.0876288
     6   6 C       20   1 H                                       1.0880310
     7   6 C       21   1 H                                       1.0878469
     7   6 C       22   1 H                                       1.0865415 (min)
     7   6 C       23   1 H                                       1.0880329

 * 2 distinct bonds (by element types)

   Z      Z             #   av. dist./Å        max./Å        min./Å
   1 H    6 C          16     1.0898227     1.0963754     1.0865415
   6 C    6 C           6     1.5298559     1.5379428     1.5243722

           -------------------------------------------------
          |               Frequency Printout                |
           -------------------------------------------------
 projected vibrational frequencies (cm⁻¹)
eigval :       -0.00    -0.00     0.00     0.00     0.00     0.00
eigval :      -40.14    86.71    89.01   202.91   225.66   233.17
eigval :      242.45   286.24   318.06   391.17   420.84   510.07
eigval :      760.63   828.47   890.34   910.46   936.81   946.63
eigval :      977.67   985.80  1077.92  1082.23  1098.13  1107.17
eigval :     1161.76  1171.18  1192.09  1238.65  1243.95  1284.05
eigval :     1295.50  1311.91  1338.37  1359.36  1372.53  1405.77
eigval :     1411.18  1419.18  1484.27  1492.87  1497.44  1499.38
eigval :     1500.12  1501.00  1503.29  1507.69  1510.44  2913.01
eigval :     2952.46  2960.12  2964.92  2978.88  2981.46  2983.63
eigval :     3020.78  3021.96  3022.23  3024.37  3025.78  3028.10
eigval :     3035.91  3036.52  3044.80
 reduced masses (amu)
   1:  9.84   2:  9.90   3:  9.70   4:  9.64   5:  9.87   6:  8.20   7:  8.15   8:  7.67
   9:  7.04  10:  2.15  11:  4.15  12:  2.91  13:  4.11  14:  7.29  15:  8.70  16:  7.89
  17:  6.96  18:  8.58  19:  2.93  20:  5.25  21:  6.21  22:  3.82  23:  5.34  24:  2.78
  25:  5.61  26:  4.35  27:  7.70  28:  6.64  29:  5.28  30:  8.18  31:  7.14  32:  7.30
  33:  6.35  34:  3.93  35:  3.99  36:  2.42  37:  2.61  38:  3.70  39:  4.61  40:  4.65
  41:  4.94  42:  3.37  43:  3.17  44:  3.09  45:  1.87  46:  1.67  47:  1.63  48:  1.75
  49:  1.55  50:  1.64  51:  1.62  52:  1.67  53:  1.59  54:  1.74  55:  1.91  56:  1.94
  57:  1.95  58:  1.54  59:  1.50  60:  1.54  61:  1.93  62:  1.94  63:  1.95  64:  1.92
  65:  1.91  66:  1.73  67:  1.28  68:  1.28  69:  1.46
 IR intensities (km·mol⁻¹)
   1:  0.00   2:  0.00   3:  0.00   4:  0.00   5:  0.00   6:  0.00   7:  0.00   8:  0.02
   9:  0.02  10:  0.04  11:  0.15  12:  0.08  13:  0.09  14:  0.17  15:  0.00  16:  0.39
  17:  1.18  18:  0.77  19:  8.84  20:  2.70  21:  1.31  22:  0.43  23:  2.61  24:  2.27
  25:  2.09  26:  0.68  27:  3.29  28:  3.68  29:  1.93  30:  1.17  31:  4.49  32:  0.84
  33:  4.75  34:  1.62  35:  3.35  36:  1.02  37:  4.90  38:  2.13  39: 12.99  40:  2.97
  41:  0.15  42:  1.40  43:  0.36  44:  0.90  45:  1.60  46:  0.46  47:  0.22  48:  0.94
  49:  1.02  50:  0.37  51:  0.58  52:  0.97  53:  0.96  54: 95.29  55:  6.97  56: 48.52
  57:115.40  58: 56.39  59: 86.12  60:145.36  61: 24.28  62:112.82  63: 78.79  64: 91.20
  65: 95.43  66:102.59  67:112.59  68:  2.64  69: 39.32
 Raman intensities (Ä⁴*amu⁻¹)
   1:  0.00   2:  0.00   3:  0.00   4:  0.00   5:  0.00   6:  0.00   7:  0.00   8:  0.00
   9:  0.00  10:  0.00  11:  0.00  12:  0.00  13:  0.00  14:  0.00  15:  0.00  16:  0.00
  17:  0.00  18:  0.00  19:  0.00  20:  0.00  21:  0.00  22:  0.00  23:  0.00  24:  0.00
  25:  0.00  26:  0.00  27:  0.00  28:  0.00  29:  0.00  30:  0.00  31:  0.00  32:  0.00
  33:  0.00  34:  0.00  35:  0.00  36:  0.00  37:  0.00  38:  0.00  39:  0.00  40:  0.00
  41:  0.00  42:  0.00  43:  0.00  44:  0.00  45:  0.00  46:  0.00  47:  0.00  48:  0.00
  49:  0.00  50:  0.00  51:  0.00  52:  0.00  53:  0.00  54:  0.00  55:  0.00  56:  0.00
  57:  0.00  58:  0.00  59:  0.00  60:  0.00  61:  0.00  62:  0.00  63:  0.00  64:  0.00
  65:  0.00  66:  0.00  67:  0.00  68:  0.00  69:  0.00
 output can be read by thermo (or use thermo option).
 writing <g98.out> molden fake output.
 recommended (thermochemical) frequency scaling factor: 1.0
           -------------------------------------------------
          |             Thermodynamic Functions             |
           -------------------------------------------------

Molecule has no symmetry elements
It seems to be the C1 point group
c1  symmetry found (for desy threshold:  0.10E+00) used in thermo
 inverting freq            1   40.1438953702367     

          ...................................................
          :                      SETUP                      :
          :.................................................:
          :  # frequencies                          63      :
          :  # imaginary freq.                       0      :
          :  linear?                             false      :
          :  only rotor calc.                    false      :
          :  symmetry                               c1      :
          :  rotational number                       1      :
          :  scaling factor                  1.0000000      :
          :  rotor cutoff                    0.0000000 cm⁻¹ :
          :  imag. cutoff                 -100.0000000 cm⁻¹ :
          :.................................................:

    mode    ω/cm⁻¹     T·S(HO)/kcal·mol⁻¹    T·S(FR)/kcal·mol⁻¹   T·S(vib)
   ------------------------------------------------------------------------
       1     40.14    -1.56587 (100.00%)    -1.12123 (  0.00%)    -1.56587
       2     86.71    -1.11297 (100.00%)    -0.89328 (  0.00%)    -1.11297
       3     89.01    -1.09772 (100.00%)    -0.88555 (  0.00%)    -1.09772
       4    202.91    -0.62807 (100.00%)    -0.64152 (  0.00%)    -0.62807
       5    225.66    -0.57043 (100.00%)    -0.61005 (  0.00%)    -0.57043
       6    233.17    -0.55288 (100.00%)    -0.60035 (  0.00%)    -0.55288
       7    242.45    -0.53214 (100.00%)    -0.58879 (  0.00%)    -0.53214
       8    286.24    -0.44606 (100.00%)    -0.53962 (  0.00%)    -0.44606
   ------------------------------------------------------------------------

   temp. (K)  partition function   enthalpy   heat capacity  entropy
                                   cal/mol     cal/K/mol   cal/K/mol   J/K/mol
 298.15  VIB   734.                 4312.063     28.564     27.576
         ROT  0.342E+06              888.752      2.981     28.302
         INT  0.251E+09             5200.815     31.545     55.878
         TR   0.970E+27             1481.254      4.968     39.706
         TOT                        6682.0694    36.5128    95.5841   399.9238

       T/K    H(0)-H(T)+PV         H(T)/Eh          T*S/Eh         G(T)/Eh
   ------------------------------------------------------------------------
    298.15    0.106486E-01    0.225584E+00    0.454151E-01    0.180169E+00
   ------------------------------------------------------------------------

         :::::::::::::::::::::::::::::::::::::::::::::::::::::
         ::                  THERMODYNAMIC                  ::
         :::::::::::::::::::::::::::::::::::::::::::::::::::::
         :: total free energy         -22.981700580186 Eh   ::
         ::.................................................::
         :: total energy              -23.161869192610 Eh   ::
         :: zero point energy           0.214935135610 Eh   ::
         :: G(RRHO) w/o ZPVE           -0.034766523186 Eh   ::
         :: G(RRHO) contrib.            0.180168612423 Eh   ::
         :::::::::::::::::::::::::::::::::::::::::::::::::::::
imag cut-off (cm-1) :    5.00
 found            1  significant imaginary frequency
 writing imag mode distorted coords to xtbhess.coord
 for further optimization.

optimized geometry written to: xtbopt.coord


           -------------------------------------------------
          | TOTAL ENERGY              -23.161869192610 Eh   |
          | TOTAL ENTHALPY            -22.936285501588 Eh   |
          | TOTAL FREE ENERGY         -22.981700580186 Eh   |
          | GRADIENT NORM               0.000109573708 Eh/α |
          | HOMO-LUMO GAP              12.765061551910 eV   |
           -------------------------------------------------

------------------------------------------------------------------------
 * finished run on 2025/04/11 at 14:20:55.154     
------------------------------------------------------------------------
 total:
 * wall-time:     0 d,  0 h,  0 min,  3.162 sec
 *  cpu-time:     0 d,  0 h,  0 min,  3.074 sec
 * ratio c/w:     0.972 speedup
 SCF:
 * wall-time:     0 d,  0 h,  0 min,  0.055 sec
 *  cpu-time:     0 d,  0 h,  0 min,  0.026 sec
 * ratio c/w:     0.472 speedup
 analytical hessian:
 * wall-time:     0 d,  0 h,  0 min,  1.150 sec
 *  cpu-time:     0 d,  0 h,  0 min,  1.148 sec
 * ratio c/w:     0.999 speedup

