 Entering Gaussian System
 *********************************************
 Gaussian 98:
 frequency output generated by the xtb code
 *********************************************
                         Standard orientation:
 --------------------------------------------------------------------
  Center     Atomic     Atomic              Coordinates (Angstroms)
  Number     Number      Type              X           Y           Z
 --------------------------------------------------------------------
    1          6             0       -2.645840   -0.863041    0.015664
    2          6             0       -2.120601    0.442905   -0.570382
    3          6             0       -1.155588    1.179165    0.361559
    4          6             0        0.126806    0.416923    0.697495
    5          6             0        0.998251    0.146016   -0.534213
    6          6             0        2.260267   -0.455705   -0.155887
    7          6             0        3.294849   -0.953895    0.182357
    8          1             0       -3.092186   -0.688684    0.992367
    9          1             0       -1.848323   -1.593068    0.127270
   10          1             0       -3.404232   -1.289687   -0.636727
   11          1             0       -1.635537    0.243503   -1.527375
   12          1             0       -2.967013    1.104835   -0.769385
   13          1             0       -1.676049    1.401231    1.296497
   14          1             0       -0.887028    2.133302   -0.099369
   15          1             0       -0.114753   -0.529223    1.184174
   16          1             0        0.705524    1.010076    1.410126
   17          1             0        1.197562    1.084681   -1.058859
   18          1             0        0.484727   -0.530353   -1.221326
   19          1             0        4.205580   -1.389566    0.465780
 --------------------------------------------------------------------
     1 basis functions        1 primitive gaussians
     1 alpha electrons        1 beta electrons
 
 Harmonic frequencies (cm**-1), IR intensities (km*mol⁻¹),
 Raman scattering activities (A**4/amu), Raman depolarization ratios,
 reduced masses (AMU), force constants (mDyne/A) and normal coordinates:
                      1                      2                      3
                        a                      a                      a 
 Frequencies --    48.0225                57.0031               126.8753
 Red. masses --     9.1052                 8.0036                 7.8817
 Frc consts  --     0.0000                 0.0000                 0.0000
 IR Inten    --     0.0529                 0.1746                 0.0217
 Raman Activ --     0.0000                 0.0000                 0.0000
 Depolar     --     0.0000                 0.0000                 0.0000
 Atom AN      X      Y      Z        X      Y      Z        X      Y      Z
   1   6    -0.49   0.26   0.06     0.26  -0.00  -0.21     0.07  -0.02   0.05
   2   6    -0.00   0.03  -0.04     0.02   0.20   0.04    -0.19   0.14   0.18
   3   6     0.08  -0.15   0.01     0.03   0.11   0.10     0.09  -0.04   0.02
   4   6    -0.01  -0.32  -0.02    -0.01   0.03   0.09     0.06  -0.22  -0.28
   5   6     0.04  -0.21  -0.01    -0.30  -0.50   0.01     0.07   0.02  -0.32
   6   6     0.16   0.06   0.00    -0.11  -0.11  -0.00     0.02   0.02  -0.15
   7   6     0.30   0.35   0.01     0.08   0.28  -0.01    -0.14   0.10   0.47
   8   1    -0.19   0.16  -0.02     0.11  -0.09  -0.03     0.21  -0.10   0.12
   9   1    -0.21   0.02   0.10     0.10   0.02  -0.15     0.02  -0.04  -0.22
  10   1    -0.13   0.10  -0.01     0.06   0.02  -0.06    -0.12   0.08   0.12
  11   1     0.02  -0.07   0.02    -0.02   0.14  -0.02    -0.15   0.11  -0.01
  12   1     0.06   0.07  -0.07    -0.02   0.04   0.08    -0.08   0.05   0.18
  13   1     0.03  -0.04   0.00     0.01   0.03   0.03     0.09  -0.02   0.04
  14   1     0.06  -0.05   0.02     0.03   0.03   0.04     0.03  -0.01   0.01
  15   1    -0.03  -0.11  -0.05    -0.02   0.06   0.13     0.00  -0.09  -0.15
  16   1    -0.00  -0.14   0.03     0.06   0.05  -0.06     0.04  -0.13  -0.04
  17   1    -0.04  -0.06  -0.01    -0.16  -0.22  -0.15     0.03   0.03  -0.05
  18   1     0.05  -0.10   0.00    -0.11  -0.27   0.14     0.04   0.03  -0.14
  19   1     0.12   0.17   0.01     0.07   0.17  -0.01    -0.06   0.04   0.23
                      4                      5                      6
                        a                      a                      a 
 Frequencies --   167.6309               246.0721               258.6690
 Red. masses --     6.0343                 8.2977                 4.7220
 Frc consts  --     0.0000                 0.0000                 0.0000
 IR Inten    --     0.0274                 0.1144                 0.0357
 Raman Activ --     0.0000                 0.0000                 0.0000
 Depolar     --     0.0000                 0.0000                 0.0000
 Atom AN      X      Y      Z        X      Y      Z        X      Y      Z
   1   6     0.07  -0.00   0.05     0.23   0.13   0.15     0.28   0.03   0.12
   2   6    -0.19   0.06  -0.06     0.42  -0.11  -0.21    -0.12   0.15   0.04
   3   6    -0.02   0.10  -0.26     0.11  -0.01   0.01     0.04   0.12  -0.12
   4   6    -0.23  -0.12   0.06    -0.12  -0.25   0.15    -0.21  -0.29  -0.07
   5   6     0.08   0.00   0.25    -0.23   0.06   0.02    -0.00   0.02   0.02
   6   6     0.06  -0.05   0.25    -0.20   0.08  -0.19    -0.09  -0.14   0.04
   7   6     0.24  -0.02  -0.26    -0.26   0.12   0.04     0.05   0.11  -0.02
   8   1     0.34  -0.06   0.17     0.21   0.12   0.10    -0.23   0.04  -0.11
   9   1    -0.00  -0.08  -0.31     0.00  -0.04  -0.03     0.20   0.19   0.35
  10   1    -0.22   0.12   0.21    -0.07   0.09   0.16     0.36  -0.24  -0.12
  11   1    -0.12   0.03  -0.06     0.21  -0.13   0.01    -0.08   0.07  -0.02
  12   1    -0.08   0.01   0.06     0.15  -0.04  -0.20    -0.08   0.00   0.07
  13   1    -0.00   0.14  -0.10    -0.04   0.01  -0.04     0.04   0.12  -0.04
  14   1     0.07  -0.03  -0.15     0.10  -0.01   0.02     0.09  -0.01  -0.08
  15   1    -0.15  -0.04  -0.04    -0.09  -0.10  -0.04    -0.15  -0.11  -0.13
  16   1    -0.11  -0.08   0.09    -0.02  -0.16   0.10    -0.07  -0.20   0.08
  17   1     0.05   0.02   0.12    -0.10   0.06   0.06     0.05   0.05   0.11
  18   1     0.05   0.04   0.01    -0.07   0.05  -0.03     0.02   0.09  -0.09
  19   1     0.09  -0.01  -0.13    -0.07   0.04   0.01     0.02   0.03  -0.01
                      7                      8                      9
                        a                      a                      a 
 Frequencies --   303.7671               362.5589               424.7267
 Red. masses --    10.0978                 7.5316                 9.7281
 Frc consts  --     0.0000                 0.0000                 0.0000
 IR Inten    --     0.0299                 2.1433                 0.1385
 Raman Activ --     0.0000                 0.0000                 0.0000
 Depolar     --     0.0000                 0.0000                 0.0000
 Atom AN      X      Y      Z        X      Y      Z        X      Y      Z
   1   6    -0.07  -0.03  -0.03    -0.20  -0.19  -0.15    -0.10  -0.16  -0.07
   2   6     0.05  -0.06   0.00    -0.01  -0.08   0.20     0.23  -0.10   0.26
   3   6    -0.02  -0.00   0.04     0.33   0.09  -0.22     0.18   0.20   0.05
   4   6     0.08   0.15   0.02     0.11  -0.01   0.30     0.02  -0.02  -0.22
   5   6     0.06   0.14   0.01    -0.08   0.06   0.17    -0.05   0.01  -0.22
   6   6    -0.31  -0.70  -0.08     0.03   0.05  -0.34    -0.28   0.09   0.54
   7   6     0.16   0.37   0.04    -0.13   0.04   0.11    -0.06   0.04  -0.24
   8   1     0.02  -0.01   0.01    -0.13  -0.13  -0.07    -0.08  -0.11  -0.03
   9   1    -0.05  -0.05  -0.05    -0.08  -0.08  -0.04    -0.10  -0.13  -0.05
  10   1    -0.06   0.04   0.01    -0.01   0.02  -0.15    -0.02   0.08  -0.11
  11   1     0.03  -0.03   0.01    -0.09  -0.01   0.01     0.11  -0.05   0.10
  12   1     0.03  -0.01  -0.03     0.00   0.01   0.13     0.07  -0.04   0.00
  13   1    -0.01  -0.03   0.02     0.11   0.31  -0.12     0.11   0.14   0.02
  14   1    -0.04   0.02   0.02     0.20  -0.11  -0.29     0.05   0.01  -0.08
  15   1     0.05   0.04   0.01    -0.01   0.01   0.09    -0.06  -0.03  -0.14
  16   1     0.02   0.06  -0.01     0.03  -0.00   0.09     0.07  -0.11  -0.03
  17   1     0.22   0.07   0.13    -0.07   0.04   0.07     0.04  -0.01  -0.07
  18   1    -0.08   0.23  -0.11    -0.09   0.05   0.06     0.05  -0.03  -0.08
  19   1     0.03   0.06   0.01    -0.02   0.01  -0.02    -0.06   0.03   0.07
                     10                     11                     12
                        a                      a                      a 
 Frequencies --   489.5773               636.9878               657.7299
 Red. masses --     8.8490                 2.3231                 2.7820
 Frc consts  --     0.0000                 0.0000                 0.0000
 IR Inten    --     1.8463                29.2081                22.7535
 Raman Activ --     0.0000                 0.0000                 0.0000
 Depolar     --     0.0000                 0.0000                 0.0000
 Atom AN      X      Y      Z        X      Y      Z        X      Y      Z
   1   6    -0.04  -0.12  -0.01    -0.00   0.00  -0.00     0.00   0.01   0.00
   2   6     0.14  -0.06   0.18     0.01  -0.00  -0.00     0.03  -0.00   0.02
   3   6    -0.23   0.44   0.15    -0.00   0.00   0.00     0.07  -0.06  -0.02
   4   6    -0.30   0.08  -0.13     0.01   0.02   0.00     0.04  -0.00  -0.12
   5   6     0.07  -0.09   0.02    -0.01  -0.02  -0.00    -0.01   0.00  -0.00
   6   6     0.28  -0.09  -0.32     0.01   0.02  -0.00    -0.09   0.03   0.11
   7   6     0.14  -0.09   0.17    -0.14  -0.31  -0.03    -0.16   0.04   0.29
   8   1    -0.04  -0.09  -0.01     0.00   0.00  -0.00    -0.00   0.01  -0.00
   9   1    -0.06  -0.10  -0.04    -0.00  -0.00  -0.00    -0.01  -0.01   0.01
  10   1    -0.01   0.06  -0.06    -0.00   0.00   0.00     0.00   0.01  -0.01
  11   1     0.20  -0.07   0.14     0.00  -0.00  -0.00    -0.02   0.01  -0.01
  12   1     0.03  -0.09  -0.14     0.00  -0.00  -0.00     0.01   0.01   0.04
  13   1    -0.04   0.11   0.06    -0.00  -0.00   0.00     0.03  -0.04   0.01
  14   1    -0.11   0.13   0.02    -0.01   0.00   0.00     0.00  -0.00   0.01
  15   1    -0.23   0.01  -0.14     0.01   0.02   0.03     0.03  -0.00  -0.03
  16   1    -0.06  -0.12   0.06     0.02   0.03  -0.03     0.02   0.00  -0.04
  17   1     0.01  -0.03  -0.01     0.11   0.04   0.12     0.04  -0.02  -0.01
  18   1     0.04  -0.04  -0.00    -0.04   0.13  -0.10     0.04  -0.02  -0.02
  19   1     0.09  -0.02  -0.08     0.37   0.82   0.07     0.23  -0.03  -0.88
                     13                     14                     15
                        a                      a                      a 
 Frequencies --   758.1529               814.1264               874.2190
 Red. masses --     2.6663                 3.4130                 4.8428
 Frc consts  --     0.0000                 0.0000                 0.0000
 IR Inten    --    16.0054                 7.1349                 0.6089
 Raman Activ --     0.0000                 0.0000                 0.0000
 Depolar     --     0.0000                 0.0000                 0.0000
 Atom AN      X      Y      Z        X      Y      Z        X      Y      Z
   1   6    -0.01  -0.08   0.03    -0.08   0.01  -0.01    -0.15  -0.13   0.11
   2   6     0.11  -0.08  -0.10    -0.27   0.08  -0.06    -0.13   0.09  -0.10
   3   6     0.15   0.07  -0.12    -0.03  -0.01   0.09     0.27   0.22  -0.17
   4   6     0.09   0.18   0.00     0.21   0.03   0.11     0.15  -0.02  -0.04
   5   6     0.04   0.10   0.11     0.12   0.19  -0.04    -0.05  -0.20   0.17
   6   6    -0.05  -0.05  -0.02    -0.07  -0.09   0.02    -0.02   0.10  -0.02
   7   6    -0.04  -0.01  -0.02    -0.04  -0.01  -0.00    -0.07   0.05  -0.03
   8   1    -0.04   0.13  -0.03     0.05  -0.19   0.06    -0.04  -0.28   0.07
   9   1    -0.12  -0.14   0.12     0.19   0.20  -0.13     0.11   0.10  -0.12
  10   1    -0.04   0.04   0.01     0.04  -0.18   0.04     0.04  -0.11  -0.02
  11   1    -0.22   0.13  -0.19     0.15  -0.20   0.14    -0.04  -0.24   0.02
  12   1    -0.06  -0.04   0.29     0.05   0.08  -0.35     0.05   0.08  -0.18
  13   1    -0.04  -0.27  -0.00     0.03   0.13   0.01     0.06  -0.34   0.05
  14   1    -0.13   0.16   0.17     0.06  -0.07  -0.07    -0.09   0.25   0.27
  15   1    -0.19  -0.07  -0.32     0.07  -0.13  -0.24    -0.16   0.08   0.06
  16   1    -0.05  -0.23   0.29    -0.03  -0.16   0.23     0.12  -0.06  -0.03
  17   1    -0.02  -0.10  -0.21    -0.01  -0.11  -0.31     0.01   0.06   0.25
  18   1    -0.13  -0.10   0.26    -0.08  -0.14   0.25     0.02   0.09  -0.12
  19   1     0.02   0.09   0.03     0.05   0.10  -0.03    -0.06  -0.05   0.01
                     16                     17                     18
                        a                      a                      a 
 Frequencies --   889.4675               984.8312              1010.4611
 Red. masses --     7.1489                 7.1868                 7.3694
 Frc consts  --     0.0000                 0.0000                 0.0000
 IR Inten    --     1.3834                 1.4315                 4.7692
 Raman Activ --     0.0000                 0.0000                 0.0000
 Depolar     --     0.0000                 0.0000                 0.0000
 Atom AN      X      Y      Z        X      Y      Z        X      Y      Z
   1   6    -0.11  -0.26  -0.08     0.03   0.08   0.15     0.15   0.32  -0.08
   2   6    -0.14  -0.02  -0.34     0.05  -0.02  -0.05    -0.11  -0.23   0.12
   3   6    -0.01   0.34   0.27    -0.06   0.07  -0.07    -0.24  -0.04  -0.02
   4   6     0.21  -0.06   0.21    -0.03  -0.02   0.34     0.29   0.10   0.18
   5   6    -0.03  -0.09  -0.21    -0.22   0.13  -0.46     0.15  -0.33  -0.03
   6   6     0.03   0.04   0.07     0.13  -0.07   0.14    -0.05   0.14  -0.02
   7   6     0.03  -0.01   0.02     0.24  -0.11   0.09    -0.15   0.08  -0.05
   8   1     0.09   0.25  -0.02    -0.11  -0.24   0.03    -0.01   0.03  -0.04
   9   1    -0.05  -0.06   0.15    -0.01  -0.02  -0.10     0.01   0.05  -0.06
  10   1    -0.14  -0.24   0.22     0.09   0.18  -0.17     0.06   0.18  -0.10
  11   1    -0.00   0.18  -0.11    -0.20  -0.18  -0.08    -0.05  -0.08   0.03
  12   1    -0.12  -0.09  -0.02     0.01   0.02   0.06    -0.06  -0.10   0.02
  13   1    -0.04   0.19   0.02    -0.28  -0.05  -0.15    -0.08   0.05  -0.03
  14   1     0.07   0.05   0.02     0.06   0.05   0.10    -0.26  -0.04  -0.18
  15   1     0.01  -0.02   0.04     0.02  -0.03   0.05    -0.13  -0.01  -0.11
  16   1     0.22  -0.13   0.01     0.06  -0.04   0.06     0.16  -0.21   0.17
  17   1     0.03   0.04   0.06    -0.11   0.06  -0.09     0.23  -0.04   0.14
  18   1     0.01   0.06  -0.14    -0.11   0.07  -0.11     0.03   0.07  -0.14
  19   1     0.01  -0.04  -0.05     0.10  -0.04  -0.05    -0.07  -0.04  -0.03
                     19                     20                     21
                        a                      a                      a 
 Frequencies --  1015.0627              1055.1901              1100.6665
 Red. masses --     6.0244                 6.5603                 5.1797
 Frc consts  --     0.0000                 0.0000                 0.0000
 IR Inten    --     6.4150                 2.2461                 0.7932
 Raman Activ --     0.0000                 0.0000                 0.0000
 Depolar     --     0.0000                 0.0000                 0.0000
 Atom AN      X      Y      Z        X      Y      Z        X      Y      Z
   1   6    -0.13   0.08  -0.16    -0.19  -0.10   0.06     0.04  -0.19   0.19
   2   6     0.09  -0.13   0.09     0.25   0.07  -0.04     0.02   0.29  -0.14
   3   6     0.14  -0.21   0.08     0.01  -0.05   0.07    -0.04  -0.17   0.05
   4   6    -0.09   0.28  -0.08    -0.28   0.12   0.19     0.03   0.18  -0.10
   5   6    -0.36  -0.01  -0.08     0.38  -0.17  -0.15    -0.19  -0.23   0.05
   6   6     0.14   0.01   0.06    -0.09   0.06  -0.07     0.09   0.16   0.01
   7   6     0.19  -0.08   0.07    -0.18   0.09  -0.06     0.03   0.01   0.01
   8   1     0.13   0.08   0.03     0.02  -0.13   0.06    -0.09  -0.11   0.01
   9   1     0.18   0.25  -0.03     0.11   0.13  -0.04    -0.11  -0.18   0.04
  10   1    -0.03  -0.28   0.16     0.00  -0.19   0.07     0.01   0.11  -0.06
  11   1    -0.00   0.02   0.00    -0.10   0.03  -0.09     0.07   0.09  -0.01
  12   1     0.19   0.20   0.11     0.18   0.23   0.19    -0.00   0.04  -0.11
  13   1     0.09   0.01   0.03    -0.22   0.04  -0.11    -0.02   0.08  -0.02
  14   1    -0.14  -0.09  -0.15     0.10  -0.03   0.03     0.20  -0.10   0.01
  15   1    -0.23   0.07  -0.13    -0.07   0.04   0.06     0.14  -0.09  -0.22
  16   1     0.05  -0.11   0.07    -0.11   0.05   0.06    -0.13   0.01   0.11
  17   1    -0.04   0.06   0.10     0.27  -0.11  -0.09     0.39  -0.11   0.07
  18   1    -0.17   0.14  -0.10     0.22  -0.08  -0.09    -0.35   0.23  -0.03
  19   1     0.04  -0.07   0.01    -0.06   0.02  -0.01    -0.03  -0.09   0.01
                     22                     23                     24
                        a                      a                      a 
 Frequencies --  1128.3863              1148.3570              1164.0674
 Red. masses --     6.5063                 7.3409                 5.2044
 Frc consts  --     0.0000                 0.0000                 0.0000
 IR Inten    --     1.0061                 0.2443                 1.7433
 Raman Activ --     0.0000                 0.0000                 0.0000
 Depolar     --     0.0000                 0.0000                 0.0000
 Atom AN      X      Y      Z        X      Y      Z        X      Y      Z
   1   6     0.08  -0.13  -0.07     0.12   0.19  -0.11    -0.10   0.09  -0.21
   2   6    -0.14   0.20   0.19    -0.27  -0.31  -0.10     0.10  -0.16   0.28
   3   6     0.11  -0.15  -0.28     0.37   0.01   0.28    -0.08   0.28  -0.20
   4   6    -0.09   0.05   0.34    -0.31   0.15   0.01     0.02  -0.26   0.02
   5   6     0.10  -0.04  -0.35     0.03  -0.02  -0.06    -0.02  -0.05  -0.02
   6   6    -0.01   0.01   0.05     0.02   0.04  -0.02     0.04   0.08   0.02
   7   6     0.01  -0.00   0.01    -0.01   0.01  -0.00     0.01   0.01   0.00
   8   1     0.03   0.18  -0.05     0.00   0.09  -0.05     0.12   0.12  -0.00
   9   1    -0.08  -0.12   0.11    -0.01   0.00  -0.02     0.11   0.17   0.01
  10   1    -0.07  -0.00   0.07     0.01   0.10  -0.05    -0.05  -0.17   0.11
  11   1     0.27   0.12   0.19    -0.17  -0.27  -0.04    -0.03  -0.05   0.04
  12   1    -0.04  -0.04  -0.19    -0.13  -0.18  -0.06    -0.01  -0.08   0.06
  13   1     0.20  -0.19   0.07     0.18   0.01   0.12    -0.09  -0.11  -0.05
  14   1    -0.12   0.05   0.03     0.29  -0.01   0.17     0.01   0.15   0.14
  15   1    -0.22   0.08   0.12    -0.07   0.05   0.04     0.34  -0.14   0.02
  16   1    -0.21   0.08   0.18    -0.12   0.08   0.00    -0.21   0.14   0.00
  17   1     0.02   0.01  -0.05     0.20  -0.08  -0.09     0.25  -0.10  -0.06
  18   1    -0.03   0.02  -0.08    -0.03   0.03  -0.02    -0.34   0.15   0.09
  19   1     0.01  -0.01  -0.04    -0.01  -0.01   0.00    -0.01  -0.04  -0.01
                     25                     26                     27
                        a                      a                      a 
 Frequencies --  1231.7067              1254.7356              1268.1679
 Red. masses --     3.9524                 2.5977                 3.3402
 Frc consts  --     0.0000                 0.0000                 0.0000
 IR Inten    --     0.8543                 0.2452                 0.8319
 Raman Activ --     0.0000                 0.0000                 0.0000
 Depolar     --     0.0000                 0.0000                 0.0000
 Atom AN      X      Y      Z        X      Y      Z        X      Y      Z
   1   6    -0.13   0.10   0.20     0.15  -0.11  -0.05    -0.10   0.08   0.06
   2   6     0.14  -0.13  -0.27    -0.09   0.10   0.03     0.01  -0.04   0.02
   3   6    -0.03   0.06   0.10    -0.01  -0.01   0.05     0.06  -0.07  -0.15
   4   6     0.00  -0.19   0.02    -0.07  -0.21  -0.04    -0.11  -0.01   0.11
   5   6     0.15   0.02  -0.12     0.08   0.16   0.03    -0.27   0.20   0.12
   6   6    -0.00   0.04   0.04     0.02   0.04   0.00     0.04   0.01  -0.05
   7   6    -0.01   0.01   0.00    -0.00   0.00  -0.00     0.04  -0.02   0.01
   8   1    -0.07  -0.25   0.07    -0.01   0.13  -0.06    -0.01  -0.09   0.04
   9   1     0.07   0.10  -0.15    -0.08  -0.14   0.09     0.05   0.09  -0.07
  10   1     0.09   0.01  -0.09    -0.04   0.05   0.03     0.03  -0.03  -0.02
  11   1     0.05   0.28  -0.13    -0.13  -0.23   0.01     0.23   0.30   0.06
  12   1    -0.07  -0.12   0.08     0.21   0.30  -0.04    -0.17  -0.24  -0.01
  13   1     0.36   0.05   0.22    -0.08   0.01  -0.03    -0.02  -0.11  -0.04
  14   1    -0.24  -0.01  -0.16    -0.17  -0.01  -0.11     0.04   0.01   0.04
  15   1    -0.16   0.09   0.19    -0.25   0.13   0.24    -0.02   0.01   0.04
  16   1    -0.14   0.09   0.00     0.30  -0.09  -0.24     0.36  -0.15  -0.17
  17   1     0.04  -0.00  -0.04     0.26  -0.12  -0.19     0.43  -0.19  -0.23
  18   1    -0.31   0.10   0.15    -0.29   0.08   0.20     0.21  -0.08  -0.05
  19   1    -0.00  -0.01  -0.02    -0.01  -0.01  -0.00     0.00  -0.01   0.03
                     28                     29                     30
                        a                      a                      a 
 Frequencies --  1288.2443              1345.1046              1357.3360
 Red. masses --     2.6674                 4.5038                 4.8942
 Frc consts  --     0.0000                 0.0000                 0.0000
 IR Inten    --     0.5171                 6.8753                 5.2115
 Raman Activ --     0.0000                 0.0000                 0.0000
 Depolar     --     0.0000                 0.0000                 0.0000
 Atom AN      X      Y      Z        X      Y      Z        X      Y      Z
   1   6    -0.08   0.06  -0.03    -0.06   0.02  -0.10     0.04  -0.01   0.05
   2   6     0.03   0.01   0.12     0.26   0.36   0.04    -0.16  -0.23  -0.02
   3   6    -0.01  -0.14   0.01     0.01  -0.08   0.12    -0.05   0.08   0.05
   4   6     0.08   0.05  -0.17     0.20  -0.10  -0.06     0.37  -0.17  -0.14
   5   6     0.24  -0.04  -0.03    -0.17   0.08   0.03    -0.24   0.10   0.03
   6   6    -0.02   0.01   0.03     0.01  -0.01  -0.01     0.02  -0.01  -0.01
   7   6    -0.03   0.01  -0.01     0.02  -0.01   0.01     0.03  -0.01   0.01
   8   1     0.03  -0.03   0.02     0.03  -0.07   0.02    -0.03   0.07  -0.02
   9   1     0.04   0.08  -0.02    -0.04  -0.02   0.06     0.03   0.01  -0.05
  10   1     0.00  -0.07   0.02    -0.04  -0.16   0.11     0.02   0.09  -0.06
  11   1     0.11   0.13   0.06    -0.25  -0.34  -0.06     0.13   0.17   0.03
  12   1    -0.19  -0.27  -0.04    -0.28  -0.36  -0.05     0.17   0.24   0.06
  13   1    -0.34   0.02  -0.20    -0.05   0.04  -0.01    -0.16   0.05  -0.08
  14   1     0.37  -0.06   0.17    -0.15  -0.06  -0.15     0.16   0.02   0.10
  15   1    -0.36   0.18   0.09    -0.21   0.09   0.07    -0.33   0.15   0.12
  16   1     0.11  -0.06  -0.06    -0.22   0.12   0.08    -0.37   0.19   0.15
  17   1    -0.19   0.09   0.08     0.14  -0.06  -0.07     0.17  -0.06  -0.07
  18   1    -0.31   0.10   0.17     0.15  -0.05  -0.07     0.18  -0.08  -0.07
  19   1    -0.01   0.00  -0.02     0.01  -0.00   0.01     0.01  -0.00   0.01
                     31                     32                     33
                        a                      a                      a 
 Frequencies --  1359.6381              1413.1152              1446.5442
 Red. masses --     4.8129                 3.2318                 1.9608
 Frc consts  --     0.0000                 0.0000                 0.0000
 IR Inten    --     4.9117                 1.8639                 0.5993
 Raman Activ --     0.0000                 0.0000                 0.0000
 Depolar     --     0.0000                 0.0000                 0.0000
 Atom AN      X      Y      Z        X      Y      Z        X      Y      Z
   1   6     0.03   0.03   0.04    -0.17  -0.37   0.15    -0.02  -0.04   0.00
   2   6    -0.17  -0.02  -0.04     0.06   0.09   0.02     0.00   0.02  -0.01
   3   6     0.49   0.03   0.22     0.03  -0.04   0.03     0.00  -0.01  -0.00
   4   6    -0.11  -0.05  -0.06    -0.01   0.01  -0.02    -0.02   0.02  -0.01
   5   6     0.03  -0.03   0.00     0.01  -0.01   0.03    -0.10   0.07  -0.26
   6   6    -0.00   0.00  -0.00    -0.00   0.00   0.00     0.01  -0.00  -0.02
   7   6    -0.00   0.00  -0.00    -0.00   0.00  -0.00     0.01  -0.00   0.00
   8   1    -0.04  -0.04  -0.00     0.14   0.49  -0.01     0.04   0.04   0.01
   9   1    -0.02  -0.03  -0.01     0.33   0.32  -0.17     0.03   0.03   0.01
  10   1     0.00   0.03  -0.00     0.05   0.36  -0.33     0.01   0.04  -0.05
  11   1     0.15   0.17   0.05    -0.09  -0.04  -0.04     0.00  -0.05   0.01
  12   1    -0.06  -0.05  -0.09    -0.06  -0.09  -0.09    -0.02  -0.01   0.03
  13   1    -0.46  -0.02  -0.26    -0.01   0.04  -0.01     0.01   0.01   0.00
  14   1    -0.44   0.03  -0.22    -0.07   0.00  -0.02    -0.00   0.00   0.01
  15   1     0.14  -0.06  -0.03     0.01   0.01   0.03     0.02  -0.00   0.00
  16   1    -0.13   0.09  -0.02    -0.00  -0.03   0.02     0.01  -0.02   0.01
  17   1    -0.02   0.02   0.03    -0.03  -0.03  -0.06     0.32   0.24   0.54
  18   1    -0.04   0.00   0.02    -0.00   0.05  -0.04     0.01  -0.49   0.46
  19   1    -0.00  -0.00   0.00    -0.00   0.00  -0.00     0.00  -0.00   0.01
                     34                     35                     36
                        a                      a                      a 
 Frequencies --  1483.7497              1491.0062              1498.4152
 Red. masses --     1.8489                 1.8855                 1.7599
 Frc consts  --     0.0000                 0.0000                 0.0000
 IR Inten    --     0.1109                 1.1996                 0.3431
 Raman Activ --     0.0000                 0.0000                 0.0000
 Depolar     --     0.0000                 0.0000                 0.0000
 Atom AN      X      Y      Z        X      Y      Z        X      Y      Z
   1   6     0.04  -0.04  -0.02     0.02  -0.02  -0.08     0.05  -0.03   0.08
   2   6     0.01  -0.01   0.03    -0.02   0.02  -0.10    -0.04   0.10  -0.20
   3   6    -0.05   0.21   0.08     0.03  -0.11  -0.05    -0.02   0.06   0.01
   4   6    -0.02   0.05  -0.11    -0.05   0.05  -0.20     0.01  -0.01   0.03
   5   6    -0.01   0.00  -0.01    -0.02   0.01   0.01     0.01  -0.01   0.00
   6   6    -0.00  -0.00   0.00     0.00   0.00  -0.00     0.00   0.00   0.00
   7   6     0.00  -0.00   0.00     0.00  -0.00   0.00    -0.00   0.00   0.00
   8   1    -0.10  -0.06  -0.04    -0.00  -0.15   0.02    -0.24   0.16  -0.14
   9   1     0.07   0.08   0.07     0.06   0.10   0.21     0.05   0.01  -0.30
  10   1    -0.14   0.12   0.09    -0.15   0.15   0.07    -0.04  -0.06   0.09
  11   1    -0.06   0.07  -0.04     0.16  -0.11   0.10     0.38  -0.35   0.26
  12   1     0.02   0.00  -0.10    -0.05  -0.01   0.21    -0.14  -0.01   0.56
  13   1    -0.07  -0.56   0.10     0.03   0.29  -0.06    -0.02  -0.14   0.02
  14   1     0.25  -0.27  -0.43    -0.14   0.14   0.22     0.05  -0.06  -0.11
  15   1     0.13   0.10   0.25     0.23   0.16   0.42    -0.03  -0.03  -0.07
  16   1    -0.04  -0.22   0.21    -0.05  -0.37   0.34     0.01   0.07  -0.06
  17   1    -0.00   0.01   0.01     0.00  -0.02  -0.03    -0.02  -0.00  -0.01
  18   1     0.01  -0.01  -0.00    -0.00   0.03  -0.03    -0.04   0.03   0.00
  19   1     0.00   0.00  -0.00     0.00  -0.00   0.00    -0.00  -0.00  -0.00
                     37                     38                     39
                        a                      a                      a 
 Frequencies --  1502.9531              1512.7458              2291.9244
 Red. masses --     1.6784                 1.6579                11.0242
 Frc consts  --     0.0000                 0.0000                 0.0000
 IR Inten    --     1.0997                 0.6819                35.6392
 Raman Activ --     0.0000                 0.0000                 0.0000
 Depolar     --     0.0000                 0.0000                 0.0000
 Atom AN      X      Y      Z        X      Y      Z        X      Y      Z
   1   6    -0.18   0.05  -0.05     0.02  -0.10  -0.16     0.00   0.00   0.00
   2   6    -0.08   0.03  -0.10    -0.01  -0.01  -0.08     0.00   0.00  -0.00
   3   6     0.00   0.07   0.03    -0.00   0.02   0.02     0.00  -0.00  -0.00
   4   6     0.00  -0.00  -0.01     0.03  -0.04   0.12    -0.01   0.00   0.00
   5   6     0.00  -0.00   0.01     0.01  -0.00   0.01    -0.09   0.04  -0.03
   6   6    -0.00   0.00   0.00    -0.00   0.00   0.00     0.66  -0.32   0.21
   7   6     0.00  -0.00   0.00    -0.00   0.00  -0.00    -0.48   0.23  -0.16
   8   1     0.58  -0.03   0.27     0.03  -0.29   0.06    -0.00  -0.00  -0.00
   9   1    -0.17  -0.13   0.28     0.19   0.29   0.49    -0.00  -0.00   0.00
  10   1     0.33  -0.05  -0.37    -0.31   0.40   0.09     0.00  -0.00  -0.00
  11   1     0.17  -0.13   0.11     0.08  -0.04   0.04    -0.00  -0.00   0.00
  12   1    -0.04   0.04   0.21    -0.02   0.00   0.11    -0.00   0.00  -0.00
  13   1    -0.03  -0.16   0.02     0.01  -0.02   0.02     0.00  -0.00   0.00
  14   1     0.06  -0.07  -0.13     0.01  -0.01  -0.03    -0.00   0.00  -0.00
  15   1     0.00   0.01   0.03    -0.17  -0.10  -0.26     0.00  -0.00  -0.00
  16   1    -0.01  -0.01   0.02     0.02   0.23  -0.21     0.00  -0.00   0.00
  17   1    -0.02  -0.01  -0.03    -0.01  -0.00  -0.00    -0.02  -0.00  -0.00
  18   1    -0.01   0.03  -0.02    -0.01   0.01   0.00    -0.01   0.02   0.00
  19   1     0.00  -0.00  -0.00    -0.00   0.00  -0.00    -0.26   0.12  -0.08
                     40                     41                     42
                        a                      a                      a 
 Frequencies --  2947.0264              2952.9682              2957.8953
 Red. masses --     1.8974                 1.9473                 1.8235
 Frc consts  --     0.0000                 0.0000                 0.0000
 IR Inten    --    31.7913                60.1624                42.8464
 Raman Activ --     0.0000                 0.0000                 0.0000
 Depolar     --     0.0000                 0.0000                 0.0000
 Atom AN      X      Y      Z        X      Y      Z        X      Y      Z
   1   6     0.00  -0.00  -0.00    -0.00   0.00  -0.01     0.01  -0.00  -0.00
   2   6    -0.01   0.00   0.00     0.02  -0.02  -0.02    -0.21   0.14   0.05
   3   6     0.01  -0.00  -0.01    -0.12  -0.14   0.22     0.01  -0.07  -0.02
   4   6     0.03   0.05   0.02     0.02   0.04   0.01     0.03   0.03   0.02
   5   6    -0.09  -0.26   0.04    -0.00   0.00  -0.01    -0.00   0.01  -0.02
   6   6     0.00  -0.01   0.00    -0.00   0.00  -0.00    -0.00   0.00  -0.00
   7   6    -0.00   0.00  -0.00     0.00  -0.00   0.00     0.00  -0.00   0.00
   8   1    -0.00   0.00   0.00    -0.00   0.00   0.00    -0.01   0.00   0.04
   9   1    -0.00   0.00  -0.00     0.01  -0.00   0.00    -0.04   0.04  -0.01
  10   1     0.00   0.00   0.00     0.01   0.00   0.01    -0.01  -0.01  -0.02
  11   1     0.01  -0.00  -0.02    -0.06   0.03   0.12     0.14  -0.05  -0.31
  12   1     0.01  -0.01   0.00    -0.03   0.02  -0.01     0.61  -0.48   0.14
  13   1    -0.02   0.01   0.03     0.27  -0.13  -0.48    -0.12   0.04   0.21
  14   1     0.00   0.01  -0.01     0.18   0.65  -0.30     0.07   0.22  -0.12
  15   1    -0.03  -0.11   0.07    -0.02  -0.11   0.06    -0.01  -0.04   0.03
  16   1    -0.10  -0.10  -0.13    -0.04  -0.04  -0.06    -0.09  -0.09  -0.10
  17   1     0.15   0.73  -0.41    -0.00  -0.03   0.01    -0.02  -0.10   0.05
  18   1     0.18   0.21   0.25     0.02   0.02   0.02     0.04   0.05   0.04
  19   1    -0.00   0.00  -0.00     0.00  -0.00   0.00     0.00  -0.00   0.00
                     43                     44                     45
                        a                      a                      a 
 Frequencies --  2961.9223              2969.2873              2974.5933
 Red. masses --     1.7821                 1.5995                 1.6401
 Frc consts  --     0.0000                 0.0000                 0.0000
 IR Inten    --    56.0252                49.1398               180.3980
 Raman Activ --     0.0000                 0.0000                 0.0000
 Depolar     --     0.0000                 0.0000                 0.0000
 Atom AN      X      Y      Z        X      Y      Z        X      Y      Z
   1   6     0.00  -0.00  -0.00    -0.00   0.00   0.00    -0.01   0.00   0.00
   2   6    -0.07   0.05   0.01     0.02  -0.01  -0.02     0.06  -0.05  -0.02
   3   6    -0.04   0.02   0.05     0.02  -0.06  -0.04     0.04  -0.15  -0.08
   4   6    -0.12  -0.16  -0.10     0.04   0.06   0.03    -0.06  -0.10  -0.04
   5   6     0.01  -0.04   0.07     0.09   0.07   0.17    -0.03  -0.04  -0.04
   6   6     0.01  -0.00   0.00     0.01  -0.00   0.01    -0.00   0.00  -0.00
   7   6    -0.00   0.00  -0.00    -0.00   0.00  -0.00     0.00  -0.00   0.00
   8   1    -0.01   0.00   0.01     0.01  -0.00  -0.01     0.01  -0.00  -0.02
   9   1    -0.01   0.01  -0.00     0.00  -0.00   0.00     0.02  -0.02   0.00
  10   1    -0.01  -0.01  -0.01    -0.00  -0.00  -0.00     0.01   0.01   0.01
  11   1     0.03  -0.01  -0.07    -0.05   0.02   0.09    -0.05   0.02   0.11
  12   1     0.22  -0.17   0.05    -0.02   0.02  -0.01    -0.18   0.14  -0.04
  13   1     0.13  -0.05  -0.23    -0.13   0.04   0.23    -0.30   0.10   0.54
  14   1    -0.01  -0.02   0.02     0.05   0.17  -0.09     0.14   0.43  -0.24
  15   1     0.03   0.17  -0.11    -0.02  -0.08   0.05     0.04   0.15  -0.09
  16   1     0.40   0.41   0.49    -0.11  -0.12  -0.14     0.19   0.19   0.23
  17   1     0.06   0.28  -0.14     0.07   0.27  -0.11    -0.01  -0.02   0.00
  18   1    -0.11  -0.16  -0.14    -0.40  -0.52  -0.50     0.11   0.14   0.14
  19   1    -0.00   0.00  -0.00    -0.01   0.00  -0.00     0.00  -0.00   0.00
                     46                     47                     48
                        a                      a                      a 
 Frequencies --  2986.9470              2994.3660              3025.0193
 Red. masses --     1.5535                 1.5866                 1.9228
 Frc consts  --     0.0000                 0.0000                 0.0000
 IR Inten    --    77.0729                80.7736                93.1595
 Raman Activ --     0.0000                 0.0000                 0.0000
 Depolar     --     0.0000                 0.0000                 0.0000
 Atom AN      X      Y      Z        X      Y      Z        X      Y      Z
   1   6     0.01   0.01   0.03    -0.01   0.01  -0.00    -0.01  -0.09  -0.27
   2   6     0.02   0.02  -0.21    -0.01   0.00   0.00     0.01  -0.00  -0.03
   3   6     0.01   0.02  -0.03    -0.01  -0.01   0.03     0.00   0.00  -0.00
   4   6     0.00  -0.00   0.00    -0.01  -0.16   0.16     0.00   0.00  -0.00
   5   6    -0.01  -0.01  -0.01    -0.00  -0.02   0.02     0.00   0.00   0.00
   6   6    -0.00   0.00  -0.00     0.00  -0.00   0.00     0.00  -0.00   0.00
   7   6     0.00  -0.00   0.00    -0.00   0.00  -0.00    -0.00   0.00   0.00
   8   1     0.04  -0.01  -0.07    -0.00   0.00   0.00    -0.34   0.14   0.71
   9   1    -0.00   0.01   0.00     0.03  -0.03   0.00    -0.00  -0.01  -0.04
  10   1    -0.06  -0.03  -0.05     0.01   0.00   0.01     0.37   0.19   0.29
  11   1    -0.41   0.18   0.74     0.01  -0.00  -0.01    -0.05   0.02   0.09
  12   1     0.32  -0.25   0.03     0.01  -0.01   0.00     0.02  -0.02   0.00
  13   1    -0.02   0.01   0.03     0.05  -0.02  -0.08    -0.01   0.01   0.02
  14   1    -0.03  -0.10   0.05     0.01   0.04  -0.02    -0.00  -0.01   0.01
  15   1     0.00   0.02  -0.01     0.22   0.79  -0.38     0.00  -0.00   0.00
  16   1    -0.01  -0.01  -0.01    -0.18  -0.21  -0.20     0.00   0.00   0.00
  17   1    -0.00  -0.02   0.01     0.01   0.06  -0.03    -0.00  -0.00   0.00
  18   1     0.04   0.05   0.05    -0.01  -0.01  -0.01    -0.00  -0.00  -0.00
  19   1     0.00  -0.00   0.00    -0.00   0.00  -0.00    -0.00  -0.00  -0.00
                     49                     50                     51
                        a                      a                      a 
 Frequencies --  3029.0484              3041.9909              3399.8208
 Red. masses --     1.8637                 1.3533                 2.5416
 Frc consts  --     0.0000                 0.0000                 0.0000
 IR Inten    --    82.2549                47.5173                 5.2210
 Raman Activ --     0.0000                 0.0000                 0.0000
 Depolar     --     0.0000                 0.0000                 0.0000
 Atom AN      X      Y      Z        X      Y      Z        X      Y      Z
   1   6    -0.27   0.04  -0.02     0.04  -0.17   0.02    -0.00  -0.00   0.00
   2   6    -0.02   0.01  -0.00     0.01  -0.01  -0.00    -0.00   0.00   0.00
   3   6     0.00   0.00  -0.00    -0.00   0.00   0.00    -0.00   0.00   0.00
   4   6     0.00   0.01  -0.00    -0.00  -0.01   0.00    -0.00   0.00   0.00
   5   6     0.00   0.00  -0.00     0.00   0.00   0.00    -0.00   0.00  -0.00
   6   6     0.00  -0.00   0.00    -0.00   0.00   0.00     0.08  -0.04   0.03
   7   6    -0.00   0.00  -0.00     0.00  -0.00   0.00    -0.31   0.15  -0.10
   8   1     0.14  -0.07  -0.41     0.13  -0.07  -0.26     0.00  -0.00  -0.00
   9   1     0.37  -0.35   0.05    -0.62   0.53  -0.08    -0.00   0.00  -0.00
  10   1     0.45   0.27   0.43     0.33   0.15   0.28     0.00   0.00   0.00
  11   1     0.00  -0.00  -0.01    -0.01   0.00   0.02     0.00  -0.00  -0.00
  12   1     0.06  -0.04   0.01    -0.01   0.01  -0.00     0.00  -0.00   0.00
  13   1     0.00  -0.00  -0.00     0.00  -0.00  -0.00     0.00  -0.00  -0.00
  14   1    -0.00  -0.01   0.01    -0.00  -0.00   0.00    -0.00  -0.00   0.00
  15   1    -0.01  -0.03   0.01     0.01   0.03  -0.01     0.00   0.00  -0.00
  16   1     0.00   0.00   0.00    -0.00  -0.00  -0.00    -0.00  -0.00  -0.00
  17   1    -0.00  -0.00   0.00     0.00   0.00  -0.00    -0.00   0.00  -0.00
  18   1     0.00  -0.00  -0.00    -0.00  -0.00  -0.00    -0.00  -0.00  -0.00
  19   1    -0.00   0.00  -0.00    -0.00   0.00  -0.00     0.81  -0.39   0.25
