      -----------------------------------------------------------      
     |                   =====================                   |     
     |                           x T B                           |     
     |                   =====================                   |     
     |                         S. Grimme                         |     
     |          Mulliken Center for Theoretical Chemistry        |     
     |                    University of Bonn                     |     
      -----------------------------------------------------------      

   * xtb version 6.7.1 (edcfbbe) compiled by 'albert@albert-system' on 2024-07-22

   xtb is free software: you can redistribute it and/or modify it under
   the terms of the GNU Lesser General Public License as published by
   the Free Software Foundation, either version 3 of the License, or
   (at your option) any later version.
   
   xtb is distributed in the hope that it will be useful,
   but WITHOUT ANY WARRANTY; without even the implied warranty of
   MERCHANTABILITY or FITNESS FOR A PARTICULAR PURPOSE.  See the
   GNU Lesser General Public License for more details.
   
   Cite this work as:
   * C. Bannwarth, E. Caldeweyher, S. Ehlert, A. Hansen, P. Pracht,
     J. Seibert, S. Spicher, S. Grimme, WIREs Comput. Mol. Sci., 2020, 11,
     e01493. DOI: 10.1002/wcms.1493
   
   for GFN2-xTB:
   * C. Bannwarth, S. Ehlert and S. Grimme., J. Chem. Theory Comput., 2019,
     15, 1652-1671. DOI: 10.1021/acs.jctc.8b01176
   for GFN1-xTB:
   * S. Grimme, C. Bannwarth, P. Shushkov, J. Chem. Theory Comput., 2017,
     13, 1989-2009. DOI: 10.1021/acs.jctc.7b00118
   for GFN0-xTB:
   * P. Pracht, E. Caldeweyher, S. Ehlert, S. Grimme, ChemRxiv, 2019, preprint.
     DOI: 10.26434/chemrxiv.8326202.v1
   for GFN-FF:
   * S. Spicher and S. Grimme, Angew. Chem. Int. Ed., 2020, 59, 15665-15673.
     DOI: 10.1002/anie.202004239
   
   for ALPB and GBSA implicit solvation:
   * S. Ehlert, M. Stahn, S. Spicher, S. Grimme, J. Chem. Theory Comput.,
     2021, 17, 4250-4261. DOI: 10.1021/acs.jctc.1c00471
   
   for ddCOSMO and CPCM-X implicit solvation:
   * M. Stahn, S. Ehlert, S. Grimme, J. Phys. Chem. A,
     2023, XX, XXXX-XXXX. DOI: 10.1021/acs.jpca.3c04382
   
   for DFT-D4:
   * E. Caldeweyher, C. Bannwarth and S. Grimme, J. Chem. Phys., 2017,
     147, 034112. DOI: 10.1063/1.4993215
   * E. Caldeweyher, S. Ehlert, A. Hansen, H. Neugebauer, S. Spicher,
     C. Bannwarth and S. Grimme, J. Chem. Phys., 2019, 150, 154122.
     DOI: 10.1063/1.5090222
   * E. Caldeweyher, J.-M. Mewes, S. Ehlert and S. Grimme, Phys. Chem. Chem. Phys.
     2020, 22, 8499-8512. DOI: 10.1039/D0CP00502A
   
   for sTDA-xTB:
   * S. Grimme and C. Bannwarth, J. Chem. Phys., 2016, 145, 054103.
     DOI: 10.1063/1.4959605
   
   in the mass-spec context:
   * V. Asgeirsson, C. Bauer and S. Grimme, Chem. Sci., 2017, 8, 4879.
     DOI: 10.1039/c7sc00601b
   * J. Koopman and S. Grimme, ACS Omega 2019, 4, 12, 15120-15133.
     DOI: 10.1021/acsomega.9b02011
   
   for metadynamics refer to:
   * S. Grimme, J. Chem. Theory Comput., 2019, 155, 2847-2862
     DOI: 10.1021/acs.jctc.9b00143
   
   for SPH calculations refer to:
   * S. Spicher and S. Grimme, J. Chem. Theory Comput., 2021, 17, 1701-1714
     DOI: 10.1021/acs.jctc.0c01306
   
   for ONIOM refer to:
   * C. Plett, A. Katbashev, S. Ehlert, S. Grimme, M. Bursch,
     Phys. Chem. Chem. Phys., 2023, 25, 17860-17868. DOI: 10.1039/D3CP02178E
   
   for DIPRO refer to:
   * J. Kohn, N. Gildemeister, S. Grimme, D. Fazzi, A. Hansen,
     J. Chem. Phys., 2023, just accepted.
   
   for PTB refer to:
   * S. Grimme, M. Mueller, A. Hansen, J. Chem. Phys., 2023, 158, 124111.
     DOI: 10.1063/5.0137838
   
   with help from (in alphabetical order)
   P. Atkinson, C. Bannwarth, F. Bohle, G. Brandenburg, E. Caldeweyher
   M. Checinski, S. Dohm, S. Ehlert, S. Ehrlich, I. Gerasimov, C. Hölzer
   A. Katbashev, J. Kohn, J. Koopman, C. Lavigne, S. Lehtola, F. März, M. Müller,
   F. Musil, H. Neugebauer, J. Pisarek, C. Plett, P. Pracht, F. Pultar,
   J. Seibert, P. Shushkov, S. Spicher, M. Stahn, M. Steiner, T. Strunk,
   J. Stückrath, T. Rose, and J. Unsleber
   
 * started run on 2025/04/11 at 16:11:56.465     
   ID    Z sym.   atoms
    1    6 C      1-5
    2    8 O      6, 7
    3    1 H      8-17

           -------------------------------------------------
          |                Calculation Setup                |
           -------------------------------------------------

          program call               : /srv/scratch/z5358697/.xtb/bin/xtb gas.coord --gfn2 --sp --chrg 0 --norestart --parallel 1
          hostname                   : k018
          coordinate file            : gas.coord
          omp threads                :                     1


           -------------------------------------------------
          |                 G F N 2 - x T B                 |
           -------------------------------------------------

        Reference                      10.1021/acs.jctc.8b01176
      * Hamiltonian:
        H0-scaling (s, p, d)           1.850000    2.230000    2.230000
        zeta-weighting                 0.500000
      * Dispersion:
        s8                             2.700000
        a1                             0.520000
        a2                             5.000000
        s9                             5.000000
      * Repulsion:
        kExp                           1.500000    1.000000
        rExp                           1.000000
      * Coulomb:
        alpha                          2.000000
        third order                    shell-resolved
        anisotropic                    true
        a3                             3.000000
        a5                             4.000000
        cn-shift                       1.200000
        cn-exp                         4.000000
        max-rad                        5.000000


          ...................................................
          :                      SETUP                      :
          :.................................................:
          :  # basis functions                  38          :
          :  # atomic orbitals                  38          :
          :  # shells                           24          :
          :  # electrons                        42          :
          :  max. iterations                   250          :
          :  Hamiltonian                  GFN2-xTB          :
          :  restarted?                      false          :
          :  GBSA solvation                  false          :
          :  PC potential                    false          :
          :  electronic temp.          300.0000000     K    :
          :  accuracy                    1.0000000          :
          :  -> integral cutoff          0.2500000E+02      :
          :  -> integral neglect         0.1000000E-07      :
          :  -> SCF convergence          0.1000000E-05 Eh   :
          :  -> wf. convergence          0.1000000E-03 e    :
          :  Broyden damping             0.4000000          :
          :  net charge                          0          :
          :  unpaired electrons                  0          :
          ...................................................

 iter      E             dE          RMSdq      gap      omega  full diag
   1    -24.1661948 -0.241662E+02  0.375E+00    6.11       0.0  T
   2    -24.2197316 -0.535368E-01  0.196E+00    4.81       1.0  T
   3    -24.2230151 -0.328347E-02  0.112E+00    5.28       1.0  T
   4    -24.2252918 -0.227675E-02  0.170E-01    4.96       1.0  T
   5    -24.2254691 -0.177332E-03  0.777E-02    5.02       1.0  T
   6    -24.2254735 -0.432450E-05  0.143E-02    5.02       1.7  T
   7    -24.2254742 -0.747119E-06  0.568E-03    5.02       4.3  T
   8    -24.2254743 -0.500638E-07  0.169E-03    5.02      14.4  T
   9    -24.2254743 -0.712453E-08  0.765E-04    5.02      31.7  T
  10    -24.2254743 -0.125896E-08  0.207E-04    5.02     117.0  T

   *** convergence criteria satisfied after 10 iterations ***

         #    Occupation            Energy/Eh            Energy/eV
      -------------------------------------------------------------
         1        2.0000           -0.7478400             -20.3498
       ...           ...                  ...                  ...
        15        2.0000           -0.4741220             -12.9015
        16        2.0000           -0.4671238             -12.7111
        17        2.0000           -0.4546505             -12.3717
        18        2.0000           -0.4456908             -12.1279
        19        2.0000           -0.4345899             -11.8258
        20        2.0000           -0.4270344             -11.6202
        21        2.0000           -0.4170911             -11.3496 (HOMO)
        22                         -0.2324412              -6.3250 (LUMO)
        23                          0.0384341               1.0458
        24                          0.0789087               2.1472
        25                          0.1172380               3.1902
        26                          0.1284783               3.4961
       ...                                ...                  ...
        38                          0.6207353              16.8911
      -------------------------------------------------------------
                  HL-Gap            0.1846499 Eh            5.0246 eV
             Fermi-level           -0.3247661 Eh           -8.8373 eV

 SCC (total)                   0 d,  0 h,  0 min,  0.012 sec
 SCC setup                      ...        0 min,  0.000 sec (  1.420%)
 Dispersion                     ...        0 min,  0.000 sec (  0.674%)
 classical contributions        ...        0 min,  0.000 sec (  0.147%)
 integral evaluation            ...        0 min,  0.001 sec ( 10.264%)
 iterations                     ...        0 min,  0.007 sec ( 55.174%)
 molecular gradient             ...        0 min,  0.004 sec ( 30.807%)
 printout                       ...        0 min,  0.000 sec (  1.407%)

         :::::::::::::::::::::::::::::::::::::::::::::::::::::
         ::                     SUMMARY                     ::
         :::::::::::::::::::::::::::::::::::::::::::::::::::::
         :: total energy             -23.952454474032 Eh    ::
         :: gradient norm              0.031376150415 Eh/a0 ::
         :: HOMO-LUMO gap              5.024579528058 eV    ::
         ::.................................................::
         :: SCC energy               -24.225458835782 Eh    ::
         :: -> isotropic ES            0.051183607807 Eh    ::
         :: -> anisotropic ES          0.003515602794 Eh    ::
         :: -> anisotropic XC          0.005580510910 Eh    ::
         :: -> dispersion             -0.009576443481 Eh    ::
         :: repulsion energy           0.273004361750 Eh    ::
         :: add. restraining           0.000000000000 Eh    ::
         :: total charge              -0.000000000000 e     ::
         :::::::::::::::::::::::::::::::::::::::::::::::::::::

           -------------------------------------------------
          |                Property Printout                |
           -------------------------------------------------

    * Orbital Energies and Occupations

         #    Occupation            Energy/Eh            Energy/eV
      -------------------------------------------------------------
         1        2.0000           -0.7478400             -20.3498
       ...           ...                  ...                  ...
         9        2.0000           -0.5630685             -15.3219
        10        2.0000           -0.5551508             -15.1064
        11        2.0000           -0.5139118             -13.9843
        12        2.0000           -0.5032001             -13.6928
        13        2.0000           -0.4981906             -13.5565
        14        2.0000           -0.4921495             -13.3921
        15        2.0000           -0.4741220             -12.9015
        16        2.0000           -0.4671238             -12.7111
        17        2.0000           -0.4546505             -12.3717
        18        2.0000           -0.4456908             -12.1279
        19        2.0000           -0.4345899             -11.8258
        20        2.0000           -0.4270344             -11.6202
        21        2.0000           -0.4170911             -11.3496 (HOMO)
        22                         -0.2324412              -6.3250 (LUMO)
        23                          0.0384341               1.0458
        24                          0.0789087               2.1472
        25                          0.1172380               3.1902
        26                          0.1284783               3.4961
        27                          0.1467794               3.9941
        28                          0.1543582               4.2003
        29                          0.1674666               4.5570
        30                          0.1746985               4.7538
        31                          0.1857975               5.0558
        32                          0.2052235               5.5844
       ...                                ...                  ...
        38                          0.6207353              16.8911
      -------------------------------------------------------------
                  HL-Gap            0.1846499 Eh            5.0246 eV
             Fermi-level           -0.3247661 Eh           -8.8373 eV

     #   Z          covCN         q      C6AA      α(0)
     1   6 C        3.752    -0.104    22.551     6.772
     2   6 C        3.801    -0.054    21.548     6.609
     3   6 C        3.804    -0.059    21.633     6.622
     4   6 C        3.804    -0.090    22.209     6.709
     5   6 C        2.689     0.362    20.860     7.475
     6   8 O        0.856    -0.419    22.065     6.298
     7   8 O        1.659    -0.374    20.352     6.090
     8   1 H        0.925     0.036     2.501     2.473
     9   1 H        0.925     0.034     2.529     2.487
    10   1 H        0.925     0.039     2.465     2.455
    11   1 H        0.924     0.037     2.485     2.465
    12   1 H        0.924     0.030     2.593     2.518
    13   1 H        0.924     0.056     2.241     2.341
    14   1 H        0.924     0.040     2.452     2.449
    15   1 H        0.924     0.066     2.128     2.281
    16   1 H        0.924     0.071     2.074     2.252
    17   1 H        0.803     0.329     0.640     1.257

 Mol. C6AA /au·bohr⁶  :       2217.849018
 Mol. C8AA /au·bohr⁸  :      47235.166157
 Mol. α(0) /au        :         69.552886


Wiberg/Mayer (AO) data.
largest (>0.10) Wiberg bond orders for each atom

 ---------------------------------------------------------------------------
     #   Z sym  total        # sym  WBO       # sym  WBO       # sym  WBO
 ---------------------------------------------------------------------------
     1   6 C    3.997 --     2 C    1.019     9 H    0.988    10 H    0.988
                             8 H    0.987
     2   6 C    3.997 --     1 C    1.019     3 C    1.009    12 H    0.978
                            11 H    0.978
     3   6 C    3.993 --     2 C    1.009     4 C    1.002    14 H    0.977
                            13 H    0.974
     4   6 C    3.994 --     3 C    1.002     5 C    0.980    15 H    0.965
                            16 H    0.943
     5   6 C    3.910 --     6 O    1.753     7 O    1.142     4 C    0.980
     6   8 O    2.024 --     5 C    1.753     7 O    0.172
     7   8 O    2.205 --     5 C    1.142    17 H    0.864     6 O    0.172
     8   1 H    0.998 --     1 C    0.987
     9   1 H    0.999 --     1 C    0.988
    10   1 H    0.998 --     1 C    0.988
    11   1 H    0.999 --     2 C    0.978
    12   1 H    0.999 --     2 C    0.978
    13   1 H    0.997 --     3 C    0.974
    14   1 H    0.998 --     3 C    0.977
    15   1 H    0.996 --     4 C    0.965
    16   1 H    0.995 --     4 C    0.943
    17   1 H    0.891 --     7 O    0.864
 ---------------------------------------------------------------------------

Topologies differ in total number of bonds
Writing topology from bond orders to xtbtopo.mol

molecular dipole:
                 x           y           z       tot (Debye)
 q only:        0.026       0.646       0.264
   full:        0.196       0.663       0.322       1.939
molecular quadrupole (traceless):
                xx          xy          yy          xz          yz          zz
 q only:        4.308       0.061      -3.337       2.531      -2.841      -0.972
  q+dip:        4.202      -1.503      -3.482       2.252      -3.677      -0.720
   full:        4.799      -1.020      -4.179       2.037      -3.987      -0.620


           -------------------------------------------------
          | TOTAL ENERGY              -23.952454474032 Eh   |
          | GRADIENT NORM               0.031376150415 Eh/α |
          | HOMO-LUMO GAP               5.024579528058 eV   |
           -------------------------------------------------

------------------------------------------------------------------------
 * finished run on 2025/04/11 at 16:11:56.566     
------------------------------------------------------------------------
 total:
 * wall-time:     0 d,  0 h,  0 min,  0.101 sec
 *  cpu-time:     0 d,  0 h,  0 min,  0.021 sec
 * ratio c/w:     0.206 speedup
 SCF:
 * wall-time:     0 d,  0 h,  0 min,  0.012 sec
 *  cpu-time:     0 d,  0 h,  0 min,  0.011 sec
 * ratio c/w:     0.906 speedup

