      -----------------------------------------------------------      
     |                   =====================                   |     
     |                           x T B                           |     
     |                   =====================                   |     
     |                         S. Grimme                         |     
     |          Mulliken Center for Theoretical Chemistry        |     
     |                    University of Bonn                     |     
      -----------------------------------------------------------      

   * xtb version 6.7.1 (edcfbbe) compiled by 'albert@albert-system' on 2024-07-22

   xtb is free software: you can redistribute it and/or modify it under
   the terms of the GNU Lesser General Public License as published by
   the Free Software Foundation, either version 3 of the License, or
   (at your option) any later version.
   
   xtb is distributed in the hope that it will be useful,
   but WITHOUT ANY WARRANTY; without even the implied warranty of
   MERCHANTABILITY or FITNESS FOR A PARTICULAR PURPOSE.  See the
   GNU Lesser General Public License for more details.
   
   Cite this work as:
   * C. Bannwarth, E. Caldeweyher, S. Ehlert, A. Hansen, P. Pracht,
     J. Seibert, S. Spicher, S. Grimme, WIREs Comput. Mol. Sci., 2020, 11,
     e01493. DOI: 10.1002/wcms.1493
   
   for GFN2-xTB:
   * C. Bannwarth, S. Ehlert and S. Grimme., J. Chem. Theory Comput., 2019,
     15, 1652-1671. DOI: 10.1021/acs.jctc.8b01176
   for GFN1-xTB:
   * S. Grimme, C. Bannwarth, P. Shushkov, J. Chem. Theory Comput., 2017,
     13, 1989-2009. DOI: 10.1021/acs.jctc.7b00118
   for GFN0-xTB:
   * P. Pracht, E. Caldeweyher, S. Ehlert, S. Grimme, ChemRxiv, 2019, preprint.
     DOI: 10.26434/chemrxiv.8326202.v1
   for GFN-FF:
   * S. Spicher and S. Grimme, Angew. Chem. Int. Ed., 2020, 59, 15665-15673.
     DOI: 10.1002/anie.202004239
   
   for ALPB and GBSA implicit solvation:
   * S. Ehlert, M. Stahn, S. Spicher, S. Grimme, J. Chem. Theory Comput.,
     2021, 17, 4250-4261. DOI: 10.1021/acs.jctc.1c00471
   
   for ddCOSMO and CPCM-X implicit solvation:
   * M. Stahn, S. Ehlert, S. Grimme, J. Phys. Chem. A,
     2023, XX, XXXX-XXXX. DOI: 10.1021/acs.jpca.3c04382
   
   for DFT-D4:
   * E. Caldeweyher, C. Bannwarth and S. Grimme, J. Chem. Phys., 2017,
     147, 034112. DOI: 10.1063/1.4993215
   * E. Caldeweyher, S. Ehlert, A. Hansen, H. Neugebauer, S. Spicher,
     C. Bannwarth and S. Grimme, J. Chem. Phys., 2019, 150, 154122.
     DOI: 10.1063/1.5090222
   * E. Caldeweyher, J.-M. Mewes, S. Ehlert and S. Grimme, Phys. Chem. Chem. Phys.
     2020, 22, 8499-8512. DOI: 10.1039/D0CP00502A
   
   for sTDA-xTB:
   * S. Grimme and C. Bannwarth, J. Chem. Phys., 2016, 145, 054103.
     DOI: 10.1063/1.4959605
   
   in the mass-spec context:
   * V. Asgeirsson, C. Bauer and S. Grimme, Chem. Sci., 2017, 8, 4879.
     DOI: 10.1039/c7sc00601b
   * J. Koopman and S. Grimme, ACS Omega 2019, 4, 12, 15120-15133.
     DOI: 10.1021/acsomega.9b02011
   
   for metadynamics refer to:
   * S. Grimme, J. Chem. Theory Comput., 2019, 155, 2847-2862
     DOI: 10.1021/acs.jctc.9b00143
   
   for SPH calculations refer to:
   * S. Spicher and S. Grimme, J. Chem. Theory Comput., 2021, 17, 1701-1714
     DOI: 10.1021/acs.jctc.0c01306
   
   for ONIOM refer to:
   * C. Plett, A. Katbashev, S. Ehlert, S. Grimme, M. Bursch,
     Phys. Chem. Chem. Phys., 2023, 25, 17860-17868. DOI: 10.1039/D3CP02178E
   
   for DIPRO refer to:
   * J. Kohn, N. Gildemeister, S. Grimme, D. Fazzi, A. Hansen,
     J. Chem. Phys., 2023, just accepted.
   
   for PTB refer to:
   * S. Grimme, M. Mueller, A. Hansen, J. Chem. Phys., 2023, 158, 124111.
     DOI: 10.1063/5.0137838
   
   with help from (in alphabetical order)
   P. Atkinson, C. Bannwarth, F. Bohle, G. Brandenburg, E. Caldeweyher
   M. Checinski, S. Dohm, S. Ehlert, S. Ehrlich, I. Gerasimov, C. Hölzer
   A. Katbashev, J. Kohn, J. Koopman, C. Lavigne, S. Lehtola, F. März, M. Müller,
   F. Musil, H. Neugebauer, J. Pisarek, C. Plett, P. Pracht, F. Pultar,
   J. Seibert, P. Shushkov, S. Spicher, M. Stahn, M. Steiner, T. Strunk,
   J. Stückrath, T. Rose, and J. Unsleber
   
 * started run on 2025/04/11 at 16:11:23.408     
   ID    Z sym.   atoms
    1    6 C      1, 2, 5, 6, 8, 10
    2    8 O      3, 4, 7, 9
    3    1 H      11-20

           -------------------------------------------------
          |                Calculation Setup                |
           -------------------------------------------------

          program call               : /srv/scratch/z5358697/.xtb/bin/xtb gas.coord --gfn2 --sp --chrg 0 --norestart --parallel 1
          hostname                   : k133
          coordinate file            : gas.coord
          omp threads                :                     1


           -------------------------------------------------
          |                 G F N 2 - x T B                 |
           -------------------------------------------------

        Reference                      10.1021/acs.jctc.8b01176
      * Hamiltonian:
        H0-scaling (s, p, d)           1.850000    2.230000    2.230000
        zeta-weighting                 0.500000
      * Dispersion:
        s8                             2.700000
        a1                             0.520000
        a2                             5.000000
        s9                             5.000000
      * Repulsion:
        kExp                           1.500000    1.000000
        rExp                           1.000000
      * Coulomb:
        alpha                          2.000000
        third order                    shell-resolved
        anisotropic                    true
        a3                             3.000000
        a5                             4.000000
        cn-shift                       1.200000
        cn-exp                         4.000000
        max-rad                        5.000000


          ...................................................
          :                      SETUP                      :
          :.................................................:
          :  # basis functions                  50          :
          :  # atomic orbitals                  50          :
          :  # shells                           30          :
          :  # electrons                        58          :
          :  max. iterations                   250          :
          :  Hamiltonian                  GFN2-xTB          :
          :  restarted?                      false          :
          :  GBSA solvation                  false          :
          :  PC potential                    false          :
          :  electronic temp.          300.0000000     K    :
          :  accuracy                    1.0000000          :
          :  -> integral cutoff          0.2500000E+02      :
          :  -> integral neglect         0.1000000E-07      :
          :  -> SCF convergence          0.1000000E-05 Eh   :
          :  -> wf. convergence          0.1000000E-03 e    :
          :  Broyden damping             0.4000000          :
          :  net charge                          0          :
          :  unpaired electrons                  0          :
          ...................................................

 iter      E             dE          RMSdq      gap      omega  full diag
   1    -34.4609923 -0.344610E+02  0.497E+00    6.01       0.0  T
   2    -34.5507876 -0.897953E-01  0.260E+00    4.72       1.0  T
   3    -34.5562921 -0.550455E-02  0.148E+00    5.26       1.0  T
   4    -34.5616667 -0.537454E-02  0.150E-01    4.99       1.0  T
   5    -34.5618389 -0.172208E-03  0.789E-02    5.03       1.0  T
   6    -34.5618433 -0.442066E-05  0.138E-02    5.02       1.6  T
   7    -34.5618438 -0.481567E-06  0.593E-03    5.02       3.8  T
   8    -34.5618439 -0.941292E-07  0.168E-03    5.02      13.3  T
   9    -34.5618439 -0.766460E-08  0.545E-04    5.02      41.0  T
  10    -34.5618439 -0.670639E-09  0.110E-04    5.02     204.0  T

   *** convergence criteria satisfied after 10 iterations ***

         #    Occupation            Energy/Eh            Energy/eV
      -------------------------------------------------------------
         1        2.0000           -0.7530095             -20.4904
       ...           ...                  ...                  ...
        23        2.0000           -0.4886560             -13.2970
        24        2.0000           -0.4841707             -13.1750
        25        2.0000           -0.4737696             -12.8919
        26        2.0000           -0.4613937             -12.5552
        27        2.0000           -0.4447976             -12.1036
        28        2.0000           -0.4223473             -11.4927
        29        2.0000           -0.4215333             -11.4705 (HOMO)
        30                         -0.2369392              -6.4474 (LUMO)
        31                         -0.2330591              -6.3419
        32                         -0.0378120              -1.0289
        33                          0.0419457               1.1414
        34                          0.0836409               2.2760
       ...                                ...                  ...
        50                          0.6267946              17.0559
      -------------------------------------------------------------
                  HL-Gap            0.1845941 Eh            5.0231 eV
             Fermi-level           -0.3292362 Eh           -8.9590 eV

 SCC (total)                   0 d,  0 h,  0 min,  0.036 sec
 SCC setup                      ...        0 min,  0.000 sec (  0.601%)
 Dispersion                     ...        0 min,  0.000 sec (  0.344%)
 classical contributions        ...        0 min,  0.000 sec (  0.069%)
 integral evaluation            ...        0 min,  0.002 sec (  5.133%)
 iterations                     ...        0 min,  0.028 sec ( 77.509%)
 molecular gradient             ...        0 min,  0.006 sec ( 15.824%)
 printout                       ...        0 min,  0.000 sec (  0.479%)

         :::::::::::::::::::::::::::::::::::::::::::::::::::::
         ::                     SUMMARY                     ::
         :::::::::::::::::::::::::::::::::::::::::::::::::::::
         :: total energy             -34.233724261135 Eh    ::
         :: gradient norm              0.041553788737 Eh/a0 ::
         :: HOMO-LUMO gap              5.023061727162 eV    ::
         ::.................................................::
         :: SCC energy               -34.561890917186 Eh    ::
         :: -> isotropic ES            0.089773036552 Eh    ::
         :: -> anisotropic ES          0.000381940070 Eh    ::
         :: -> anisotropic XC          0.002556532571 Eh    ::
         :: -> dispersion             -0.012380733191 Eh    ::
         :: repulsion energy           0.328166656051 Eh    ::
         :: add. restraining           0.000000000000 Eh    ::
         :: total charge              -0.000000000000 e     ::
         :::::::::::::::::::::::::::::::::::::::::::::::::::::

           -------------------------------------------------
          |                Property Printout                |
           -------------------------------------------------

    * Orbital Energies and Occupations

         #    Occupation            Energy/Eh            Energy/eV
      -------------------------------------------------------------
         1        2.0000           -0.7530095             -20.4904
       ...           ...                  ...                  ...
        17        2.0000           -0.5290752             -14.3969
        18        2.0000           -0.5192157             -14.1286
        19        2.0000           -0.5066489             -13.7866
        20        2.0000           -0.4959849             -13.4964
        21        2.0000           -0.4911141             -13.3639
        22        2.0000           -0.4897483             -13.3267
        23        2.0000           -0.4886560             -13.2970
        24        2.0000           -0.4841707             -13.1750
        25        2.0000           -0.4737696             -12.8919
        26        2.0000           -0.4613937             -12.5552
        27        2.0000           -0.4447976             -12.1036
        28        2.0000           -0.4223473             -11.4927
        29        2.0000           -0.4215333             -11.4705 (HOMO)
        30                         -0.2369392              -6.4474 (LUMO)
        31                         -0.2330591              -6.3419
        32                         -0.0378120              -1.0289
        33                          0.0419457               1.1414
        34                          0.0836409               2.2760
        35                          0.1223622               3.3296
        36                          0.1275956               3.4721
        37                          0.1500296               4.0825
        38                          0.1516660               4.1270
        39                          0.1608402               4.3767
        40                          0.1608718               4.3775
       ...                                ...                  ...
        50                          0.6267946              17.0559
      -------------------------------------------------------------
                  HL-Gap            0.1845941 Eh            5.0231 eV
             Fermi-level           -0.3292362 Eh           -8.9590 eV

     #   Z          covCN         q      C6AA      α(0)
     1   6 C        3.754    -0.149    23.432     6.902
     2   6 C        2.710     0.358    20.920     7.487
     3   8 O        0.856    -0.406    21.812     6.262
     4   8 O        1.705    -0.266    18.407     5.793
     5   6 C        3.695     0.069    19.595     6.333
     6   6 C        3.695     0.069    19.594     6.333
     7   8 O        1.705    -0.266    18.408     5.793
     8   6 C        2.710     0.358    20.920     7.487
     9   8 O        0.856    -0.406    21.809     6.261
    10   6 C        3.754    -0.149    23.431     6.902
    11   1 H        0.925     0.075     2.032     2.229
    12   1 H        0.925     0.084     1.933     2.174
    13   1 H        0.925     0.085     1.925     2.170
    14   1 H        0.924     0.079     1.986     2.204
    15   1 H        0.924     0.070     2.085     2.258
    16   1 H        0.924     0.079     1.986     2.204
    17   1 H        0.924     0.070     2.085     2.258
    18   1 H        0.925     0.084     1.934     2.175
    19   1 H        0.925     0.085     1.927     2.171
    20   1 H        0.925     0.075     2.030     2.228

 Mol. C6AA /au·bohr⁶  :       3544.380873
 Mol. C8AA /au·bohr⁸  :      77099.607010
 Mol. α(0) /au        :         87.622396


Wiberg/Mayer (AO) data.
largest (>0.10) Wiberg bond orders for each atom

 ---------------------------------------------------------------------------
     #   Z sym  total        # sym  WBO       # sym  WBO       # sym  WBO
 ---------------------------------------------------------------------------
     1   6 C    3.990 --     2 C    0.994    11 H    0.981    13 H    0.968
                            12 H    0.954
     2   6 C    3.916 --     3 O    1.756     4 O    1.120     1 C    0.994
     3   8 O    2.036 --     2 C    1.756     4 O    0.170
     4   8 O    2.303 --     2 C    1.120     5 C    0.951     3 O    0.170
     5   6 C    3.929 --     6 C    0.985    15 H    0.970    14 H    0.965
                             4 O    0.951
     6   6 C    3.929 --     5 C    0.985    17 H    0.970    16 H    0.965
                             7 O    0.951
     7   8 O    2.302 --     8 C    1.120     6 C    0.951     9 O    0.170
     8   6 C    3.916 --     9 O    1.756     7 O    1.120    10 C    0.994
     9   8 O    2.036 --     8 C    1.756     7 O    0.170
    10   6 C    3.990 --     8 C    0.994    20 H    0.981    19 H    0.969
                            18 H    0.954
    11   1 H    0.994 --     1 C    0.981
    12   1 H    0.993 --     1 C    0.954
    13   1 H    0.993 --     1 C    0.968
    14   1 H    0.994 --     5 C    0.965
    15   1 H    0.995 --     5 C    0.970
    16   1 H    0.994 --     6 C    0.965
    17   1 H    0.995 --     6 C    0.970
    18   1 H    0.993 --    10 C    0.954
    19   1 H    0.993 --    10 C    0.969
    20   1 H    0.994 --    10 C    0.981
 ---------------------------------------------------------------------------

Topologies differ in total number of bonds
Writing topology from bond orders to xtbtopo.mol

molecular dipole:
                 x           y           z       tot (Debye)
 q only:        0.000       1.476       0.002
   full:        0.001       1.656       0.003       4.210
molecular quadrupole (traceless):
                xx          xy          yy          xz          yz          zz
 q only:       14.266      -0.003     -12.235      -3.230      -0.008      -2.031
  q+dip:       12.568      -0.018     -12.967      -2.531      -0.006       0.399
   full:       13.330      -0.016     -14.365      -2.418      -0.008       1.035


           -------------------------------------------------
          | TOTAL ENERGY              -34.233724261135 Eh   |
          | GRADIENT NORM               0.041553788737 Eh/α |
          | HOMO-LUMO GAP               5.023061727162 eV   |
           -------------------------------------------------

------------------------------------------------------------------------
 * finished run on 2025/04/11 at 16:11:23.581     
------------------------------------------------------------------------
 total:
 * wall-time:     0 d,  0 h,  0 min,  0.173 sec
 *  cpu-time:     0 d,  0 h,  0 min,  0.025 sec
 * ratio c/w:     0.145 speedup
 SCF:
 * wall-time:     0 d,  0 h,  0 min,  0.036 sec
 *  cpu-time:     0 d,  0 h,  0 min,  0.016 sec
 * ratio c/w:     0.453 speedup

