! r2scan-3c def2/J RI DEFGRID2 scfconv6 printgap
%output
    printlevel normal
end
* xyz 0 1
C -3.822258295 -0.5424243098 -0.2753700161
C -2.6874233799 0.1020423854 0.5117121408
C -1.3354048791 -0.1462934354 -0.1522925489
C -0.1881780926 0.4862871078 0.6435301364
C 1.1133422577 0.3263401962 -0.0952691609
O 1.329536739 0.7232841807 -1.2212491699
O 2.0166672923 -0.3246503912 0.6291486694
C 3.3002714051 -0.5526937569 0.0401249772
H -3.8620193764 -0.1389374609 -1.2845140112
H -3.6768097746 -1.618032198 -0.3430201233
H -4.7767228669 -0.3537890912 0.2090717276
H -2.8611780858 1.1771713736 0.5847240783
H -2.6710830442 -0.3038960238 1.5248299027
H -1.3340843003 0.2730353205 -1.1607361959
H -1.1642445307 -1.2214885963 -0.2384789285
H -0.0937712382 0.0286368283 1.6272580601
H -0.3799630124 1.554897468 0.7566188685
H 3.7931979043 0.3999634026 -0.1563607426
H 3.1878513119 -1.0942972521 -0.8997148712
H 3.8560620443 -1.1374393231 0.7660049543
*
