      -----------------------------------------------------------      
     |                   =====================                   |     
     |                           x T B                           |     
     |                   =====================                   |     
     |                         S. Grimme                         |     
     |          Mulliken Center for Theoretical Chemistry        |     
     |                    University of Bonn                     |     
      -----------------------------------------------------------      

   * xtb version 6.7.1 (edcfbbe) compiled by 'albert@albert-system' on 2024-07-22

   xtb is free software: you can redistribute it and/or modify it under
   the terms of the GNU Lesser General Public License as published by
   the Free Software Foundation, either version 3 of the License, or
   (at your option) any later version.
   
   xtb is distributed in the hope that it will be useful,
   but WITHOUT ANY WARRANTY; without even the implied warranty of
   MERCHANTABILITY or FITNESS FOR A PARTICULAR PURPOSE.  See the
   GNU Lesser General Public License for more details.
   
   Cite this work as:
   * C. Bannwarth, E. Caldeweyher, S. Ehlert, A. Hansen, P. Pracht,
     J. Seibert, S. Spicher, S. Grimme, WIREs Comput. Mol. Sci., 2020, 11,
     e01493. DOI: 10.1002/wcms.1493
   
   for GFN2-xTB:
   * C. Bannwarth, S. Ehlert and S. Grimme., J. Chem. Theory Comput., 2019,
     15, 1652-1671. DOI: 10.1021/acs.jctc.8b01176
   for GFN1-xTB:
   * S. Grimme, C. Bannwarth, P. Shushkov, J. Chem. Theory Comput., 2017,
     13, 1989-2009. DOI: 10.1021/acs.jctc.7b00118
   for GFN0-xTB:
   * P. Pracht, E. Caldeweyher, S. Ehlert, S. Grimme, ChemRxiv, 2019, preprint.
     DOI: 10.26434/chemrxiv.8326202.v1
   for GFN-FF:
   * S. Spicher and S. Grimme, Angew. Chem. Int. Ed., 2020, 59, 15665-15673.
     DOI: 10.1002/anie.202004239
   
   for ALPB and GBSA implicit solvation:
   * S. Ehlert, M. Stahn, S. Spicher, S. Grimme, J. Chem. Theory Comput.,
     2021, 17, 4250-4261. DOI: 10.1021/acs.jctc.1c00471
   
   for ddCOSMO and CPCM-X implicit solvation:
   * M. Stahn, S. Ehlert, S. Grimme, J. Phys. Chem. A,
     2023, XX, XXXX-XXXX. DOI: 10.1021/acs.jpca.3c04382
   
   for DFT-D4:
   * E. Caldeweyher, C. Bannwarth and S. Grimme, J. Chem. Phys., 2017,
     147, 034112. DOI: 10.1063/1.4993215
   * E. Caldeweyher, S. Ehlert, A. Hansen, H. Neugebauer, S. Spicher,
     C. Bannwarth and S. Grimme, J. Chem. Phys., 2019, 150, 154122.
     DOI: 10.1063/1.5090222
   * E. Caldeweyher, J.-M. Mewes, S. Ehlert and S. Grimme, Phys. Chem. Chem. Phys.
     2020, 22, 8499-8512. DOI: 10.1039/D0CP00502A
   
   for sTDA-xTB:
   * S. Grimme and C. Bannwarth, J. Chem. Phys., 2016, 145, 054103.
     DOI: 10.1063/1.4959605
   
   in the mass-spec context:
   * V. Asgeirsson, C. Bauer and S. Grimme, Chem. Sci., 2017, 8, 4879.
     DOI: 10.1039/c7sc00601b
   * J. Koopman and S. Grimme, ACS Omega 2019, 4, 12, 15120-15133.
     DOI: 10.1021/acsomega.9b02011
   
   for metadynamics refer to:
   * S. Grimme, J. Chem. Theory Comput., 2019, 155, 2847-2862
     DOI: 10.1021/acs.jctc.9b00143
   
   for SPH calculations refer to:
   * S. Spicher and S. Grimme, J. Chem. Theory Comput., 2021, 17, 1701-1714
     DOI: 10.1021/acs.jctc.0c01306
   
   for ONIOM refer to:
   * C. Plett, A. Katbashev, S. Ehlert, S. Grimme, M. Bursch,
     Phys. Chem. Chem. Phys., 2023, 25, 17860-17868. DOI: 10.1039/D3CP02178E
   
   for DIPRO refer to:
   * J. Kohn, N. Gildemeister, S. Grimme, D. Fazzi, A. Hansen,
     J. Chem. Phys., 2023, just accepted.
   
   for PTB refer to:
   * S. Grimme, M. Mueller, A. Hansen, J. Chem. Phys., 2023, 158, 124111.
     DOI: 10.1063/5.0137838
   
   with help from (in alphabetical order)
   P. Atkinson, C. Bannwarth, F. Bohle, G. Brandenburg, E. Caldeweyher
   M. Checinski, S. Dohm, S. Ehlert, S. Ehrlich, I. Gerasimov, C. Hölzer
   A. Katbashev, J. Kohn, J. Koopman, C. Lavigne, S. Lehtola, F. März, M. Müller,
   F. Musil, H. Neugebauer, J. Pisarek, C. Plett, P. Pracht, F. Pultar,
   J. Seibert, P. Shushkov, S. Spicher, M. Stahn, M. Steiner, T. Strunk,
   J. Stückrath, T. Rose, and J. Unsleber
   
 * started run on 2025/04/11 at 14:23:16.120     
   ID    Z sym.   atoms
    1    6 C      1-6
    2    1 H      7-18

           -------------------------------------------------
          |                Calculation Setup                |
           -------------------------------------------------

          program call               : /software/projects/pawsey0265/mwang1/xtb/bin/xtb gas.coord --gfn2 --sp --chrg 0 --norestart --parallel 1
          hostname                   : nid002549
          coordinate file            : gas.coord
          omp threads                :                     1


           -------------------------------------------------
          |                 G F N 2 - x T B                 |
           -------------------------------------------------

        Reference                      10.1021/acs.jctc.8b01176
      * Hamiltonian:
        H0-scaling (s, p, d)           1.850000    2.230000    2.230000
        zeta-weighting                 0.500000
      * Dispersion:
        s8                             2.700000
        a1                             0.520000
        a2                             5.000000
        s9                             5.000000
      * Repulsion:
        kExp                           1.500000    1.000000
        rExp                           1.000000
      * Coulomb:
        alpha                          2.000000
        third order                    shell-resolved
        anisotropic                    true
        a3                             3.000000
        a5                             4.000000
        cn-shift                       1.200000
        cn-exp                         4.000000
        max-rad                        5.000000


          ...................................................
          :                      SETUP                      :
          :.................................................:
          :  # basis functions                  36          :
          :  # atomic orbitals                  36          :
          :  # shells                           24          :
          :  # electrons                        36          :
          :  max. iterations                   250          :
          :  Hamiltonian                  GFN2-xTB          :
          :  restarted?                      false          :
          :  GBSA solvation                  false          :
          :  PC potential                    false          :
          :  electronic temp.          300.0000000     K    :
          :  accuracy                    1.0000000          :
          :  -> integral cutoff          0.2500000E+02      :
          :  -> integral neglect         0.1000000E-07      :
          :  -> SCF convergence          0.1000000E-05 Eh   :
          :  -> wf. convergence          0.1000000E-03 e    :
          :  Broyden damping             0.4000000          :
          :  net charge                          0          :
          :  unpaired electrons                  0          :
          ...................................................

 iter      E             dE          RMSdq      gap      omega  full diag
   1    -19.2012955 -0.192013E+02  0.304E+00    5.44       0.0  T
   2    -19.2439191 -0.426236E-01  0.174E+00    5.37       1.0  T
   3    -19.2424536  0.146546E-02  0.922E-01    5.35       1.0  T
   4    -19.2436474 -0.119374E-02  0.536E-01    5.30       1.0  T
   5    -19.2467783 -0.313090E-02  0.650E-02    5.31       1.0  T
   6    -19.2467817 -0.338236E-05  0.323E-02    5.31       1.0  T
   7    -19.2467824 -0.701912E-06  0.521E-03    5.31       4.5  T
   8    -19.2467824 -0.640237E-07  0.131E-03    5.31      18.0  T
   9    -19.2467824 -0.184863E-08  0.325E-04    5.31      72.5  T
  10    -19.2467824 -0.311868E-09  0.123E-04    5.31     191.0  T

   *** convergence criteria satisfied after 10 iterations ***

         #    Occupation            Energy/Eh            Energy/eV
      -------------------------------------------------------------
         1        2.0000           -0.6237582             -16.9733
       ...           ...                  ...                  ...
        12        2.0000           -0.4619643             -12.5707
        13        2.0000           -0.4489202             -12.2157
        14        2.0000           -0.4388152             -11.9408
        15        2.0000           -0.4303406             -11.7102
        16        2.0000           -0.4216105             -11.4726
        17        2.0000           -0.4168006             -11.3417
        18        2.0000           -0.3938527             -10.7173 (HOMO)
        19                         -0.1987404              -5.4080 (LUMO)
        20                          0.0890033               2.4219
        21                          0.1073534               2.9212
        22                          0.1104511               3.0055
        23                          0.1300294               3.5383
       ...                                ...                  ...
        36                          0.6241828              16.9849
      -------------------------------------------------------------
                  HL-Gap            0.1951123 Eh            5.3093 eV
             Fermi-level           -0.2962966 Eh           -8.0626 eV

 SCC (total)                   0 d,  0 h,  0 min,  0.041 sec
 SCC setup                      ...        0 min,  0.000 sec (  0.636%)
 Dispersion                     ...        0 min,  0.000 sec (  0.344%)
 classical contributions        ...        0 min,  0.000 sec (  0.111%)
 integral evaluation            ...        0 min,  0.001 sec (  2.960%)
 iterations                     ...        0 min,  0.035 sec ( 83.575%)
 molecular gradient             ...        0 min,  0.005 sec ( 11.919%)
 printout                       ...        0 min,  0.000 sec (  0.390%)

         :::::::::::::::::::::::::::::::::::::::::::::::::::::
         ::                     SUMMARY                     ::
         :::::::::::::::::::::::::::::::::::::::::::::::::::::
         :: total energy             -18.931773063424 Eh    ::
         :: gradient norm              0.001424035114 Eh/a0 ::
         :: HOMO-LUMO gap              5.309274662752 eV    ::
         ::.................................................::
         :: SCC energy               -19.246740142097 Eh    ::
         :: -> isotropic ES            0.003417452167 Eh    ::
         :: -> anisotropic ES          0.005583432731 Eh    ::
         :: -> anisotropic XC          0.014003244252 Eh    ::
         :: -> dispersion             -0.010621272385 Eh    ::
         :: repulsion energy           0.314967078673 Eh    ::
         :: add. restraining           0.000000000000 Eh    ::
         :: total charge              -0.000000000000 e     ::
         :::::::::::::::::::::::::::::::::::::::::::::::::::::

           -------------------------------------------------
          |                Property Printout                |
           -------------------------------------------------

    * Orbital Energies and Occupations

         #    Occupation            Energy/Eh            Energy/eV
      -------------------------------------------------------------
         1        2.0000           -0.6237582             -16.9733
       ...           ...                  ...                  ...
         6        2.0000           -0.5379928             -14.6395
         7        2.0000           -0.5145402             -14.0014
         8        2.0000           -0.5070952             -13.7988
         9        2.0000           -0.4927039             -13.4072
        10        2.0000           -0.4800561             -13.0630
        11        2.0000           -0.4711956             -12.8219
        12        2.0000           -0.4619643             -12.5707
        13        2.0000           -0.4489202             -12.2157
        14        2.0000           -0.4388152             -11.9408
        15        2.0000           -0.4303406             -11.7102
        16        2.0000           -0.4216105             -11.4726
        17        2.0000           -0.4168006             -11.3417
        18        2.0000           -0.3938527             -10.7173 (HOMO)
        19                         -0.1987404              -5.4080 (LUMO)
        20                          0.0890033               2.4219
        21                          0.1073534               2.9212
        22                          0.1104511               3.0055
        23                          0.1300294               3.5383
        24                          0.1432347               3.8976
        25                          0.1511668               4.1135
        26                          0.1644028               4.4736
        27                          0.1893824               5.1534
        28                          0.1934067               5.2629
        29                          0.2018649               5.4930
       ...                                ...                  ...
        36                          0.6241828              16.9849
      -------------------------------------------------------------
                  HL-Gap            0.1951123 Eh            5.3093 eV
             Fermi-level           -0.2962966 Eh           -8.0626 eV

     #   Z          covCN         q      C6AA      α(0)
     1   6 C        3.751    -0.103    22.525     6.768
     2   6 C        3.799    -0.052    21.515     6.604
     3   6 C        3.801    -0.055    21.566     6.612
     4   6 C        3.805    -0.057    21.603     6.617
     5   6 C        2.886    -0.024    28.606     8.768
     6   6 C        2.837    -0.095    30.380     9.033
     7   1 H        0.925     0.030     2.581     2.512
     8   1 H        0.925     0.030     2.580     2.512
     9   1 H        0.925     0.040     2.453     2.449
    10   1 H        0.924     0.032     2.552     2.498
    11   1 H        0.924     0.027     2.635     2.539
    12   1 H        0.924     0.028     2.612     2.527
    13   1 H        0.924     0.036     2.501     2.473
    14   1 H        0.924     0.034     2.534     2.489
    15   1 H        0.924     0.035     2.519     2.482
    16   1 H        0.925     0.031     2.574     2.509
    17   1 H        0.926     0.030     2.583     2.513
    18   1 H        0.926     0.033     2.537     2.491

 Mol. C6AA /au·bohr⁶  :       2366.163999
 Mol. C8AA /au·bohr⁸  :      50707.984616
 Mol. α(0) /au        :         74.397936


Wiberg/Mayer (AO) data.
largest (>0.10) Wiberg bond orders for each atom

 ---------------------------------------------------------------------------
     #   Z sym  total        # sym  WBO       # sym  WBO       # sym  WBO
 ---------------------------------------------------------------------------
     1   6 C    3.997 --     2 C    1.021     8 H    0.988     7 H    0.988
                             9 H    0.983
     2   6 C    3.998 --     1 C    1.021     3 C    1.006    11 H    0.980
                            10 H    0.978
     3   6 C    3.997 --     2 C    1.006     4 C    0.987    12 H    0.978
                            13 H    0.978
     4   6 C    3.998 --     5 C    1.026     3 C    0.987    15 H    0.974
                            14 H    0.971
     5   6 C    3.992 --     6 C    1.976     4 C    1.026    16 H    0.966
     6   6 C    3.992 --     5 C    1.976    17 H    0.978    18 H    0.976
     7   1 H    0.999 --     1 C    0.988
     8   1 H    0.999 --     1 C    0.988
     9   1 H    0.998 --     1 C    0.983
    10   1 H    0.999 --     2 C    0.978
    11   1 H    0.999 --     2 C    0.980
    12   1 H    0.999 --     3 C    0.978
    13   1 H    0.999 --     3 C    0.978
    14   1 H    0.999 --     4 C    0.971
    15   1 H    0.999 --     4 C    0.974
    16   1 H    0.999 --     5 C    0.966
    17   1 H    0.999 --     6 C    0.978
    18   1 H    0.999 --     6 C    0.976
 ---------------------------------------------------------------------------

Topologies differ in total number of bonds
Writing topology from bond orders to xtbtopo.mol

molecular dipole:
                 x           y           z       tot (Debye)
 q only:        0.091      -0.098      -0.006
   full:        0.099      -0.104      -0.004       0.365
molecular quadrupole (traceless):
                xx          xy          yy          xz          yz          zz
 q only:       -0.653       0.193       0.401      -0.210      -0.195       0.252
  q+dip:       -1.371      -0.797       0.146      -1.285      -0.386       1.224
   full:       -1.006      -0.159       0.254      -0.623      -0.309       0.752


           -------------------------------------------------
          | TOTAL ENERGY              -18.931773063424 Eh   |
          | GRADIENT NORM               0.001424035114 Eh/α |
          | HOMO-LUMO GAP               5.309274662752 eV   |
           -------------------------------------------------

------------------------------------------------------------------------
 * finished run on 2025/04/11 at 14:23:16.207     
------------------------------------------------------------------------
 total:
 * wall-time:     0 d,  0 h,  0 min,  0.082 sec
 *  cpu-time:     0 d,  0 h,  0 min,  0.033 sec
 * ratio c/w:     0.400 speedup
 SCF:
 * wall-time:     0 d,  0 h,  0 min,  0.042 sec
 *  cpu-time:     0 d,  0 h,  0 min,  0.021 sec
 * ratio c/w:     0.497 speedup

