 Entering Gaussian System
 *********************************************
 Gaussian 98:
 frequency output generated by the xtb code
 *********************************************
                         Standard orientation:
 --------------------------------------------------------------------
  Center     Atomic     Atomic              Coordinates (Angstroms)
  Number     Number      Type              X           Y           Z
 --------------------------------------------------------------------
    1          6             0       -1.776611   -1.207032   -0.563654
    2          6             0       -2.360570   -0.064094    0.257677
    3          6             0       -1.331332    0.629165    1.150049
    4          6             0       -0.262036    1.393508    0.362119
    5          6             0        0.776499    0.514512   -0.282410
    6          8             0        1.190097    0.655080   -1.416975
    7          8             0        1.242352   -0.414107    0.544411
    8          6             0        2.253336   -1.291393    0.047390
    9          1             0       -1.290252   -1.932438    0.085098
   10          1             0       -2.562465   -1.713528   -1.118902
   11          1             0       -1.045725   -0.838288   -1.280788
   12          1             0       -2.808548    0.670818   -0.414532
   13          1             0       -3.154708   -0.458998    0.894468
   14          1             0       -0.844262   -0.106435    1.791008
   15          1             0       -1.853275    1.343697    1.787994
   16          1             0        0.279961    2.050149    1.046543
   17          1             0       -0.714105    2.007174   -0.417875
   18          1             0        2.554562   -1.901562    0.893006
   19          1             0        3.093357   -0.713852   -0.340634
   20          1             0        1.848325   -1.909265   -0.755368
 --------------------------------------------------------------------
     1 basis functions        1 primitive gaussians
     1 alpha electrons        1 beta electrons
 
 Harmonic frequencies (cm**-1), IR intensities (km*mol⁻¹),
 Raman scattering activities (A**4/amu), Raman depolarization ratios,
 reduced masses (AMU), force constants (mDyne/A) and normal coordinates:
                      1                      2                      3
                        a                      a                      a 
 Frequencies --    47.8401                57.5199                76.3287
 Red. masses --     1.4841                11.4998                 9.4367
 Frc consts  --     0.0000                 0.0000                 0.0000
 IR Inten    --     0.1449                 3.5938                 0.9661
 Raman Activ --     0.0000                 0.0000                 0.0000
 Depolar     --     0.0000                 0.0000                 0.0000
 Atom AN      X      Y      Z        X      Y      Z        X      Y      Z
   1   6    -0.01   0.02  -0.07     0.31  -0.21   0.25     0.18  -0.19   0.13
   2   6     0.00   0.04  -0.09     0.13  -0.12  -0.00     0.12   0.12  -0.35
   3   6    -0.02  -0.04  -0.00    -0.02   0.14  -0.03    -0.09   0.06  -0.05
   4   6     0.03  -0.01   0.09    -0.02   0.11  -0.05     0.14   0.09   0.29
   5   6    -0.00  -0.01   0.03    -0.00   0.11  -0.01    -0.04   0.03   0.10
   6   8    -0.08  -0.00   0.00     0.28   0.36   0.11    -0.42  -0.15  -0.04
   7   8     0.06   0.02   0.02    -0.32  -0.14  -0.14     0.19   0.12   0.09
   8   6     0.01  -0.03   0.01    -0.35  -0.20  -0.13    -0.08  -0.04  -0.16
   9   1    -0.03  -0.01  -0.01     0.11  -0.00   0.12    -0.04  -0.03   0.13
  10   1     0.00   0.02  -0.04     0.12  -0.12   0.09     0.08  -0.06   0.00
  11   1     0.02  -0.00  -0.00     0.09  -0.07   0.06     0.13  -0.15   0.07
  12   1     0.03   0.02  -0.03     0.04  -0.08  -0.05     0.16   0.02  -0.20
  13   1    -0.02   0.02  -0.04     0.03  -0.02  -0.00    -0.07   0.12  -0.17
  14   1    -0.02  -0.03  -0.01    -0.00   0.08   0.04    -0.08   0.00   0.01
  15   1    -0.01  -0.02   0.01    -0.04   0.06  -0.06    -0.07   0.01  -0.04
  16   1     0.01  -0.03   0.05    -0.01   0.05  -0.03     0.06  -0.07   0.16
  17   1     0.02   0.02   0.04    -0.01   0.02  -0.03     0.09   0.12   0.13
  18   1     0.39   0.37   0.13    -0.07  -0.02  -0.02    -0.08  -0.11  -0.09
  19   1    -0.23  -0.01  -0.51    -0.12  -0.08  -0.10     0.03  -0.05   0.01
  20   1    -0.17  -0.39   0.38    -0.14  -0.09   0.01    -0.07   0.09  -0.10
                      4                      5                      6
                        a                      a                      a 
 Frequencies --   104.4540               165.6017               212.7280
 Red. masses --     9.1913                 9.9154                10.0263
 Frc consts  --     0.0000                 0.0000                 0.0000
 IR Inten    --     0.1903                 3.3246                 7.6923
 Raman Activ --     0.0000                 0.0000                 0.0000
 Depolar     --     0.0000                 0.0000                 0.0000
 Atom AN      X      Y      Z        X      Y      Z        X      Y      Z
   1   6     0.41   0.26  -0.29     0.27   0.19   0.06     0.04  -0.05  -0.03
   2   6     0.16  -0.16   0.12    -0.03   0.09  -0.02     0.24   0.06  -0.03
   3   6     0.07   0.02   0.07    -0.20   0.24   0.05     0.27  -0.16   0.10
   4   6    -0.02   0.08  -0.00     0.01  -0.07   0.06     0.10   0.07   0.11
   5   6    -0.08   0.01   0.00    -0.15  -0.22   0.01    -0.13   0.03  -0.19
   6   8    -0.27  -0.24  -0.09    -0.10  -0.11   0.05    -0.17   0.08  -0.21
   7   8    -0.02   0.16   0.12    -0.23  -0.42  -0.13    -0.42  -0.09  -0.22
   8   6    -0.26  -0.12   0.09     0.31   0.19  -0.07     0.01   0.07   0.37
   9   1     0.28   0.10  -0.17     0.20   0.14   0.03    -0.13  -0.10   0.00
  10   1     0.13   0.00  -0.03     0.11  -0.06   0.08    -0.00   0.11  -0.10
  11   1    -0.01   0.21  -0.14    -0.00   0.10  -0.04     0.12  -0.07   0.07
  12   1    -0.08  -0.05   0.11    -0.03   0.00  -0.02     0.14   0.05  -0.02
  13   1     0.13  -0.18   0.06    -0.01  -0.01  -0.03     0.02   0.06  -0.04
  14   1     0.05   0.04   0.03    -0.11   0.10   0.09     0.11  -0.09  -0.05
  15   1    -0.00  -0.00   0.01    -0.08   0.13  -0.07     0.09  -0.10   0.10
  16   1    -0.00   0.04  -0.02     0.05  -0.06   0.02     0.09  -0.04   0.05
  17   1    -0.03   0.01  -0.00     0.05   0.02   0.02    -0.01   0.08   0.10
  18   1    -0.11  -0.05   0.03     0.16   0.09  -0.02    -0.06   0.09   0.18
  19   1    -0.04  -0.10   0.01     0.01   0.20   0.02     0.01   0.06   0.18
  20   1    -0.13  -0.01   0.04     0.21   0.01  -0.05     0.15  -0.06   0.09
                      7                      8                      9
                        a                      a                      a 
 Frequencies --   254.1860               285.8739               321.8234
 Red. masses --     3.3081                10.6223                 6.4273
 Frc consts  --     0.0000                 0.0000                 0.0000
 IR Inten    --     3.1962                16.1597                 1.3522
 Raman Activ --     0.0000                 0.0000                 0.0000
 Depolar     --     0.0000                 0.0000                 0.0000
 Atom AN      X      Y      Z        X      Y      Z        X      Y      Z
   1   6     0.20   0.13   0.04     0.13   0.15   0.12     0.19   0.19   0.19
   2   6     0.02   0.00   0.07    -0.22   0.01   0.04    -0.04   0.31  -0.16
   3   6    -0.03   0.03   0.09    -0.24   0.02   0.04     0.09  -0.33   0.13
   4   6    -0.15  -0.05  -0.15    -0.06  -0.21   0.04    -0.24  -0.18  -0.14
   5   6    -0.06  -0.07   0.04     0.05  -0.03  -0.16    -0.06  -0.03  -0.03
   6   8     0.04  -0.15   0.07    -0.11   0.35  -0.20     0.06  -0.03   0.02
   7   8    -0.01  -0.03   0.08     0.29   0.07  -0.22     0.01   0.06   0.05
   8   6    -0.03   0.08  -0.16     0.14  -0.35   0.24    -0.06   0.03  -0.03
   9   1    -0.34  -0.20   0.04    -0.01   0.04   0.06     0.18   0.20   0.13
  10   1     0.15   0.33  -0.39     0.12   0.04  -0.07     0.10  -0.13   0.16
  11   1     0.40   0.02   0.35     0.11   0.09   0.13    -0.02   0.05  -0.03
  12   1     0.02   0.01   0.02    -0.07  -0.01   0.01     0.16   0.15  -0.09
  13   1    -0.01  -0.03  -0.01    -0.06  -0.03  -0.01    -0.13   0.16  -0.16
  14   1     0.01   0.02   0.03    -0.12   0.01   0.06     0.06  -0.21  -0.13
  15   1    -0.00   0.02   0.02    -0.05   0.06  -0.04     0.12  -0.17   0.20
  16   1    -0.06   0.08  -0.11    -0.00  -0.09   0.03    -0.10   0.07  -0.13
  17   1    -0.08  -0.10  -0.09    -0.00  -0.03   0.03    -0.16  -0.16  -0.07
  18   1     0.04  -0.00  -0.08    -0.09  -0.06   0.15    -0.01  -0.00  -0.02
  19   1    -0.03   0.05  -0.06     0.13  -0.21   0.10    -0.02  -0.00  -0.02
  20   1    -0.03   0.05  -0.05     0.04  -0.13   0.09    -0.04   0.02  -0.01
                     10                     11                     12
                        a                      a                      a 
 Frequencies --   398.5647               475.5418               587.7265
 Red. masses --     9.4538                 8.6754                11.4342
 Frc consts  --     0.0000                 0.0000                 0.0000
 IR Inten    --     8.1294                11.4071                13.9438
 Raman Activ --     0.0000                 0.0000                 0.0000
 Depolar     --     0.0000                 0.0000                 0.0000
 Atom AN      X      Y      Z        X      Y      Z        X      Y      Z
   1   6    -0.07  -0.10  -0.14     0.06   0.08   0.14    -0.01  -0.03  -0.03
   2   6     0.29   0.06  -0.06    -0.28  -0.04  -0.00    -0.03  -0.03  -0.01
   3   6     0.11   0.16   0.09     0.14  -0.10  -0.42    -0.17  -0.01   0.21
   4   6    -0.15   0.07  -0.18     0.10   0.30  -0.09    -0.22   0.34   0.20
   5   6    -0.03  -0.04   0.21     0.11   0.12   0.21     0.17   0.40   0.08
   6   8    -0.39   0.27   0.16    -0.27   0.04   0.10     0.17  -0.40  -0.04
   7   8     0.12  -0.20   0.01    -0.03  -0.21   0.01    -0.01  -0.04  -0.35
   8   6     0.17  -0.20   0.03     0.11  -0.10   0.00     0.16  -0.15  -0.04
   9   1    -0.02  -0.06  -0.07     0.01   0.07   0.10     0.01  -0.01  -0.02
  10   1    -0.11   0.03   0.04     0.12  -0.05  -0.04    -0.01  -0.01  -0.00
  11   1    -0.06  -0.10  -0.11     0.07   0.08   0.12    -0.01  -0.00  -0.01
  12   1     0.14   0.04  -0.03    -0.22  -0.06   0.04     0.04   0.01  -0.02
  13   1     0.04   0.06  -0.05     0.04  -0.06   0.12    -0.06  -0.00  -0.06
  14   1     0.05   0.09   0.06     0.14  -0.13  -0.31    -0.02  -0.00   0.04
  15   1    -0.02   0.05  -0.02     0.12  -0.16   0.09    -0.10  -0.05   0.08
  16   1    -0.12   0.25  -0.22    -0.07   0.09   0.04    -0.18   0.21   0.03
  17   1    -0.10  -0.22  -0.21     0.10   0.07  -0.08    -0.15  -0.01   0.02
  18   1     0.03  -0.05   0.02     0.04  -0.02   0.01    -0.03   0.03   0.07
  19   1     0.06  -0.06   0.02     0.01   0.01   0.02     0.07  -0.07   0.02
  20   1     0.06  -0.07   0.01     0.06  -0.04  -0.00     0.11  -0.10   0.01
                     13                     14                     15
                        a                      a                      a 
 Frequencies --   649.8210               812.0224               848.1004
 Red. masses --    10.1230                 2.8998                 9.8449
 Frc consts  --     0.0000                 0.0000                 0.0000
 IR Inten    --    23.0872                11.5923                18.0645
 Raman Activ --     0.0000                 0.0000                 0.0000
 Depolar     --     0.0000                 0.0000                 0.0000
 Atom AN      X      Y      Z        X      Y      Z        X      Y      Z
   1   6    -0.01   0.03   0.01     0.04   0.05  -0.06     0.04  -0.16  -0.13
   2   6    -0.07  -0.02   0.00     0.12   0.21  -0.21    -0.20  -0.01  -0.05
   3   6    -0.01  -0.11   0.03    -0.03   0.04   0.02    -0.16   0.20   0.34
   4   6     0.23  -0.29   0.03     0.01  -0.13   0.15     0.07   0.25   0.05
   5   6     0.58   0.25   0.12    -0.00  -0.01   0.00     0.14  -0.14  -0.20
   6   8    -0.20   0.02  -0.24     0.02  -0.03   0.01     0.05   0.14  -0.34
   7   8    -0.21  -0.10   0.06     0.00   0.04  -0.08    -0.01  -0.14   0.35
   8   6    -0.16   0.15   0.05    -0.04   0.04   0.00     0.03  -0.06   0.05
   9   1     0.01   0.02   0.01    -0.19   0.12   0.25     0.01  -0.03  -0.01
  10   1     0.03  -0.01  -0.02    -0.07  -0.03   0.14     0.03  -0.08  -0.04
  11   1    -0.00   0.04   0.02     0.12  -0.37  -0.09     0.02  -0.05  -0.03
  12   1     0.03   0.02  -0.01    -0.42   0.01   0.20    -0.08  -0.04  -0.03
  13   1    -0.05   0.02  -0.02     0.36  -0.32   0.13    -0.06  -0.07  -0.06
  14   1    -0.15   0.02   0.17    -0.11  -0.10  -0.05     0.05  -0.09  -0.14
  15   1    -0.01   0.11  -0.16     0.00  -0.02   0.05     0.03  -0.10   0.33
  16   1    -0.12   0.12  -0.05    -0.01   0.08  -0.06     0.09   0.13  -0.11
  17   1    -0.00  -0.25  -0.09    -0.08  -0.15  -0.00    -0.02   0.01  -0.01
  18   1     0.02   0.02  -0.03    -0.03   0.03   0.02     0.16  -0.12  -0.12
  19   1    -0.09   0.11   0.01     0.00  -0.01   0.00    -0.07   0.08  -0.02
  20   1    -0.02   0.05  -0.01    -0.00  -0.00   0.01    -0.05   0.08  -0.03
                     16                     17                     18
                        a                      a                      a 
 Frequencies --   865.9990               911.1790               949.1877
 Red. masses --     8.0386                 6.3869                 6.1348
 Frc consts  --     0.0000                 0.0000                 0.0000
 IR Inten    --     7.1586                16.0944                19.3244
 Raman Activ --     0.0000                 0.0000                 0.0000
 Depolar     --     0.0000                 0.0000                 0.0000
 Atom AN      X      Y      Z        X      Y      Z        X      Y      Z
   1   6    -0.05  -0.14  -0.10    -0.15   0.11  -0.01    -0.02  -0.15  -0.28
   2   6    -0.30  -0.06  -0.08    -0.01  -0.06  -0.08    -0.20   0.04   0.02
   3   6     0.17   0.04   0.12     0.22  -0.28  -0.07     0.13   0.07   0.28
   4   6     0.37   0.08   0.19    -0.04   0.24   0.09    -0.07  -0.10  -0.33
   5   6    -0.21  -0.20   0.03    -0.15  -0.00  -0.16     0.08   0.19   0.13
   6   8     0.03  -0.02   0.19     0.06   0.06  -0.13    -0.09  -0.04   0.12
   7   8     0.07   0.14  -0.26    -0.06  -0.03   0.27    -0.04   0.01  -0.05
   8   6    -0.10   0.12  -0.01     0.16  -0.17  -0.01     0.03  -0.01  -0.04
   9   1     0.06   0.04   0.01    -0.04   0.20   0.20    -0.05   0.16   0.19
  10   1     0.16  -0.18  -0.15     0.12  -0.16  -0.05     0.16  -0.28  -0.09
  11   1     0.01   0.12   0.08     0.06   0.02   0.09     0.12  -0.15   0.00
  12   1    -0.04  -0.01  -0.04     0.01   0.13   0.13     0.01   0.19   0.16
  13   1    -0.10   0.06   0.00     0.03  -0.01   0.02    -0.09  -0.07  -0.09
  14   1    -0.06  -0.02   0.08    -0.04   0.15   0.30     0.17   0.13   0.10
  15   1     0.05   0.05  -0.01    -0.16   0.07  -0.35     0.11   0.10   0.04
  16   1     0.11   0.30  -0.23    -0.04   0.12  -0.01     0.12  -0.27   0.05
  17   1    -0.03  -0.26  -0.10    -0.21   0.02   0.10     0.13   0.21   0.03
  18   1    -0.14   0.10   0.09     0.14  -0.12  -0.09    -0.04   0.03   0.03
  19   1     0.04  -0.05   0.02    -0.02   0.03  -0.02     0.03  -0.03   0.01
  20   1     0.01  -0.03   0.03    -0.01   0.02  -0.03     0.02  -0.03   0.01
                     19                     20                     21
                        a                      a                      a 
 Frequencies --  1002.0205              1037.0761              1087.8259
 Red. masses --     7.4865                 9.2174                 7.1243
 Frc consts  --     0.0000                 0.0000                 0.0000
 IR Inten    --    13.4005                12.3471               108.3883
 Raman Activ --     0.0000                 0.0000                 0.0000
 Depolar     --     0.0000                 0.0000                 0.0000
 Atom AN      X      Y      Z        X      Y      Z        X      Y      Z
   1   6     0.04  -0.25  -0.05    -0.12  -0.17  -0.10    -0.18  -0.02  -0.06
   2   6    -0.06   0.21  -0.01     0.11   0.15   0.03     0.24  -0.02   0.07
   3   6     0.19   0.18  -0.07     0.10   0.16  -0.11    -0.18   0.11  -0.06
   4   6    -0.10  -0.25   0.09    -0.33  -0.03   0.17     0.04  -0.14   0.14
   5   6    -0.08   0.25  -0.01     0.11  -0.11  -0.03     0.05  -0.15   0.01
   6   8    -0.00  -0.04   0.02     0.03   0.01  -0.11     0.02  -0.00  -0.03
   7   8    -0.23   0.16   0.14     0.32  -0.31  -0.09    -0.29   0.33  -0.01
   8   6     0.24  -0.23  -0.08    -0.28   0.24   0.15     0.20  -0.16  -0.08
   9   1     0.11  -0.11  -0.15     0.08   0.06   0.02     0.02   0.14   0.11
  10   1     0.08  -0.05  -0.13     0.18  -0.20  -0.18     0.15  -0.18  -0.12
  11   1    -0.03   0.13   0.04     0.02   0.15   0.12     0.03   0.11   0.11
  12   1    -0.15  -0.12  -0.11    -0.02   0.04   0.04     0.10   0.10   0.11
  13   1     0.10   0.17   0.21     0.11   0.17   0.19     0.07   0.08   0.07
  14   1    -0.16  -0.12  -0.05     0.09   0.06  -0.05     0.17   0.06  -0.14
  15   1     0.22   0.14   0.01    -0.03  -0.03   0.01    -0.17  -0.18   0.12
  16   1     0.06  -0.06  -0.05    -0.18  -0.03   0.13    -0.19   0.04   0.11
  17   1    -0.24  -0.05   0.16    -0.11   0.02   0.08     0.30  -0.14  -0.22
  18   1     0.09  -0.08  -0.05    -0.03   0.03   0.01     0.03  -0.04  -0.02
  19   1     0.02  -0.01  -0.02    -0.05   0.03   0.02     0.01   0.00  -0.03
  20   1     0.02  -0.01  -0.03    -0.03   0.04   0.02    -0.02   0.01  -0.02
                     22                     23                     24
                        a                      a                      a 
 Frequencies --  1097.4597              1114.7019              1133.5824
 Red. masses --     6.1862                 3.8650                 7.0529
 Frc consts  --     0.0000                 0.0000                 0.0000
 IR Inten    --     3.8809                 2.0690                 0.5278
 Raman Activ --     0.0000                 0.0000                 0.0000
 Depolar     --     0.0000                 0.0000                 0.0000
 Atom AN      X      Y      Z        X      Y      Z        X      Y      Z
   1   6    -0.30   0.15   0.19    -0.03   0.00   0.01     0.07  -0.22  -0.05
   2   6     0.25  -0.20  -0.33     0.04  -0.01  -0.02     0.10   0.32   0.15
   3   6    -0.04   0.04   0.20    -0.02  -0.00   0.02    -0.25  -0.28   0.05
   4   6    -0.01  -0.03  -0.15     0.01  -0.01  -0.02     0.11   0.21  -0.21
   5   6     0.10   0.11   0.06    -0.02   0.01  -0.01     0.04  -0.07  -0.00
   6   8    -0.05  -0.01   0.04     0.01   0.01   0.01    -0.01   0.04  -0.04
   7   8    -0.01  -0.06   0.02     0.16   0.15   0.09    -0.03  -0.06   0.18
   8   6     0.01   0.05  -0.04    -0.29  -0.27  -0.14     0.03   0.09  -0.20
   9   1     0.04   0.12   0.05     0.01   0.01   0.00     0.08  -0.08  -0.09
  10   1     0.08  -0.05  -0.09     0.01  -0.01  -0.02     0.05  -0.04  -0.07
  11   1    -0.07   0.27   0.18    -0.00   0.03   0.02     0.00   0.04   0.02
  12   1    -0.08  -0.19  -0.13    -0.01  -0.01  -0.00    -0.05   0.13   0.15
  13   1     0.17  -0.05   0.05     0.02   0.00   0.01     0.11   0.13   0.19
  14   1    -0.02  -0.05  -0.01    -0.01  -0.01  -0.00    -0.29  -0.16   0.07
  15   1    -0.17  -0.14   0.08    -0.02  -0.01   0.01    -0.13  -0.05  -0.06
  16   1     0.37  -0.11  -0.23     0.02  -0.01  -0.01     0.04   0.01  -0.02
  17   1    -0.07   0.09   0.08     0.01   0.00  -0.01     0.06   0.09  -0.04
  18   1    -0.07   0.04   0.04     0.12   0.20   0.09    -0.23   0.17   0.15
  19   1     0.06  -0.07  -0.01    -0.25   0.41   0.28     0.15  -0.14   0.03
  20   1    -0.02  -0.02   0.03     0.53  -0.25  -0.19     0.05  -0.13   0.05
                     25                     26                     27
                        a                      a                      a 
 Frequencies --  1144.7571              1186.5131              1201.1416
 Red. masses --     6.6385                 5.1062                 8.7452
 Frc consts  --     0.0000                 0.0000                 0.0000
 IR Inten    --    28.0932                11.1388               267.1040
 Raman Activ --     0.0000                 0.0000                 0.0000
 Depolar     --     0.0000                 0.0000                 0.0000
 Atom AN      X      Y      Z        X      Y      Z        X      Y      Z
   1   6     0.00  -0.10  -0.00     0.04   0.06  -0.18     0.15  -0.08   0.06
   2   6     0.09   0.15   0.05     0.06  -0.11   0.34    -0.19   0.14  -0.08
   3   6    -0.17  -0.18   0.07    -0.19   0.09  -0.33     0.13  -0.07  -0.03
   4   6     0.12   0.06  -0.17     0.00  -0.07   0.14    -0.24   0.10   0.06
   5   6    -0.13   0.16   0.03     0.03   0.14   0.00     0.40  -0.40   0.16
   6   8    -0.02  -0.05   0.13    -0.02  -0.02   0.02    -0.05   0.02   0.04
   7   8     0.12   0.02  -0.31     0.03  -0.05   0.02    -0.15   0.25  -0.18
   8   6    -0.07  -0.09   0.35    -0.02   0.01   0.00     0.04  -0.07   0.01
   9   1     0.05  -0.04  -0.05    -0.08   0.10   0.13     0.02  -0.13  -0.10
  10   1     0.04  -0.03  -0.05     0.01  -0.08   0.05    -0.06   0.10   0.03
  11   1    -0.01   0.05   0.03     0.10  -0.16  -0.05    -0.04  -0.00  -0.06
  12   1    -0.03   0.06   0.08     0.24   0.13   0.10    -0.10   0.07   0.06
  13   1     0.08   0.06   0.10    -0.13   0.14   0.00     0.02   0.05   0.07
  14   1    -0.16  -0.11   0.03    -0.03  -0.05  -0.18     0.16   0.16   0.09
  15   1    -0.08  -0.04  -0.03    -0.10  -0.11   0.02    -0.24  -0.14  -0.08
  16   1     0.11  -0.02  -0.07     0.43   0.02  -0.33     0.24  -0.05  -0.14
  17   1     0.14   0.03  -0.09    -0.23  -0.06   0.14    -0.10   0.09   0.10
  18   1     0.35  -0.27  -0.23     0.00   0.00   0.00     0.03  -0.01  -0.00
  19   1    -0.22   0.18  -0.06     0.00  -0.00   0.01    -0.07   0.08  -0.01
  20   1    -0.11   0.22  -0.06     0.01  -0.01   0.00    -0.03   0.06  -0.03
                     28                     29                     30
                        a                      a                      a 
 Frequencies --  1226.9499              1265.6764              1310.0451
 Red. masses --     5.9381                 2.5719                 4.6443
 Frc consts  --     0.0000                 0.0000                 0.0000
 IR Inten    --   151.7767                 3.5588                 4.8227
 Raman Activ --     0.0000                 0.0000                 0.0000
 Depolar     --     0.0000                 0.0000                 0.0000
 Atom AN      X      Y      Z        X      Y      Z        X      Y      Z
   1   6     0.11  -0.10   0.11    -0.10  -0.17   0.20     0.04  -0.02  -0.00
   2   6    -0.16   0.13  -0.15     0.12   0.06  -0.07    -0.04   0.02  -0.00
   3   6     0.02  -0.03  -0.01    -0.09   0.07  -0.14    -0.06   0.12   0.05
   4   6     0.03  -0.19   0.15     0.03  -0.00   0.04     0.43  -0.11  -0.28
   5   6    -0.23   0.37  -0.10     0.03  -0.04   0.01    -0.04   0.00  -0.03
   6   8     0.05  -0.03  -0.07    -0.01   0.00   0.02    -0.04  -0.00   0.12
   7   8     0.07  -0.17   0.15    -0.01   0.01  -0.02    -0.00   0.02  -0.03
   8   6    -0.02   0.04  -0.03     0.00  -0.01   0.00     0.00  -0.01   0.01
   9   1     0.06  -0.15  -0.14     0.13  -0.09  -0.13    -0.01  -0.02  -0.01
  10   1    -0.05   0.11   0.00     0.04   0.02  -0.09    -0.01   0.02   0.00
  11   1    -0.06   0.04  -0.03    -0.10   0.22   0.10    -0.01  -0.01  -0.02
  12   1    -0.10   0.15   0.13     0.05   0.37   0.36    -0.03   0.02   0.02
  13   1     0.04  -0.00   0.04    -0.03  -0.46  -0.39    -0.02   0.05   0.02
  14   1     0.38   0.26   0.02    -0.02  -0.03  -0.10     0.15   0.08  -0.06
  15   1    -0.27  -0.18  -0.04     0.19   0.12   0.02    -0.32  -0.24   0.07
  16   1     0.14   0.01  -0.12     0.02   0.03  -0.03    -0.29  -0.00   0.21
  17   1     0.21  -0.14  -0.16    -0.17  -0.00   0.11    -0.49  -0.01   0.31
  18   1    -0.02   0.01   0.01    -0.00   0.00   0.00     0.02  -0.02  -0.02
  19   1     0.05  -0.06   0.02    -0.01   0.01  -0.00    -0.00  -0.00  -0.01
  20   1     0.03  -0.05   0.02    -0.01   0.01  -0.00     0.00   0.00  -0.00
                     31                     32                     33
                        a                      a                      a 
 Frequencies --  1341.4316              1349.6198              1376.7178
 Red. masses --     4.2567                 4.9723                 2.6039
 Frc consts  --     0.0000                 0.0000                 0.0000
 IR Inten    --     8.2290                 1.8358                16.3283
 Raman Activ --     0.0000                 0.0000                 0.0000
 Depolar     --     0.0000                 0.0000                 0.0000
 Atom AN      X      Y      Z        X      Y      Z        X      Y      Z
   1   6    -0.05   0.01   0.02    -0.13  -0.01  -0.05     0.01  -0.01  -0.00
   2   6    -0.05   0.12   0.20     0.12   0.39   0.29    -0.01  -0.00   0.00
   3   6     0.41   0.22  -0.03    -0.17  -0.23  -0.06     0.02   0.02   0.01
   4   6    -0.10  -0.04  -0.01     0.06   0.02   0.03     0.01  -0.01  -0.01
   5   6    -0.02   0.05  -0.01     0.01  -0.01   0.00    -0.06   0.07   0.00
   6   8     0.01  -0.01  -0.02    -0.01   0.00   0.01     0.01   0.00  -0.04
   7   8     0.00  -0.01   0.02    -0.00   0.01  -0.00     0.10  -0.11   0.00
   8   6    -0.01   0.01   0.00     0.01  -0.01  -0.00     0.23  -0.22  -0.03
   9   1     0.03  -0.04  -0.07     0.06   0.02  -0.05    -0.01   0.00   0.01
  10   1     0.07  -0.08  -0.04     0.11  -0.13  -0.09    -0.01   0.01   0.01
  11   1     0.02  -0.07  -0.01     0.05  -0.06   0.03    -0.00   0.01  -0.00
  12   1     0.00  -0.08  -0.08    -0.11  -0.39  -0.36     0.00   0.01   0.01
  13   1    -0.12  -0.26  -0.27    -0.03  -0.28  -0.23    -0.01  -0.00  -0.00
  14   1    -0.36  -0.24   0.00     0.30   0.21   0.03    -0.02  -0.02  -0.01
  15   1    -0.44  -0.29  -0.06     0.04   0.06  -0.07    -0.04  -0.02  -0.01
  16   1    -0.02  -0.07   0.05     0.07   0.01  -0.04    -0.00  -0.02   0.01
  17   1     0.13  -0.01  -0.09    -0.07  -0.04   0.03     0.00  -0.02  -0.01
  18   1     0.02  -0.01  -0.02    -0.02   0.01   0.01    -0.39   0.24   0.34
  19   1     0.02  -0.03   0.00    -0.01   0.02  -0.00    -0.31   0.44  -0.02
  20   1     0.03  -0.02   0.00    -0.01   0.01   0.00    -0.40   0.30  -0.04
                     34                     35                     36
                        a                      a                      a 
 Frequencies --  1414.9160              1426.4924              1431.3572
 Red. masses --     3.2185                 1.5194                 1.9744
 Frc consts  --     0.0000                 0.0000                 0.0000
 IR Inten    --     1.0791                12.4955                 9.1274
 Raman Activ --     0.0000                 0.0000                 0.0000
 Depolar     --     0.0000                 0.0000                 0.0000
 Atom AN      X      Y      Z        X      Y      Z        X      Y      Z
   1   6     0.14  -0.33  -0.23     0.01  -0.02  -0.02     0.01  -0.01  -0.01
   2   6     0.03   0.08   0.08     0.00   0.00  -0.00    -0.02   0.03   0.02
   3   6     0.04  -0.01  -0.03     0.00   0.00  -0.01     0.01  -0.01   0.01
   4   6    -0.01  -0.00   0.00    -0.00   0.02   0.00     0.00  -0.29   0.00
   5   6    -0.01   0.01  -0.00     0.00  -0.00   0.00    -0.01  -0.00  -0.01
   6   8     0.00  -0.00   0.00     0.00  -0.00  -0.00    -0.01  -0.01   0.01
   7   8     0.00  -0.00  -0.00     0.02   0.03   0.01     0.01   0.00   0.00
   8   6    -0.01  -0.00  -0.01     0.13   0.15   0.06     0.02   0.00   0.01
   9   1    -0.07   0.30   0.41     0.01   0.02   0.02    -0.02   0.00   0.02
  10   1    -0.34   0.32   0.15    -0.03   0.02   0.02    -0.00  -0.00   0.00
  11   1    -0.05   0.46   0.17     0.00   0.03   0.02    -0.01   0.02  -0.00
  12   1    -0.08  -0.09  -0.04    -0.01  -0.00   0.00     0.04  -0.01  -0.04
  13   1    -0.07  -0.04  -0.11    -0.01   0.00  -0.01     0.03  -0.05   0.01
  14   1    -0.03   0.02   0.04    -0.01   0.00   0.01     0.01  -0.02  -0.02
  15   1    -0.04  -0.05   0.02     0.00  -0.01   0.01    -0.04  -0.01  -0.03
  16   1     0.01  -0.01   0.00     0.02  -0.04   0.02    -0.22   0.51  -0.34
  17   1     0.02  -0.01  -0.02    -0.02  -0.04  -0.02     0.26   0.56   0.31
  18   1     0.05   0.02  -0.00    -0.49  -0.49  -0.18    -0.04  -0.03  -0.00
  19   1     0.03  -0.02   0.04    -0.27   0.24  -0.28    -0.03   0.03  -0.03
  20   1    -0.02   0.01   0.00     0.21  -0.38   0.21     0.01  -0.02   0.01
                     37                     38                     39
                        a                      a                      a 
 Frequencies --  1452.2111              1470.7083              1486.6291
 Red. masses --     1.6020                 1.9016                 1.9215
 Frc consts  --     0.0000                 0.0000                 0.0000
 IR Inten    --     1.7917                 1.1530                 0.2490
 Raman Activ --     0.0000                 0.0000                 0.0000
 Depolar     --     0.0000                 0.0000                 0.0000
 Atom AN      X      Y      Z        X      Y      Z        X      Y      Z
   1   6    -0.00  -0.01  -0.01    -0.03  -0.00   0.03     0.03  -0.03  -0.03
   2   6     0.00  -0.00   0.00    -0.05   0.02  -0.01    -0.26   0.08   0.00
   3   6     0.00   0.00  -0.00    -0.00  -0.00  -0.27    -0.01   0.01   0.06
   4   6     0.00  -0.00   0.00     0.01  -0.02  -0.02     0.01   0.03  -0.01
   5   6    -0.01   0.00   0.02    -0.01   0.02  -0.01    -0.00  -0.00   0.00
   6   8     0.01   0.01  -0.03    -0.00  -0.00   0.01     0.00   0.00  -0.00
   7   8    -0.02  -0.00   0.06     0.01  -0.01   0.00    -0.00   0.00   0.00
   8   6    -0.03  -0.05   0.21     0.00  -0.00  -0.00    -0.00   0.00   0.00
   9   1     0.02   0.02   0.01     0.07   0.03  -0.02    -0.09  -0.00   0.06
  10   1    -0.02   0.02   0.00     0.01   0.04  -0.06    -0.02  -0.01   0.03
  11   1     0.01   0.00   0.02     0.01  -0.06  -0.01    -0.05   0.09  -0.01
  12   1    -0.01  -0.00   0.00     0.13   0.02  -0.07     0.58   0.11  -0.28
  13   1    -0.01   0.01  -0.01     0.10  -0.10   0.06     0.42  -0.39   0.30
  14   1     0.00   0.01   0.01    -0.24   0.32   0.53     0.04  -0.07  -0.11
  15   1     0.00  -0.01   0.01     0.20  -0.33   0.52    -0.06   0.06  -0.10
  16   1     0.00  -0.00   0.00    -0.00   0.01  -0.01     0.01  -0.05   0.04
  17   1    -0.00  -0.01  -0.00     0.01   0.02   0.01    -0.04  -0.05  -0.02
  18   1    -0.13   0.12   0.16     0.00   0.01   0.01    -0.00  -0.00  -0.00
  19   1    -0.10  -0.26  -0.60    -0.00   0.01   0.01    -0.00  -0.01  -0.01
  20   1     0.42   0.29  -0.43    -0.01   0.01   0.00     0.01  -0.00  -0.01
                     40                     41                     42
                        a                      a                      a 
 Frequencies --  1501.3454              1514.3253              1687.7798
 Red. masses --     1.5703                 1.5582                13.3033
 Frc consts  --     0.0000                 0.0000                 0.0000
 IR Inten    --     1.4901                 1.1858               678.8348
 Raman Activ --     0.0000                 0.0000                 0.0000
 Depolar     --     0.0000                 0.0000                 0.0000
 Atom AN      X      Y      Z        X      Y      Z        X      Y      Z
   1   6     0.15   0.12  -0.08     0.12  -0.05   0.17    -0.00  -0.00   0.00
   2   6     0.06   0.04  -0.00     0.05  -0.00   0.04    -0.00  -0.00   0.00
   3   6    -0.01  -0.01  -0.04    -0.01  -0.00  -0.01     0.00   0.00  -0.01
   4   6     0.00  -0.00  -0.00    -0.00   0.00   0.00     0.06  -0.04  -0.06
   5   6    -0.01   0.01   0.00     0.00   0.01  -0.01    -0.29  -0.05   0.74
   6   8     0.00  -0.00  -0.01     0.00   0.00   0.00     0.21   0.06  -0.55
   7   8     0.00  -0.00   0.00     0.00  -0.00   0.01     0.00   0.02  -0.05
   8   6     0.00  -0.00   0.01     0.00   0.00   0.00    -0.01   0.00   0.00
   9   1    -0.55  -0.38  -0.02    -0.27   0.05   0.28     0.00   0.00   0.00
  10   1     0.07  -0.46   0.34     0.25   0.12  -0.45     0.00   0.00  -0.00
  11   1    -0.13   0.35   0.03    -0.50   0.02  -0.50    -0.00  -0.00  -0.01
  12   1    -0.06  -0.02   0.02    -0.02  -0.04  -0.01     0.00   0.00   0.00
  13   1    -0.02  -0.00  -0.05    -0.03   0.02  -0.03    -0.00  -0.00  -0.00
  14   1    -0.03   0.05   0.08    -0.01  -0.00  -0.00     0.01   0.01   0.00
  15   1     0.04  -0.04   0.07     0.01   0.00   0.00    -0.00  -0.01   0.00
  16   1     0.01  -0.01  -0.00     0.01  -0.01  -0.00     0.02  -0.01  -0.01
  17   1     0.00  -0.01  -0.01     0.00  -0.01  -0.01    -0.05   0.02   0.05
  18   1    -0.00  -0.00   0.00    -0.01  -0.01   0.00     0.03  -0.02  -0.02
  19   1    -0.00  -0.01  -0.02    -0.01  -0.00  -0.02     0.01  -0.01   0.03
  20   1     0.02   0.00  -0.01     0.02  -0.00  -0.01    -0.00  -0.02   0.02
                     43                     44                     45
                        a                      a                      a 
 Frequencies --  2967.1621              2968.2344              2980.7161
 Red. masses --     1.8360                 1.8917                 1.6010
 Frc consts  --     0.0000                 0.0000                 0.0000
 IR Inten    --    20.6646                40.8774                21.3163
 Raman Activ --     0.0000                 0.0000                 0.0000
 Depolar     --     0.0000                 0.0000                 0.0000
 Atom AN      X      Y      Z        X      Y      Z        X      Y      Z
   1   6     0.00   0.01  -0.01     0.00   0.01  -0.01    -0.01  -0.01  -0.00
   2   6    -0.02  -0.10   0.12    -0.04  -0.16   0.18     0.17  -0.02  -0.01
   3   6    -0.03   0.03   0.01     0.00   0.00  -0.02    -0.08   0.12   0.05
   4   6    -0.11  -0.12  -0.15     0.07   0.08   0.09     0.02   0.01   0.03
   5   6    -0.00  -0.00  -0.01     0.00   0.00   0.01     0.00  -0.00   0.00
   6   8    -0.00  -0.00   0.00     0.00   0.00  -0.00    -0.00   0.00   0.00
   7   8     0.00   0.00   0.00     0.00  -0.00  -0.00    -0.00  -0.00  -0.00
   8   6     0.00   0.00   0.00     0.00  -0.00  -0.00    -0.01  -0.01  -0.00
   9   1     0.02  -0.03   0.02     0.03  -0.04   0.03     0.01  -0.01   0.01
  10   1    -0.00  -0.00  -0.01    -0.00   0.00  -0.00     0.04   0.02   0.03
  11   1    -0.02  -0.01   0.02    -0.04  -0.02   0.04     0.02   0.01  -0.03
  12   1    -0.17   0.27  -0.25    -0.26   0.41  -0.37    -0.18   0.34  -0.32
  13   1     0.23   0.10  -0.17     0.38   0.18  -0.29    -0.44  -0.24   0.38
  14   1     0.02  -0.03   0.03     0.05  -0.07   0.06     0.07  -0.10   0.11
  15   1     0.06  -0.08  -0.07    -0.05   0.06   0.05     0.24  -0.33  -0.29
  16   1     0.39   0.48   0.51    -0.25  -0.30  -0.32    -0.04  -0.06  -0.06
  17   1     0.02  -0.05   0.03    -0.00   0.03  -0.01    -0.03   0.04  -0.05
  18   1     0.00  -0.00   0.00     0.00  -0.00   0.00    -0.00  -0.00  -0.00
  19   1    -0.00  -0.00   0.00    -0.00  -0.00   0.00     0.01   0.01  -0.01
  20   1    -0.01  -0.01  -0.01     0.00   0.00   0.01     0.01   0.02   0.02
                     46                     47                     48
                        a                      a                      a 
 Frequencies --  2984.5270              2989.0749              2995.5677
 Red. masses --     1.9466                 1.8028                 1.3980
 Frc consts  --     0.0000                 0.0000                 0.0000
 IR Inten    --    19.7606                90.4656                21.0484
 Raman Activ --     0.0000                 0.0000                 0.0000
 Depolar     --     0.0000                 0.0000                 0.0000
 Atom AN      X      Y      Z        X      Y      Z        X      Y      Z
   1   6    -0.00   0.00   0.00    -0.03  -0.01  -0.01     0.00   0.00  -0.00
   2   6     0.01  -0.00  -0.00     0.11  -0.03  -0.00    -0.00   0.00  -0.00
   3   6     0.00  -0.00  -0.00     0.13  -0.18  -0.06    -0.00   0.00   0.00
   4   6     0.00   0.00   0.00    -0.03   0.01  -0.05     0.00  -0.00   0.00
   5   6    -0.00  -0.00   0.00    -0.00   0.00  -0.00    -0.00   0.00  -0.00
   6   8     0.00   0.00  -0.00     0.00  -0.00  -0.00    -0.00  -0.00   0.00
   7   8     0.00   0.00   0.00     0.00  -0.00  -0.00     0.01  -0.01  -0.01
   8   6     0.19   0.20   0.10    -0.00  -0.00  -0.01     0.10   0.02  -0.16
   9   1     0.00  -0.00   0.00     0.02  -0.03   0.03    -0.00   0.00  -0.00
  10   1    -0.00  -0.00  -0.00     0.05   0.03   0.04    -0.00  -0.00  -0.00
  11   1     0.00   0.00  -0.00     0.03   0.01  -0.03    -0.01  -0.01   0.01
  12   1    -0.01   0.02  -0.02    -0.13   0.25  -0.23     0.00  -0.01   0.01
  13   1    -0.02  -0.01   0.02    -0.28  -0.15   0.24     0.01   0.00  -0.00
  14   1     0.00   0.00   0.00    -0.12   0.19  -0.19     0.00  -0.00   0.00
  15   1    -0.00   0.00   0.00    -0.34   0.47   0.42     0.01  -0.01  -0.01
  16   1    -0.01  -0.01  -0.01     0.04   0.05   0.05     0.01   0.01   0.01
  17   1    -0.00   0.00  -0.00     0.07  -0.09   0.11    -0.01   0.01  -0.02
  18   1     0.03   0.03   0.01    -0.00   0.00  -0.00    -0.02   0.06  -0.09
  19   1    -0.43  -0.29   0.22    -0.00  -0.00   0.00    -0.60  -0.42   0.26
  20   1    -0.28  -0.42  -0.58     0.01   0.02   0.02     0.24   0.34   0.41
                     49                     50                     51
                        a                      a                      a 
 Frequencies --  3000.2092              3007.4324              3026.8496
 Red. masses --     1.5704                 1.7155                 1.9415
 Frc consts  --     0.0000                 0.0000                 0.0000
 IR Inten    --    12.1632                71.1468                92.9369
 Raman Activ --     0.0000                 0.0000                 0.0000
 Depolar     --     0.0000                 0.0000                 0.0000
 Atom AN      X      Y      Z        X      Y      Z        X      Y      Z
   1   6     0.00  -0.00   0.01     0.00  -0.01   0.01     0.16   0.20  -0.14
   2   6     0.01   0.01  -0.02     0.00   0.02  -0.02     0.02   0.02  -0.02
   3   6    -0.02   0.04  -0.14    -0.06   0.10  -0.13     0.00  -0.00  -0.01
   4   6     0.06  -0.12   0.10    -0.07   0.10  -0.13    -0.00   0.00  -0.00
   5   6     0.00  -0.00   0.00    -0.00   0.00  -0.01    -0.00  -0.00   0.00
   6   8     0.00   0.00  -0.00    -0.00  -0.00   0.00     0.00   0.00  -0.00
   7   8    -0.00  -0.00  -0.00    -0.00  -0.00   0.00    -0.00   0.00   0.00
   8   6    -0.00   0.00   0.00     0.00   0.00  -0.00    -0.00   0.00  -0.00
   9   1    -0.01   0.01  -0.01    -0.02   0.03  -0.03     0.23  -0.28   0.26
  10   1     0.00  -0.00   0.00    -0.00  -0.00  -0.00    -0.30  -0.17  -0.24
  11   1     0.01   0.00  -0.01     0.01   0.01  -0.01    -0.49  -0.25   0.48
  12   1     0.01  -0.01   0.01     0.03  -0.04   0.04     0.01  -0.02   0.02
  13   1    -0.06  -0.03   0.05    -0.04  -0.02   0.03    -0.07  -0.04   0.06
  14   1     0.27  -0.41   0.33     0.31  -0.46   0.38     0.01  -0.01   0.01
  15   1    -0.18   0.24   0.19    -0.08   0.11   0.07    -0.01   0.02   0.01
  16   1     0.07   0.06   0.09    -0.02   0.00  -0.03     0.00   0.00   0.00
  17   1    -0.29   0.37  -0.48     0.29  -0.37   0.48     0.00  -0.01   0.01
  18   1     0.00  -0.00   0.01    -0.00   0.00  -0.00     0.00  -0.01   0.01
  19   1     0.01   0.01  -0.00    -0.01  -0.00   0.00     0.01   0.00  -0.00
  20   1    -0.00  -0.00  -0.01     0.00   0.00   0.00    -0.00  -0.00  -0.00
                     52                     53                     54
                        a                      a                      a 
 Frequencies --  3027.2786              3040.1377              3056.2201
 Red. masses --     1.8927                 1.3026                 1.7979
 Frc consts  --     0.0000                 0.0000                 0.0000
 IR Inten    --    84.7117                41.5275                 2.8709
 Raman Activ --     0.0000                 0.0000                 0.0000
 Depolar     --     0.0000                 0.0000                 0.0000
 Atom AN      X      Y      Z        X      Y      Z        X      Y      Z
   1   6    -0.22   0.06  -0.16    -0.01   0.08   0.14    -0.00  -0.00   0.00
   2   6    -0.02   0.01  -0.01     0.00  -0.00   0.01     0.00   0.00  -0.00
   3   6    -0.01   0.01  -0.00    -0.00  -0.00  -0.00     0.00  -0.00   0.00
   4   6    -0.00   0.00  -0.00     0.00   0.00   0.00    -0.00   0.00  -0.00
   5   6     0.00   0.00  -0.00     0.00   0.00  -0.00     0.00  -0.00  -0.00
   6   8    -0.00  -0.00   0.00    -0.00  -0.00   0.00    -0.00  -0.00   0.00
   7   8    -0.00  -0.00   0.00     0.00  -0.00  -0.00    -0.00   0.01  -0.00
   8   6     0.00   0.00  -0.00     0.00  -0.00  -0.00    -0.06   0.14  -0.22
   9   1     0.33  -0.53   0.47     0.15  -0.21   0.22    -0.00   0.00  -0.00
  10   1     0.36   0.25   0.25    -0.53  -0.32  -0.34     0.00   0.00   0.00
  11   1     0.09   0.08  -0.15     0.41   0.23  -0.38     0.00   0.00  -0.00
  12   1     0.03  -0.06   0.06    -0.01   0.01  -0.01     0.00  -0.00   0.00
  13   1     0.03   0.02  -0.02    -0.00   0.00   0.00    -0.00  -0.00   0.00
  14   1     0.02  -0.03   0.03     0.00  -0.00   0.00    -0.00   0.00  -0.00
  15   1     0.01  -0.02  -0.02    -0.00   0.00   0.00     0.00  -0.00  -0.00
  16   1    -0.00  -0.00  -0.00    -0.00  -0.00  -0.00    -0.00  -0.00  -0.00
  17   1     0.00  -0.00   0.00     0.00  -0.00   0.00     0.00  -0.00   0.00
  18   1     0.00  -0.00   0.00    -0.00   0.00  -0.00     0.26  -0.54   0.75
  19   1    -0.01  -0.00   0.00    -0.00  -0.00   0.00    -0.06  -0.03  -0.00
  20   1     0.00   0.00   0.00     0.00   0.01   0.01     0.02   0.05   0.01
