      -----------------------------------------------------------      
     |                   =====================                   |     
     |                           x T B                           |     
     |                   =====================                   |     
     |                         S. Grimme                         |     
     |          Mulliken Center for Theoretical Chemistry        |     
     |                    University of Bonn                     |     
      -----------------------------------------------------------      

   * xtb version 6.7.1 (edcfbbe) compiled by 'albert@albert-system' on 2024-07-22

   xtb is free software: you can redistribute it and/or modify it under
   the terms of the GNU Lesser General Public License as published by
   the Free Software Foundation, either version 3 of the License, or
   (at your option) any later version.
   
   xtb is distributed in the hope that it will be useful,
   but WITHOUT ANY WARRANTY; without even the implied warranty of
   MERCHANTABILITY or FITNESS FOR A PARTICULAR PURPOSE.  See the
   GNU Lesser General Public License for more details.
   
   Cite this work as:
   * C. Bannwarth, E. Caldeweyher, S. Ehlert, A. Hansen, P. Pracht,
     J. Seibert, S. Spicher, S. Grimme, WIREs Comput. Mol. Sci., 2020, 11,
     e01493. DOI: 10.1002/wcms.1493
   
   for GFN2-xTB:
   * C. Bannwarth, S. Ehlert and S. Grimme., J. Chem. Theory Comput., 2019,
     15, 1652-1671. DOI: 10.1021/acs.jctc.8b01176
   for GFN1-xTB:
   * S. Grimme, C. Bannwarth, P. Shushkov, J. Chem. Theory Comput., 2017,
     13, 1989-2009. DOI: 10.1021/acs.jctc.7b00118
   for GFN0-xTB:
   * P. Pracht, E. Caldeweyher, S. Ehlert, S. Grimme, ChemRxiv, 2019, preprint.
     DOI: 10.26434/chemrxiv.8326202.v1
   for GFN-FF:
   * S. Spicher and S. Grimme, Angew. Chem. Int. Ed., 2020, 59, 15665-15673.
     DOI: 10.1002/anie.202004239
   
   for ALPB and GBSA implicit solvation:
   * S. Ehlert, M. Stahn, S. Spicher, S. Grimme, J. Chem. Theory Comput.,
     2021, 17, 4250-4261. DOI: 10.1021/acs.jctc.1c00471
   
   for ddCOSMO and CPCM-X implicit solvation:
   * M. Stahn, S. Ehlert, S. Grimme, J. Phys. Chem. A,
     2023, XX, XXXX-XXXX. DOI: 10.1021/acs.jpca.3c04382
   
   for DFT-D4:
   * E. Caldeweyher, C. Bannwarth and S. Grimme, J. Chem. Phys., 2017,
     147, 034112. DOI: 10.1063/1.4993215
   * E. Caldeweyher, S. Ehlert, A. Hansen, H. Neugebauer, S. Spicher,
     C. Bannwarth and S. Grimme, J. Chem. Phys., 2019, 150, 154122.
     DOI: 10.1063/1.5090222
   * E. Caldeweyher, J.-M. Mewes, S. Ehlert and S. Grimme, Phys. Chem. Chem. Phys.
     2020, 22, 8499-8512. DOI: 10.1039/D0CP00502A
   
   for sTDA-xTB:
   * S. Grimme and C. Bannwarth, J. Chem. Phys., 2016, 145, 054103.
     DOI: 10.1063/1.4959605
   
   in the mass-spec context:
   * V. Asgeirsson, C. Bauer and S. Grimme, Chem. Sci., 2017, 8, 4879.
     DOI: 10.1039/c7sc00601b
   * J. Koopman and S. Grimme, ACS Omega 2019, 4, 12, 15120-15133.
     DOI: 10.1021/acsomega.9b02011
   
   for metadynamics refer to:
   * S. Grimme, J. Chem. Theory Comput., 2019, 155, 2847-2862
     DOI: 10.1021/acs.jctc.9b00143
   
   for SPH calculations refer to:
   * S. Spicher and S. Grimme, J. Chem. Theory Comput., 2021, 17, 1701-1714
     DOI: 10.1021/acs.jctc.0c01306
   
   for ONIOM refer to:
   * C. Plett, A. Katbashev, S. Ehlert, S. Grimme, M. Bursch,
     Phys. Chem. Chem. Phys., 2023, 25, 17860-17868. DOI: 10.1039/D3CP02178E
   
   for DIPRO refer to:
   * J. Kohn, N. Gildemeister, S. Grimme, D. Fazzi, A. Hansen,
     J. Chem. Phys., 2023, just accepted.
   
   for PTB refer to:
   * S. Grimme, M. Mueller, A. Hansen, J. Chem. Phys., 2023, 158, 124111.
     DOI: 10.1063/5.0137838
   
   with help from (in alphabetical order)
   P. Atkinson, C. Bannwarth, F. Bohle, G. Brandenburg, E. Caldeweyher
   M. Checinski, S. Dohm, S. Ehlert, S. Ehrlich, I. Gerasimov, C. Hölzer
   A. Katbashev, J. Kohn, J. Koopman, C. Lavigne, S. Lehtola, F. März, M. Müller,
   F. Musil, H. Neugebauer, J. Pisarek, C. Plett, P. Pracht, F. Pultar,
   J. Seibert, P. Shushkov, S. Spicher, M. Stahn, M. Steiner, T. Strunk,
   J. Stückrath, T. Rose, and J. Unsleber
   
 * started run on 2025/04/11 at 14:08:04.593     
   ID    Z sym.   atoms
    1    6 C      1-6
    2    8 O      7
    3    1 H      8-17

           -------------------------------------------------
          |                Calculation Setup                |
           -------------------------------------------------

          program call               : /software/projects/pawsey0265/mwang1/xtb/bin/xtb xtb_opt.coord --opt normal --orca -I xtb_opt-xcontrol-inp
          hostname                   : nid001788
          coordinate file            : xtb_opt.coord
          omp threads                :                    56

           -------------------------------------------------
          |                   Orca driver                   |
           -------------------------------------------------
orca executable           : /software/projects/pawsey0265/mwang1/orca_avx2/orca
orca input file           : xtb_opt.inp
orca input line           : 
orca parallel             : true
orca number of threads    : 56
                         * ORCA takes the control...
  ------------------------------------------------------------------------

                                 *****************
                                 * O   R   C   A *
                                 *****************

                                            #,                                       
                                            ###                                      
                                            ####                                     
                                            #####                                    
                                            ######                                   
                                           ########,                                 
                                     ,,################,,,,,                         
                               ,,#################################,,                 
                          ,,##########################################,,             
                       ,#########################################, ''#####,          
                    ,#############################################,,   '####,        
                  ,##################################################,,,,####,       
                ,###########''''           ''''###############################       
              ,#####''   ,,,,##########,,,,          '''####'''          '####       
            ,##' ,,,,###########################,,,                        '##       
           ' ,,###''''                  '''############,,,                           
         ,,##''                                '''############,,,,        ,,,,,,###''
      ,#''                                            '''#######################'''  
     '                                                          ''''####''''         
             ,#######,   #######,   ,#######,      ##                                
            ,#'     '#,  ##    ##  ,#'     '#,    #''#        ,####,   ,####,        
            ##       ##  ##   ,#'  ##            #'  '#       #'       #'  '#        
            ##       ##  #######   ##           ,######,      #####,   #    #        
            '#,     ,#'  ##    ##  '#,     ,#' ,#      #,     #,   #   #,  ,#        
             '#######'   ##     ##  '#######'  #'      '#     '####' # '####'        



                #########################################################
                #                        -***-                          #
                #          Department of theory and spectroscopy        #
                #                                                       #
                #                      Frank Neese                      #
                #                                                       #
                #     Directorship, Architecture, Infrastructure        #
                #                    SHARK, DRIVERS                     #
                #        Core code/Algorithms in most modules           #
                #                                                       #
                #        Max Planck Institute fuer Kohlenforschung      #
                #                Kaiser Wilhelm Platz 1                 #
                #                 D-45470 Muelheim/Ruhr                 #
                #                      Germany                          #
                #                                                       #
                #                  All rights reserved                  #
                #                        -***-                          #
                #########################################################


                         Program Version 6.0.1  -  RELEASE   -


 With contributions from (in alphabetic order):
[Max-Planck-Institut fuer Kohlenforschung]                               
  Daniel Aravena         : Magnetic Suceptibility                        
  Michael Atanasov       : Ab Initio Ligand Field Theory (pilot matlab implementation)
  Alexander A. Auer      : GIAO ZORA, VPT2 properties, NMR spectrum      
  Ute Becker             : All parallelization in ORCA, NUMFREQ, NUMCALC 
  Giovanni Bistoni       : ED, misc. LED, open-shell LED, HFLD           
  Martin Brehm           : Molecular dynamics                            
  Dmytro Bykov           : pre 5.0 version of the SCF Hessian            
  Marcos Casanova-Páez   : Triplet and SCS-CIS(D). UHF-(DLPNO)-IP/EA/STEOM-CCSD. UHF-CVS-IP/STEOM-CCSD   
  Vijay G. Chilkuri      : MRCI spin determinant printing, contributions to CSF-ICE 
  Pauline Colinet        : FMM embedding                                 
  Dipayan Datta          : RHF DLPNO-CCSD density                        
  Achintya Kumar Dutta   : EOM-CC, STEOM-CC                              
  Nicolas Foglia         : Exact transition moments, OPA infrastructure, MCD improvements    
  Dmitry Ganyushin       : Spin-Orbit,Spin-Spin,Magnetic field MRCI      
  Miquel Garcia-Rates    : C-PCM and meta-GGA Hessian, CCSD/C-PCM, Gaussian charge scheme 
  Tiago L. C. Gouveia    : GS-ROHF, GS-ROCIS                             
  Yang Guo               : DLPNO-NEVPT2, F12-NEVPT2, CIM, IAO-localization        
  Andreas Hansen         : Spin unrestricted coupled pair/coupled cluster methods 
  Ingolf Harden          : AUTO-CI MPn and infrastructure                
  Benjamin Helmich-Paris : MC-RPA, TRAH-(SCF,CASSCF), AVAS, COSX integrals, SCF dyn. polar. 
  Lee Huntington         : MR-EOM, pCC                                   
  Robert Izsak           : Overlap fitted RIJCOSX, COSX-SCS-MP3, EOM     
  Riya Kayal             : Wick's Theorem for AUTO-CI, AUTO-CI UHF-CCSDT 
  Emily Kempfer          : AUTO-CI, RHF CISDT and CCSDT                  
  Christian Kollmar      : KDIIS, OOCD, Brueckner-CCSD(T), CCSD density, CASPT2, CASPT2-K, improved NEVPT2 
  Axel Koslowski         : Symmetry handling                             
  Simone Kossmann        : meta-GGA functionals, TD-DFT gradient, OOMP2, (MP2 Hessian; deprecated post 5.0) 
  Lucas Lang             : DCDCAS                                        
  Marvin Lechner         : AUTO-CI (C++ implementation), FIC-MRCC        
  Spencer Leger          : CASSCF response                               
  Dagmar Lenk            : GEPOL surface, SMD, ORCA-2-JSON               
  Dimitrios Liakos       : Extrapolation schemes; Compound Job, initial MDCI parallelization 
  Dimitrios Manganas     : Further ROCIS development; embedding schemes. LFT, Crystal Embedding 
  Dimitrios Pantazis     : SARC Basis sets                               
  Anastasios Papadopoulos: AUTO-CI, single reference methods and gradients 
  Taras Petrenko         : pre 6.0 DFT Hessian and TD-DFT gradient, (ASA, deprecated), ECA, 1-Electron XAS/XES, NRVS 
  Peter Pinski           : DLPNO-MP2, DLPNO-MP2 Gradient                 
  Christoph Reimann      : Effective Core Potentials                     
  Marius Retegan         : Local ZFS, SOC                                
  Christoph Riplinger    : Optimizer, TS searches, QM/MM, DLPNO-CCSD(T), (RO)-DLPNO pert. Triples 
  Michael Roemelt        : Original ROCIS implementation                 
  Masaaki Saitow         : Open-shell DLPNO-CCSD energy and density      
  Barbara Sandhoefer     : DKH picture change effects                    
  Kantharuban Sivalingam : CASSCF convergence/infrastructure, NEVPT2 and variants, FIC-MRCI 
  Bernardo de Souza      : ESD, SOC TD-DFT                               
  Georgi L. Stoychev     : AutoAux, RI-MP2 NMR, DLPNO-MP2 response, X2C  
  Van Anh Tran           : RI-MP2 g-tensors                              
  Willem Van den Heuvel  : Paramagnetic NMR                              
  Zikuan Wang            : NOTCH, Electric field optimization            
  Frank Wennmohs         : Technical directorship and infrastructure     
  Hang Xu                : AUTO-CI-Response properties                   
                                                                         
[FACCTs GmbH]                                                            
  Markus Bursch, Miquel Garcia-Rates, Christoph Riplinger, Bernardo de Souza, Georgi L. Stoychev 
                                                                 
  APM, Basis sets (HGBS, AHGBS, def-TZVP (Ac-Lr), def2-XVPD (La-Lu)), CI-OPT, improved COSX, DLPNO-Multilevel,           
  DOCKER, DRACO, updates on ESD, GOAT, IRC, LR-CPCM, MBIS, meta-GGA TD-DFT gradient, ML-optimized integration grids, 
  MM, NACMEs, nearIR, NEB, NEB-TS, NL-DFT gradient (VV10), 2- and 3-layer-ONIOM, interface openCOSMO-RS, QMMM,   
  Crystal-QMMM, SF, symmetry and pop. for TD-DFT, r2SCAN hybrids, SOLVATOR                                   
                                                                         
[Other institutions]                                                     
  V. Asgeirsson          : NEB                                           
  Christoph Bannwarth    : sTDA-DFT, sTD-DFT, PBEh-3c, B97-3c, D3        
  Sebastian Ehlert       : rSCAN, r2SCAN, r2SCAN-3c, D4, dhf basis sets  
  Marvin Friede          : D4 for Fr, Ra, Ac-Lr                          
  Lars Goerigk           : TD-DFT with DH, B97 family of functionals     
  Stefan Grimme          : VdW corrections, initial TS optimization, DFT functionals, gCP, sTDA/sTD-DF 
  Waldemar Hujo          : DFT-NL                                        
  H. Jonsson             : NEB                                           
  Holger Kruse           : gCP                                           
  Marcel Mueller         : wB97X-3c, vDZP basis set                      
  Hagen Neugebauer       : wr2SCAN                                       
  Tobias Risthaus        : range-separated hybrid DFT                    
  Lukas Wittmann         : regularized MP2, r2SCAN double-hybrids, wr2SCAN        
                                                                         
We gratefully acknowledge several colleagues who have allowed us to      
interface, adapt or use parts of their codes:                            
  Ed Valeev, F. Pavosevic, A. Kumar             : LibInt (2-el integral package), F12 methods 
  Garnet Chan, S. Sharma, J. Yang, R. Olivares  : DMRG                   
  Ulf Ekstrom                                   : XCFun DFT Library      
  Mihaly Kallay                                 : mrcc  (arbitrary order and MRCC methods)
  Frank Weinhold                                : gennbo (NPA and NBO analysis)           
  Simon Mueller                                 : openCOSMO-RS                            
  Christopher J. Cramer and Donald G. Truhlar   : smd solvation model                     
  S Lehtola, MJT Oliveira, MAL Marques          : LibXC Library                           
  Liviu Ungur et al                             : ANISO software                          


 Your calculation uses the libint2 library for the computation of 2-el integrals
 For citations please refer to: http://libint.valeyev.net

 Your ORCA version has been built with support for libXC version: 6.2.2
 For citations please refer to: https://libxc.gitlab.io

 This ORCA versions uses:
   CBLAS   interface :  Fast vector & matrix operations
   LAPACKE interface :  Fast linear algebra routines
   SCALAPACK package :  Parallel linear algebra routines
   Shared memory     :  Shared parallel matrices
   BLAS/LAPACK       :  OpenBLAS 0.3.27  USE64BITINT DYNAMIC_ARCH NO_AFFINITY Zen SINGLE_THREADED
        Core in use  :  Zen
   Copyright (c) 2011-2014, The OpenBLAS Project




***************************************
The coordinates will be read from file: xtb_opt.xyz
***************************************


Your calculation utilizes the geometrical counterpoise correction gCP
Please cite in your paper:
H.Kruse, S. Grimme J.Chem.Phys., 136, (2012), 154101 
   

Your calculation utilizes the atom-pairwise dispersion correction
based on EEQ partial charges (D4)


Your calculation utilizes the SMD solvation module
Please cite in your paper:
A.V. Marenich, C.J. Cramer, D.G. Truhlar J. Phys. Chem. B, 113, (2009), 6378 

================================================================================

----- Orbital basis set information -----
Your calculation utilizes the basis: def2-mTZVPP
   Stefan Grimme, Andreas Hansen, Sebastian Ehlert, and Jan-Michael Mewes 
   J. Chem. Phys. 154, 064103 (2021). DOI: 10.1063/5.0040021

----- AuxJ basis set information -----
Your calculation utilizes the auxiliary basis: def2/J
   F. Weigend, Phys. Chem. Chem. Phys. 8, 1057 (2006).

================================================================================
                                        WARNINGS
                       Please study these warnings very carefully!
================================================================================



WARNING: SCAN, rSCAN, or r2SCAN functional requested.
  ===> : libXC variant has now been activated.



================================================================================
                                       INPUT FILE
================================================================================
NAME = xtb_opt.inp
|  1> ! r2scan-3c def2/J RI DEFGRID2 scfconv7 ENGRAD tightSCF miniprint
|  2> %cpcm
|  3>     smd true
|  4>     smdsolvent "water"
|  5> end
|  6> * xyzfile 0 1 xtb_opt.xyz
|  7> 
|  8>                          ****END OF INPUT****
================================================================================

                     *******************************
                     * Energy+Gradient Calculation *
                     *******************************

---------------------------------
CARTESIAN COORDINATES (ANGSTROEM)
---------------------------------
  C      2.349636   -1.275101    0.267935
  C      2.375686    0.034723   -0.510533
  C      1.323182    1.020266    0.013429
  C     -0.052406    0.515703   -0.202545
  C     -1.009084    0.437498    0.732835
  C     -2.330509   -0.071196    0.428828
  O     -2.709023   -0.467973   -0.659278
  H      2.540877   -1.096085    1.323410
  H      1.378043   -1.755903    0.173522
  H      3.109148   -1.956082   -0.107737
  H      2.190652   -0.165134   -1.567282
  H      3.362280    0.491438   -0.421313
  H      1.425959    1.959114   -0.537949
  H      1.492103    1.222197    1.071856
  H     -0.295492    0.180517   -1.204259
  H     -0.829699    0.749914    1.750232
  H     -3.028039   -0.089062    1.286218

----------------------------
CARTESIAN COORDINATES (A.U.)
----------------------------
  NO LB      ZA    FRAG     MASS         X           Y           Z
   0 C     6.0000    0    12.011    4.440169   -2.409591    0.506324
   1 C     6.0000    0    12.011    4.489396    0.065616   -0.964768
   2 C     6.0000    0    12.011    2.500451    1.928023    0.025376
   3 C     6.0000    0    12.011   -0.099033    0.974538   -0.382755
   4 C     6.0000    0    12.011   -1.906892    0.826752    1.384857
   5 C     6.0000    0    12.011   -4.404025   -0.134541    0.810368
   6 O     8.0000    0    15.999   -5.119312   -0.884341   -1.245856
   7 H     1.0000    0     1.008    4.801562   -2.071300    2.500883
   8 H     1.0000    0     1.008    2.604123   -3.318176    0.327909
   9 H     1.0000    0     1.008    5.875438   -3.696458   -0.203594
  10 H     1.0000    0     1.008    4.139732   -0.312058   -2.961734
  11 H     1.0000    0     1.008    6.353788    0.928684   -0.796166
  12 H     1.0000    0     1.008    2.694672    3.702188   -1.016577
  13 H     1.0000    0     1.008    2.819667    2.309618    2.025515
  14 H     1.0000    0     1.008   -0.558398    0.341127   -2.275720
  15 H     1.0000    0     1.008   -1.567903    1.417131    3.307459
  16 H     1.0000    0     1.008   -5.722165   -0.168303    2.430599

------------------------------------------------------------------------------
                   ___                                                        
                  /   \      - P O W E R E D   B Y -                         
                 /     \                                                     
                 |  |  |   _    _      __       _____    __    __             
                 |  |  |  | |  | |    /  \     |  _  \  |  |  /  |          
                  \  \/   | |  | |   /    \    | | | |  |  | /  /          
                 / \  \   | |__| |  /  /\  \   | |_| |  |  |/  /          
                |  |  |   |  __  | /  /__\  \  |    /   |      \           
                |  |  |   | |  | | |   __   |  |    \   |  |\   \          
                \     /   | |  | | |  |  |  |  | |\  \  |  | \   \       
                 \___/    |_|  |_| |__|  |__|  |_| \__\ |__|  \__/        
                                                                              
                      - O R C A' S   B I G   F R I E N D -                    
                                      &                                       
                       - I N T E G R A L  F E E D E R -                       
                                                                              
 v1 FN, 2020, v2 2021, v3 2022-2024                                           
------------------------------------------------------------------------------


----------------------
SHARK INTEGRAL PACKAGE
----------------------

Number of atoms                             ...     17
Number of basis functions                   ...    188
Number of shells                            ...     94
Maximum angular momentum                    ...      2
Integral batch strategy                     ... SHARK/LIBINT Hybrid
RI-J (if used) integral strategy            ... SPLIT-RIJ (Revised 2003 algorithm where possible)
Printlevel                                  ...      1
Contraction scheme used                     ... SEGMENTED contraction
Prescreening option                         ... SCHWARTZ
   Thresh                                   ... 3.000e-11
   Tcut                                     ... 1.000e-12
   Tpresel                                  ... 1.000e-12 
Coulomb Range Separation                    ... NOT USED
Exchange Range Separation                   ... NOT USED
Multipole approximations                    ... NOT USED
Finite Nucleus Model                        ... NOT USED
CABS basis                                  ... NOT available
Auxiliary Coulomb fitting basis             ... AVAILABLE
   # of basis functions in Aux-J            ...    453
   # of shells in Aux-J                     ...    155
   Maximum angular momentum in Aux-J        ...      4
Auxiliary J/K fitting basis                 ... NOT available
Auxiliary Correlation fitting basis         ... NOT available
Auxiliary 'external' fitting basis          ... NOT available

Checking pre-screening integrals            ... done (  0.0 sec) Dimension = 94
Check shell pair data                       ... done (  0.0 sec)
Shell pair information
Shell pair cut-off parameter TPreSel        ...   1.0e-12
Total number of shell pairs                 ...      4465
Shell pairs after pre-screening             ...      4024
Total number of primitive shell pairs       ...     15937
Primitive shell pairs kept                  ...     10438
          la=0 lb=0:   1371 shell pairs
          la=1 lb=0:   1543 shell pairs
          la=1 lb=1:    461 shell pairs
          la=2 lb=0:    392 shell pairs
          la=2 lb=1:    223 shell pairs
          la=2 lb=2:     34 shell pairs

Calculating one electron integrals          ... done (  0.0 sec)
Calculating RI/J V-Matrix + Cholesky decomp.... done (  0.0 sec)
Calculating Nuclear repulsion               ... done (  0.0 sec) ENN=    282.423868526723 Eh

Diagonalization of the overlap matrix:
Smallest eigenvalue                        ... 1.809e-04
Time for diagonalization                   ...    0.004 sec
Threshold for overlap eigenvalues          ... 1.000e-07
Number of eigenvalues below threshold      ... 0
Time for construction of square roots      ...    0.005 sec
Total time needed                          ...    0.010 sec

-------------------
DFT GRID GENERATION
-------------------

General Integration Accuracy     IntAcc      ... 4.388
Radial Grid Type                 RadialGrid  ... OptM3 with GC (2021)
Angular Grid (max. ang.)         AngularGrid ... 4 (Lebedev-302)
Angular grid pruning method      GridPruning ... 4 (adaptive)
Weight generation scheme         WeightScheme... mBecke (2022)
Basis function cutoff            BFCut       ... 1.0000e-11
Integration weight cutoff        WCut        ... 1.0000e-14
Partially contracted basis set               ... off
Rotationally invariant grid construction     ... off
Angular grids for H and He will be reduced by one unit
Diffuse basis detected: some atoms will have their outermost
                        angular grid increased by 1.

Total number of grid points                  ...    74680
Total number of batches                      ...     1173
Average number of points per batch           ...       63
Average number of grid points per atom       ...     4393
Initializing property integral containers    ... done (  0.0 sec)

SHARK setup successfully completed in   0.8 seconds

Maximum memory used throughout the entire STARTUP-calculation: 33.9 MB
Occupation numbers will be reassigned to an Aufbau configuration
             **** ENERGY FILE WAS UPDATED (xtb_opt.en.tmp) ****
Finished Guess after   0.1 sec
Maximum memory used throughout the entire GUESS-calculation: 13.2 MB
--------------------
CPCM SOLVATION MODEL
--------------------
CPCM parameters:
  Epsilon                                         ...      78.3550
  Refrac                                          ...       1.3328
  Rsolv                                           ...       1.3000
  Surface type                                    ... GAUSSIAN VDW
  Discretization scheme                           ... Constant charge density
    Threshold for H atoms                         ...       5.0000 (charges/Ang^2)
    Threshold for non-H atoms                     ...       5.0000 (charges/Ang^2)
  Epsilon function type                           ...         CPCM
Solvent:                                          ... WATER
SMD-CDS solvent descriptors:
  Soln                                            ...       1.3328
  Soln25                                          ...       1.3323
  Sola                                            ...       0.0000
  Solb                                            ...       0.0000
  Solg                                            ...       0.0000
  Solc                                            ...       0.0000
  Solh                                            ...       0.0000
Radii:
  Scheme                                          ... Element-dependent radii
  Radius for C  used is    3.4960 Bohr (=   1.8500 Ang.)
  Radius for O  used is    2.8724 Bohr (=   1.5200 Ang.)
  Radius for H  used is    2.2677 Bohr (=   1.2000 Ang.)
Calculating surface                               ...        done! (  0.0s)
Cavity surface points                             ...         1322
Cavity Volume                                     ...     787.5479
Cavity Surface-area                               ...     524.3118
Calculating surface distance matrix               ...        done! (  0.0s)
Performing Cholesky decomposition & store         ...        done! (  0.1s)
Overall time for CPCM initialization              ...                 0.1s

----------------------------------------D-I-I-S--------------------------------------------
Iteration    Energy (Eh)           Delta-E    RMSDP     MaxDP     DIISErr   Damp  Time(sec)
-------------------------------------------------------------------------------------------
               ***  Starting incremental Fock matrix formation  ***
                              *** Initializing SOSCF ***
---------------------------------------S-O-S-C-F--------------------------------------
Iteration    Energy (Eh)           Delta-E    RMSDP     MaxDP     MaxGrad    Time(sec)
--------------------------------------------------------------------------------------
    1    -309.7850479435768420     0.00e+00  4.65e-06  2.19e-04  3.08e-05     2.8
               *** Restarting incremental Fock matrix formation ***
    2    -309.7850479215300084     2.20e-08  9.68e-06  5.07e-04  7.37e-05     2.8
    3    -309.7850476544093681     2.67e-07  7.98e-06  4.43e-04  1.97e-04     1.5
    4    -309.7850479818274607    -3.27e-07  9.84e-07  2.41e-05  8.70e-06     1.8
                  *** Gradient check signals convergence ***

               *****************************************************
               *                     SUCCESS                       *
               *           SCF CONVERGED AFTER   4 CYCLES          *
               *****************************************************


SMD CDS free energy correction energy :                 4.60811     Kcal/mol
Total Energy after SMD CDS correction =              -309.777704493 Eh
             **** ENERGY FILE WAS UPDATED (xtb_opt.en.tmp) ****

----------------
TOTAL SCF ENERGY
----------------

Total Energy       :       -309.77770449250471 Eh           -8429.47989 eV

Components:
Nuclear Repulsion  :        282.42386852672348 Eh            7685.14417 eV
Electronic Energy  :       -592.19159488517357 Eh          -16114.35253 eV
One Electron Energy:       -977.64099261671799 Eh          -26602.96388 eV
Two Electron Energy:        385.44939773154448 Eh           10488.61134 eV
CPCM Dielectric    :         -0.01732162337735 Eh              -0.47135 eV
SMD CDS (Gcds)     :          0.00734348932275 Eh               0.19983 eV

Virial components:
Potential Energy   :       -618.28806551977368 Eh          -16824.47360 eV
Kinetic Energy     :        308.51036102726903 Eh            8394.99372 eV
Virial Ratio       :          2.00410794457929

DFT components:
N(Alpha)           :       27.000005054290 electrons
N(Beta)            :       27.000005054290 electrons
N(Total)           :       54.000010108579 electrons
E(X)               :      -43.054906128405 Eh       
E(C)               :       -1.700504116343 Eh       
E(XC)              :      -44.755410244747 Eh       

CPCM Solvation Model Properties:
Surface-charge          :         -0.04575045364099
Corrected charge        :         -0.00000000000000
Outlying charge corr.   :          0.00016582152358 Eh               0.00451 eV
Free-energy (cav+disp)  :          0.00734348932275 Eh               0.19983 eV

---------------
SCF CONVERGENCE
---------------

  Last Energy change         ...    3.2742e-07  Tolerance :   1.0000e-07
  Last MAX-Density change    ...    2.4083e-05  Tolerance :   1.0000e-07
  Last RMS-Density change    ...    9.8428e-07  Tolerance :   5.0000e-09
  Last DIIS Error            ...    1.4512e-04  Tolerance :   1.0000e-07
  Last Orbital Gradient      ...    8.6957e-06  Tolerance :   1.0000e-04
  Last Orbital Rotation      ...    5.5140e-05  Tolerance :   1.0000e-04


----------------
ORBITAL ENERGIES
----------------

  NO   OCC          E(Eh)            E(eV) 
   0   2.0000     -18.947667      -515.5922 
   1   2.0000     -10.116116      -275.2735 
   2   2.0000     -10.058633      -273.7093 
   3   2.0000     -10.032452      -272.9969 
   4   2.0000     -10.031686      -272.9761 
   5   2.0000     -10.025553      -272.8092 
   6   2.0000     -10.010005      -272.3861 
   7   2.0000      -1.011668       -27.5289 
   8   2.0000      -0.788703       -21.4617 
   9   2.0000      -0.735069       -20.0022 
  10   2.0000      -0.666674       -18.1411 
  11   2.0000      -0.601066       -16.3558 
  12   2.0000      -0.545149       -14.8343 
  13   2.0000      -0.508050       -13.8247 
  14   2.0000      -0.458220       -12.4688 
  15   2.0000      -0.434036       -11.8107 
  16   2.0000      -0.416858       -11.3433 
  17   2.0000      -0.408342       -11.1115 
  18   2.0000      -0.375916       -10.2292 
  19   2.0000      -0.369650       -10.0587 
  20   2.0000      -0.364227        -9.9111 
  21   2.0000      -0.331554        -9.0220 
  22   2.0000      -0.315197        -8.5770 
  23   2.0000      -0.304643        -8.2898 
  24   2.0000      -0.297959        -8.1079 
  25   2.0000      -0.249839        -6.7985 
  26   2.0000      -0.229684        -6.2500 
  27   0.0000      -0.096622        -2.6292 
  28   0.0000       0.038635         1.0513 
  29   0.0000       0.091971         2.5027 
  30   0.0000       0.109713         2.9855 
  31   0.0000       0.121474         3.3055 
  32   0.0000       0.130850         3.5606 
  33   0.0000       0.140228         3.8158 
  34   0.0000       0.149743         4.0747 
  35   0.0000       0.158765         4.3202 
  36   0.0000       0.169717         4.6182 
  37   0.0000       0.173436         4.7194 
*Only the first 10 virtual orbitals were printed.
Total SCF time: 0 days 0 hours 0 min 10 sec 
Finished LeanSCF after  11.5 sec

Maximum memory used throughout the entire LEANSCF-calculation: 24.8 MB


-------------------------------------------------------------------------------
                          DFT DISPERSION CORRECTION                            
                                                                               
                                DFTD4 V3.4.0                                   
-------------------------------------------------------------------------------
-------------------------   ----------------
Dispersion correction           -0.004307398
-------------------------   ----------------

------------------   -----------------
gCP correction             0.006826446
------------------   -----------------

-------------------------   --------------------
FINAL SINGLE POINT ENERGY      -309.775185444339
-------------------------   --------------------

------------------------------------------------------------------------------
                         ORCA SCF GRADIENT CALCULATION
------------------------------------------------------------------------------

Nuc. rep. gradient        (SHARK) ... done (  0.0 sec)
HCore & Overlap gradient  (SHARK) ... done (  0.2 sec)
Split-RIJ-J gradient      (SHARK) ... done (  1.1 sec)
XC gradient                       ... done (  5.7 sec)
CPCM gradient                     ... done (  1.3 sec)
SMD gradient                      ... done (  0.0 sec)
Dispersion correction             ... done (  0.0 sec)

-------------------
DISPERSION GRADIENT
-------------------

   1   C   :    0.000067650   -0.000056975    0.000008791
   2   C   :    0.000065008    0.000000115   -0.000023674
   3   C   :    0.000041930    0.000045279   -0.000002848
   4   C   :   -0.000022748    0.000029788   -0.000013688
   5   C   :   -0.000079078    0.000023781    0.000031869
   6   C   :   -0.000092533   -0.000005480    0.000016316
   7   O   :   -0.000075241   -0.000018520   -0.000021961
   8   H   :    0.000032318   -0.000024013    0.000013101
   9   H   :    0.000031333   -0.000033055    0.000000663
  10   H   :    0.000024485   -0.000026709    0.000000510
  11   H   :    0.000024837   -0.000002878   -0.000017336
  12   H   :    0.000026910    0.000002215   -0.000005597
  13   H   :    0.000014512    0.000030316   -0.000010840
  14   H   :    0.000015284    0.000020577    0.000008152
  15   H   :   -0.000019691    0.000007160   -0.000017837
  16   H   :   -0.000027096    0.000013253    0.000026769
  17   H   :   -0.000027880   -0.000004853    0.000007609

Difference to translation invariance:
           :    0.0000000000    0.0000000000    0.0000000000

Difference to rotation invariance:
           :    0.0000000000   -0.0000000000   -0.0000000000

Norm of the Dispersion gradient    ...    0.0002309854
RMS gradient                       ...    0.0000323444
MAX gradient                       ...    0.0000925327
gCP correction                   ... done

------------------
CARTESIAN GRADIENT
------------------

   1   C   :   -0.001055143   -0.004003578    0.004200635
   2   C   :    0.001022995    0.002664718   -0.004215585
   3   C   :    0.000406442    0.002844259    0.002198520
   4   C   :   -0.003255748   -0.002765957   -0.002509530
   5   C   :   -0.001190165    0.000276280    0.002395560
   6   C   :    0.000765084   -0.003653869   -0.016062839
   7   O   :    0.005550192    0.006096436    0.017291536
   8   H   :   -0.000630457   -0.000038564   -0.005285682
   9   H   :    0.003684636    0.003511481   -0.000324788
  10   H   :   -0.002855803    0.004076512    0.000730187
  11   H   :   -0.000329457   -0.000713475    0.003584292
  12   H   :   -0.002220896   -0.002018715    0.001133592
  13   H   :   -0.000240811   -0.003917088    0.001354088
  14   H   :   -0.000305760   -0.002071575   -0.002839424
  15   H   :    0.000385312    0.001120781    0.004966810
  16   H   :   -0.001468573   -0.001522712   -0.005063461
  17   H   :    0.001738152    0.000115065   -0.001553910

Difference to translation invariance:
           :   -0.0000000000   -0.0000000000   -0.0000000000

Difference to rotation invariance:
           :   -0.0000422679   -0.0000641880   -0.0002967178

Norm of the Cartesian gradient     ...    0.0306468016
RMS gradient                       ...    0.0042914106
MAX gradient                       ...    0.0172915365

-------
TIMINGS
-------

Total SCF gradient time     ....        8.325 sec

Densities                   ....       0.000 sec  (  0.0%)
One electron gradient       ....       0.176 sec  (  2.1%)
RI-J Coulomb gradient       ....       1.133 sec  ( 13.6%)
XC gradient                 ....       5.691 sec  ( 68.4%)
CPCM gradient               ....       1.262 sec  ( 15.2%)
   A-Matrix (El+Nuc)        ....       0.068 sec  (  0.8%)
   Potential                ....       1.193 sec  ( 14.3%)
SMD gradient                ....       0.004 sec  (  0.0%)

Maximum memory used throughout the entire SCFGRAD-calculation: 33.4 MB

------------------------------------------------------------------------------
                              ORCA PROPERTY CALCULATIONS
------------------------------------------------------------------------------

GBWName                                 ... xtb_opt.gbw
Number of atoms                         ...     17
Number of basis functions               ...    188
Max core memory                         ...   1024 MB

Electric properties:
Dipole moment                           ... YES
Quadrupole moment                       ...  NO
Static polarizability (Dipole/Dipole)   ...  NO
Static polarizability (Dipole/Quad.)    ...  NO
Static polarizability (Quad./Quad.)     ...  NO
Static polarizability (Velocity)        ...  NO

Atomic electric properties:
Dipole moment                           ...  NO
Quadrupole moment                       ...  NO
Static polarizability                   ...  NO

Choice of electric origin               ... Center of mass
Position of electric origin             ...     0.000043     0.000003     0.000008

General magnetic properties:
Magnetizability                         ...  NO

EPR properties:
g-Tensor (aka g-matrix)                 ...  NO
Zero-Field splitting spin-orbit         ...  NO
Zero-field splitting spin-spin          ...  NO
Hyperfine couplings                     ...  NO (   0 nuclei)
Quadrupole couplings                    ...  NO (   0 nuclei)
Contact density                         ...  NO (   0 nuclei)

NMR properties:
Chemical shifts                         ...  NO (   0 nuclei)
Spin-rotation constants                 ...  NO (   0 nuclei)
Spin-spin couplings                     ...  NO (   0 nuclei,    0 pairs)

Choice of magnetic origin               ... GIAO
Position of magnetic origin             ...     0.000000     0.000000     0.000000

Properties with geometric perturbations:
SCF Hessian                             ...  NO
IR spectrum                             ...  NO
VCD spectrum                            ...  NO
X-ray spectroscopy properties:
SCF XES/XAS/RIXS spectra                ...  NO


-------------
DIPOLE MOMENT
-------------

Method             : SCF
Type of density    : Electron Density
Multiplicity       :   1
Irrep              :   0
Energy             :  -309.7777044925047107 Eh
Relativity type    : 
Basis              : AO
                                X                 Y                 Z
Electronic contribution:     -9.026728033       1.152476966      -0.714722354
Nuclear contribution   :     10.604115282      -0.437638290       1.647680898
                        -----------------------------------------
Total Dipole Moment    :      1.577387249       0.714838676       0.932958543
                        -----------------------------------------
Magnitude (a.u.)       :      1.967118835
Magnitude (Debye)      :      5.000018719



--------------------
Rotational spectrum 
--------------------
 
Rotational constants in cm-1:             0.192626             0.039124             0.037078 
Rotational constants in MHz :          5774.789435          1172.917885          1111.578043 

Dipole components along the rotational axes: 
x,y,z [a.u.] :     1.547905     0.853348    -0.863333 
x,y,z [Debye]:     3.934461     2.169039    -2.194419 

 

Dipole moment calculation done in   0.1 sec 

Maximum memory used throughout the entire PROP-calculation: 11.7 MB

--------------------------------
SUGGESTED CITATIONS FOR THIS RUN
--------------------------------

Below you find a list of papers that are relevant to this ORCA run
We neither can nor want to force you to cite these papers, but we appreciate if you do
You receive ORCA, which is the product of decades of hard work by many enthusiastic individuals, for free
The only thing we kindly ask in return is that you cite our papers,
We deeply appreciate it, if you show your appreciation for ORCA by not just citing the generic ORCA reference.

Please note that relegating all ORCA citations to the supporting information does *not* help us.
SI sections are not indexed - citations you put there will not count into any citation statistics
But we need these citations in order to attract the funding resources that allow us to do what we are doing

Therefore, if you are a happy ORCA user, please consider citing a few of the papers listed below in the main body of your paper

In addition to the list printed below, the program has created the file xtb_opt.bibtex that contains the list in bibtex format
You can import this file easily into all common literature databanks and citation aid programs


List of essential papers. We consider these as the minimum necessary citations

  1. Neese,F.
     Software update: the ORCA program system, version 5.0
     WIRES Comput. Molec. Sci., 2022 12(1)e1606
     doi.org/10.1002/wcms.1606
  2. Grimme,S.; Hansen,A.; Ehlert,S.; Mewes,J.
     r2SCAN-3c: A 'Swiss army knife' composite electronic-structure method
     J. Chem. Phys., 2021 154 064103
     doi.org/10.1063/5.0040021

List of papers to cite with high priority. The work reported in these papers was absolutely
necessary for this run to complete.
Our perspective: the developers of density functionals and basis sets usually get cited in chemistry papers
Good! But without the algorithms to do something with them, the functionals or basis sets would not do anything.
Hence, in our opinion, the algorithm design and method developments papers are equally worthy of getting cited

  1. Neese,F.
     An improvement of the resolution of the identity approximation for the formation of the Coulomb matrix
     J. Comp. Chem., 2003 24(14)1740-1747
     doi.org/10.1002/jcc.10318
  2. Garcia-Rates,M.; Neese,F.
     Effect of the Solute Cavity on the Solvation Energy and its Derivatives within the Framework of the Gaussian Charge Scheme
     J. Comput. Chem., 2020 41 922-939
     doi.org/10.1002/jcc.26139
  3. Neese,F.
     The SHARK Integral Generation and Digestion System
     J. Comp. Chem., 2022  1-16
     doi.org/10.1002/jcc.26942
  4. Lehtola,S.; Steigemann,C.; Oliveira,M.; Marques,M.
     Recent developments in Libxc - A comprehensive library of functionals for density functional theory
     Software X, 2018 7 
     doi.org/10.1016/j.softx.2017.11.002
  5. Caldeweyher,E.; Bannwarth,C.; Grimme,S.
     Extension of the D3 dispersion coefficient model
     J. Chem. Phys., 2017 147 034112
     doi.org/10.1063/1.4993215
  6. Caldeweyher,E.; Ehlert,S.; Hansen,A.; Neugebauer,H.; Spicher,S.; Bannwarth,C.; Grimme,S.
     A generally applicable atomic-charge dependent London dispersion correction
     J. Chem. Phys., 2019 150 154122
     doi.org/10.1063/1.5090222
  7. Caldeweyher,E.; Mewes,J.; Ehlert,S.; Grimme,S.
     Extension and evaluation of the D4 London-dispersion model for periodic systems
     Phys. Chem. Chem. Phys., 2020 22(16)8499-8512
     doi.org/10.1039/D0CP00502A
  8. Wittmann,L.; Gordiy,I.; Friede,M.; Helmich-Paris,B.; Grimme,S.; Hansen,A.; Bursch,M.
     Extension of the D3 and D4 London Dispersion Corrections to the full Actinides Series
     Phys. Chem. Chem. Phys., 2024 26(32)21379-21394
     doi.org/https://doi.org/10.1039/D4CP01514B 

List of suggested additional citations. These are papers that are important in the 'surrounding' of 
of this run, or papers that preceded the highly important papers. If you like your results we are grateful for a citation.

  1. Neese,F.
     The ORCA program system
     WIRES Comput. Molec. Sci., 2012 2(1)73-78
     doi.org/10.1002/wcms.81
  2. Neese,F.
     Software update: the ORCA program system, version 4.0
     WIRES Comput. Molec. Sci., 2018 8(1)1-6
     doi.org/10.1002/wcms.1327
  3. Neese,F.; Wennmohs,F.; Becker,U.; Riplinger,C.
     The ORCA quantum chemistry program package
     J. Chem. Phys., 2020 152 Art. No. L224108
     doi.org/10.1063/5.0004608

List of optional additional citations

  1. Neese,F.
     Approximate second-order SCF convergence for spin unrestricted wavefunctions
     Chem. Phys. Lett., 2000 325(1-3)93-98
     doi.org/10.1016/s0009-2614(00)00662-x

Timings for individual modules:

Sum of individual times          ...       21.885 sec (=   0.365 min)
Startup calculation              ...        0.883 sec (=   0.015 min)   4.0 %
SCF iterations                   ...       11.691 sec (=   0.195 min)  53.4 %
Property calculations            ...        0.190 sec (=   0.003 min)   0.9 %
SCF Gradient evaluation          ...        9.122 sec (=   0.152 min)  41.7 %
                             ****ORCA TERMINATED NORMALLY****
TOTAL RUN TIME: 0 days 0 hours 0 minutes 22 seconds 659 msec
  ------------------------------------------------------------------------
          * successful ORCA run, taking over control again...

         :::::::::::::::::::::::::::::::::::::::::::::::::::::
         ::                  ORCA SUMMARY                   ::
         :::::::::::::::::::::::::::::::::::::::::::::::::::::
         :: total energy            -309.775185444339 Eh    ::
         :: gradient norm              0.030646801604 Eh/a0 ::
         :: HOMO-LUMO gap              0.000000000000 eV    ::
         :::::::::::::::::::::::::::::::::::::::::::::::::::::

      ----------------------------------------------------------- 
     |                       L-ANC optimizer                     |
      ----------------------------------------------------------- 
          low memory version by Sebastian Ehlert

          ...................................................
          :                      SETUP                      :
          :.................................................:
          :   energy convergence        0.5000000E-05 Eh    :
          :   grad. convergence         0.1000000E-02 Eh/a0 :
          :   optimization log               true           :
          :   writing optlog all                1     steps :
          :   Hessian reset                     8     steps :
          :   maximium step len.        1.0000000     a0    :
          :   LBFGS images                      8           :
          ...................................................
 * calculating model hessian...
Using Lindh-Hessian (1995)
 Shifting diagonal of input Hessian by   1.000000000000000E-002
 Lowest  eigenvalues of input Hessian
    0.000000    0.000000    0.000000    0.000000    0.000000    0.000000
    0.011851    0.013159    0.014856    0.019065    0.022345    0.023596
    0.027057    0.034789    0.047262    0.053248    0.060820    0.062530
 Highest eigenvalues
    1.219848    1.252063    1.352537    1.490091    1.950184    2.200620
 

........................................................................
.............................. CYCLE    1 ..............................
........................................................................
                         * ORCA takes the control...
  ------------------------------------------------------------------------

                                 *****************
                                 * O   R   C   A *
                                 *****************

                                            #,                                       
                                            ###                                      
                                            ####                                     
                                            #####                                    
                                            ######                                   
                                           ########,                                 
                                     ,,################,,,,,                         
                               ,,#################################,,                 
                          ,,##########################################,,             
                       ,#########################################, ''#####,          
                    ,#############################################,,   '####,        
                  ,##################################################,,,,####,       
                ,###########''''           ''''###############################       
              ,#####''   ,,,,##########,,,,          '''####'''          '####       
            ,##' ,,,,###########################,,,                        '##       
           ' ,,###''''                  '''############,,,                           
         ,,##''                                '''############,,,,        ,,,,,,###''
      ,#''                                            '''#######################'''  
     '                                                          ''''####''''         
             ,#######,   #######,   ,#######,      ##                                
            ,#'     '#,  ##    ##  ,#'     '#,    #''#        ,####,   ,####,        
            ##       ##  ##   ,#'  ##            #'  '#       #'       #'  '#        
            ##       ##  #######   ##           ,######,      #####,   #    #        
            '#,     ,#'  ##    ##  '#,     ,#' ,#      #,     #,   #   #,  ,#        
             '#######'   ##     ##  '#######'  #'      '#     '####' # '####'        



                #########################################################
                #                        -***-                          #
                #          Department of theory and spectroscopy        #
                #                                                       #
                #                      Frank Neese                      #
                #                                                       #
                #     Directorship, Architecture, Infrastructure        #
                #                    SHARK, DRIVERS                     #
                #        Core code/Algorithms in most modules           #
                #                                                       #
                #        Max Planck Institute fuer Kohlenforschung      #
                #                Kaiser Wilhelm Platz 1                 #
                #                 D-45470 Muelheim/Ruhr                 #
                #                      Germany                          #
                #                                                       #
                #                  All rights reserved                  #
                #                        -***-                          #
                #########################################################


                         Program Version 6.0.1  -  RELEASE   -


 With contributions from (in alphabetic order):
[Max-Planck-Institut fuer Kohlenforschung]                               
  Daniel Aravena         : Magnetic Suceptibility                        
  Michael Atanasov       : Ab Initio Ligand Field Theory (pilot matlab implementation)
  Alexander A. Auer      : GIAO ZORA, VPT2 properties, NMR spectrum      
  Ute Becker             : All parallelization in ORCA, NUMFREQ, NUMCALC 
  Giovanni Bistoni       : ED, misc. LED, open-shell LED, HFLD           
  Martin Brehm           : Molecular dynamics                            
  Dmytro Bykov           : pre 5.0 version of the SCF Hessian            
  Marcos Casanova-Páez   : Triplet and SCS-CIS(D). UHF-(DLPNO)-IP/EA/STEOM-CCSD. UHF-CVS-IP/STEOM-CCSD   
  Vijay G. Chilkuri      : MRCI spin determinant printing, contributions to CSF-ICE 
  Pauline Colinet        : FMM embedding                                 
  Dipayan Datta          : RHF DLPNO-CCSD density                        
  Achintya Kumar Dutta   : EOM-CC, STEOM-CC                              
  Nicolas Foglia         : Exact transition moments, OPA infrastructure, MCD improvements    
  Dmitry Ganyushin       : Spin-Orbit,Spin-Spin,Magnetic field MRCI      
  Miquel Garcia-Rates    : C-PCM and meta-GGA Hessian, CCSD/C-PCM, Gaussian charge scheme 
  Tiago L. C. Gouveia    : GS-ROHF, GS-ROCIS                             
  Yang Guo               : DLPNO-NEVPT2, F12-NEVPT2, CIM, IAO-localization        
  Andreas Hansen         : Spin unrestricted coupled pair/coupled cluster methods 
  Ingolf Harden          : AUTO-CI MPn and infrastructure                
  Benjamin Helmich-Paris : MC-RPA, TRAH-(SCF,CASSCF), AVAS, COSX integrals, SCF dyn. polar. 
  Lee Huntington         : MR-EOM, pCC                                   
  Robert Izsak           : Overlap fitted RIJCOSX, COSX-SCS-MP3, EOM     
  Riya Kayal             : Wick's Theorem for AUTO-CI, AUTO-CI UHF-CCSDT 
  Emily Kempfer          : AUTO-CI, RHF CISDT and CCSDT                  
  Christian Kollmar      : KDIIS, OOCD, Brueckner-CCSD(T), CCSD density, CASPT2, CASPT2-K, improved NEVPT2 
  Axel Koslowski         : Symmetry handling                             
  Simone Kossmann        : meta-GGA functionals, TD-DFT gradient, OOMP2, (MP2 Hessian; deprecated post 5.0) 
  Lucas Lang             : DCDCAS                                        
  Marvin Lechner         : AUTO-CI (C++ implementation), FIC-MRCC        
  Spencer Leger          : CASSCF response                               
  Dagmar Lenk            : GEPOL surface, SMD, ORCA-2-JSON               
  Dimitrios Liakos       : Extrapolation schemes; Compound Job, initial MDCI parallelization 
  Dimitrios Manganas     : Further ROCIS development; embedding schemes. LFT, Crystal Embedding 
  Dimitrios Pantazis     : SARC Basis sets                               
  Anastasios Papadopoulos: AUTO-CI, single reference methods and gradients 
  Taras Petrenko         : pre 6.0 DFT Hessian and TD-DFT gradient, (ASA, deprecated), ECA, 1-Electron XAS/XES, NRVS 
  Peter Pinski           : DLPNO-MP2, DLPNO-MP2 Gradient                 
  Christoph Reimann      : Effective Core Potentials                     
  Marius Retegan         : Local ZFS, SOC                                
  Christoph Riplinger    : Optimizer, TS searches, QM/MM, DLPNO-CCSD(T), (RO)-DLPNO pert. Triples 
  Michael Roemelt        : Original ROCIS implementation                 
  Masaaki Saitow         : Open-shell DLPNO-CCSD energy and density      
  Barbara Sandhoefer     : DKH picture change effects                    
  Kantharuban Sivalingam : CASSCF convergence/infrastructure, NEVPT2 and variants, FIC-MRCI 
  Bernardo de Souza      : ESD, SOC TD-DFT                               
  Georgi L. Stoychev     : AutoAux, RI-MP2 NMR, DLPNO-MP2 response, X2C  
  Van Anh Tran           : RI-MP2 g-tensors                              
  Willem Van den Heuvel  : Paramagnetic NMR                              
  Zikuan Wang            : NOTCH, Electric field optimization            
  Frank Wennmohs         : Technical directorship and infrastructure     
  Hang Xu                : AUTO-CI-Response properties                   
                                                                         
[FACCTs GmbH]                                                            
  Markus Bursch, Miquel Garcia-Rates, Christoph Riplinger, Bernardo de Souza, Georgi L. Stoychev 
                                                                 
  APM, Basis sets (HGBS, AHGBS, def-TZVP (Ac-Lr), def2-XVPD (La-Lu)), CI-OPT, improved COSX, DLPNO-Multilevel,           
  DOCKER, DRACO, updates on ESD, GOAT, IRC, LR-CPCM, MBIS, meta-GGA TD-DFT gradient, ML-optimized integration grids, 
  MM, NACMEs, nearIR, NEB, NEB-TS, NL-DFT gradient (VV10), 2- and 3-layer-ONIOM, interface openCOSMO-RS, QMMM,   
  Crystal-QMMM, SF, symmetry and pop. for TD-DFT, r2SCAN hybrids, SOLVATOR                                   
                                                                         
[Other institutions]                                                     
  V. Asgeirsson          : NEB                                           
  Christoph Bannwarth    : sTDA-DFT, sTD-DFT, PBEh-3c, B97-3c, D3        
  Sebastian Ehlert       : rSCAN, r2SCAN, r2SCAN-3c, D4, dhf basis sets  
  Marvin Friede          : D4 for Fr, Ra, Ac-Lr                          
  Lars Goerigk           : TD-DFT with DH, B97 family of functionals     
  Stefan Grimme          : VdW corrections, initial TS optimization, DFT functionals, gCP, sTDA/sTD-DF 
  Waldemar Hujo          : DFT-NL                                        
  H. Jonsson             : NEB                                           
  Holger Kruse           : gCP                                           
  Marcel Mueller         : wB97X-3c, vDZP basis set                      
  Hagen Neugebauer       : wr2SCAN                                       
  Tobias Risthaus        : range-separated hybrid DFT                    
  Lukas Wittmann         : regularized MP2, r2SCAN double-hybrids, wr2SCAN        
                                                                         
We gratefully acknowledge several colleagues who have allowed us to      
interface, adapt or use parts of their codes:                            
  Ed Valeev, F. Pavosevic, A. Kumar             : LibInt (2-el integral package), F12 methods 
  Garnet Chan, S. Sharma, J. Yang, R. Olivares  : DMRG                   
  Ulf Ekstrom                                   : XCFun DFT Library      
  Mihaly Kallay                                 : mrcc  (arbitrary order and MRCC methods)
  Frank Weinhold                                : gennbo (NPA and NBO analysis)           
  Simon Mueller                                 : openCOSMO-RS                            
  Christopher J. Cramer and Donald G. Truhlar   : smd solvation model                     
  S Lehtola, MJT Oliveira, MAL Marques          : LibXC Library                           
  Liviu Ungur et al                             : ANISO software                          


 Your calculation uses the libint2 library for the computation of 2-el integrals
 For citations please refer to: http://libint.valeyev.net

 Your ORCA version has been built with support for libXC version: 6.2.2
 For citations please refer to: https://libxc.gitlab.io

 This ORCA versions uses:
   CBLAS   interface :  Fast vector & matrix operations
   LAPACKE interface :  Fast linear algebra routines
   SCALAPACK package :  Parallel linear algebra routines
   Shared memory     :  Shared parallel matrices
   BLAS/LAPACK       :  OpenBLAS 0.3.27  USE64BITINT DYNAMIC_ARCH NO_AFFINITY Zen SINGLE_THREADED
        Core in use  :  Zen
   Copyright (c) 2011-2014, The OpenBLAS Project




***************************************
The coordinates will be read from file: xtb_opt.xyz
***************************************


Your calculation utilizes the geometrical counterpoise correction gCP
Please cite in your paper:
H.Kruse, S. Grimme J.Chem.Phys., 136, (2012), 154101 
   

Your calculation utilizes the atom-pairwise dispersion correction
based on EEQ partial charges (D4)


Your calculation utilizes the SMD solvation module
Please cite in your paper:
A.V. Marenich, C.J. Cramer, D.G. Truhlar J. Phys. Chem. B, 113, (2009), 6378 

================================================================================

----- Orbital basis set information -----
Your calculation utilizes the basis: def2-mTZVPP
   Stefan Grimme, Andreas Hansen, Sebastian Ehlert, and Jan-Michael Mewes 
   J. Chem. Phys. 154, 064103 (2021). DOI: 10.1063/5.0040021

----- AuxJ basis set information -----
Your calculation utilizes the auxiliary basis: def2/J
   F. Weigend, Phys. Chem. Chem. Phys. 8, 1057 (2006).

================================================================================
                                        WARNINGS
                       Please study these warnings very carefully!
================================================================================

WARNING: Old DensityContainer found on disk!
         Will remove this file - 
         If you want to keep old densities, please start your calculation with a different basename. 



WARNING: SCAN, rSCAN, or r2SCAN functional requested.
  ===> : libXC variant has now been activated.



================================================================================
                                       INPUT FILE
================================================================================
NAME = xtb_opt.inp
|  1> ! r2scan-3c def2/J RI DEFGRID2 scfconv7 ENGRAD tightSCF miniprint
|  2> %cpcm
|  3>     smd true
|  4>     smdsolvent "water"
|  5> end
|  6> * xyzfile 0 1 xtb_opt.xyz
|  7> 
|  8>                          ****END OF INPUT****
================================================================================

                     *******************************
                     * Energy+Gradient Calculation *
                     *******************************

---------------------------------
CARTESIAN COORDINATES (ANGSTROEM)
---------------------------------
  C      2.356466   -1.282889    0.267029
  C      2.378198    0.032440   -0.506977
  C      1.324445    1.025339    0.009594
  C     -0.054042    0.524372   -0.205180
  C     -1.012830    0.439759    0.732660
  C     -2.341754   -0.073156    0.434444
  O     -2.724162   -0.470468   -0.664121
  H      2.543720   -1.107078    1.330301
  H      1.383717   -1.775091    0.175020
  H      3.119902   -1.970700   -0.104214
  H      2.197865   -0.158815   -1.570279
  H      3.364778    0.498033   -0.423836
  H      1.428528    1.968172   -0.544080
  H      1.490962    1.238575    1.070225
  H     -0.295088    0.188990   -1.213618
  H     -0.826815    0.748892    1.756579
  H     -3.040575   -0.091542    1.293821

----------------------------
CARTESIAN COORDINATES (A.U.)
----------------------------
  NO LB      ZA    FRAG     MASS         X           Y           Z
   0 C     6.0000    0    12.011    4.453076   -2.424309    0.504612
   1 C     6.0000    0    12.011    4.494143    0.061304   -0.958047
   2 C     6.0000    0    12.011    2.502838    1.937610    0.018131
   3 C     6.0000    0    12.011   -0.102125    0.990919   -0.387734
   4 C     6.0000    0    12.011   -1.913972    0.831025    1.384527
   5 C     6.0000    0    12.011   -4.425274   -0.138244    0.820979
   6 O     8.0000    0    15.999   -5.147921   -0.889055   -1.255007
   7 H     1.0000    0     1.008    4.806934   -2.092074    2.513904
   8 H     1.0000    0     1.008    2.614845   -3.354436    0.330741
   9 H     1.0000    0     1.008    5.895760   -3.724082   -0.196936
  10 H     1.0000    0     1.008    4.153363   -0.300116   -2.967398
  11 H     1.0000    0     1.008    6.358509    0.941146   -0.800934
  12 H     1.0000    0     1.008    2.699526    3.719306   -1.028163
  13 H     1.0000    0     1.008    2.817510    2.340567    2.022432
  14 H     1.0000    0     1.008   -0.557635    0.357140   -2.293406
  15 H     1.0000    0     1.008   -1.562453    1.415202    3.319454
  16 H     1.0000    0     1.008   -5.745854   -0.172990    2.444967

------------------------------------------------------------------------------
                   ___                                                        
                  /   \      - P O W E R E D   B Y -                         
                 /     \                                                     
                 |  |  |   _    _      __       _____    __    __             
                 |  |  |  | |  | |    /  \     |  _  \  |  |  /  |          
                  \  \/   | |  | |   /    \    | | | |  |  | /  /          
                 / \  \   | |__| |  /  /\  \   | |_| |  |  |/  /          
                |  |  |   |  __  | /  /__\  \  |    /   |      \           
                |  |  |   | |  | | |   __   |  |    \   |  |\   \          
                \     /   | |  | | |  |  |  |  | |\  \  |  | \   \       
                 \___/    |_|  |_| |__|  |__|  |_| \__\ |__|  \__/        
                                                                              
                      - O R C A' S   B I G   F R I E N D -                    
                                      &                                       
                       - I N T E G R A L  F E E D E R -                       
                                                                              
 v1 FN, 2020, v2 2021, v3 2022-2024                                           
------------------------------------------------------------------------------


----------------------
SHARK INTEGRAL PACKAGE
----------------------

Number of atoms                             ...     17
Number of basis functions                   ...    188
Number of shells                            ...     94
Maximum angular momentum                    ...      2
Integral batch strategy                     ... SHARK/LIBINT Hybrid
RI-J (if used) integral strategy            ... SPLIT-RIJ (Revised 2003 algorithm where possible)
Printlevel                                  ...      1
Contraction scheme used                     ... SEGMENTED contraction
Prescreening option                         ... SCHWARTZ
   Thresh                                   ... 3.000e-11
   Tcut                                     ... 1.000e-12
   Tpresel                                  ... 1.000e-12 
Coulomb Range Separation                    ... NOT USED
Exchange Range Separation                   ... NOT USED
Multipole approximations                    ... NOT USED
Finite Nucleus Model                        ... NOT USED
CABS basis                                  ... NOT available
Auxiliary Coulomb fitting basis             ... AVAILABLE
   # of basis functions in Aux-J            ...    453
   # of shells in Aux-J                     ...    155
   Maximum angular momentum in Aux-J        ...      4
Auxiliary J/K fitting basis                 ... NOT available
Auxiliary Correlation fitting basis         ... NOT available
Auxiliary 'external' fitting basis          ... NOT available

Checking pre-screening integrals            ... done (  0.0 sec) Dimension = 94
Check shell pair data                       ... done (  0.0 sec)
Shell pair information
Shell pair cut-off parameter TPreSel        ...   1.0e-12
Total number of shell pairs                 ...      4465
Shell pairs after pre-screening             ...      4022
Total number of primitive shell pairs       ...     15937
Primitive shell pairs kept                  ...     10418
          la=0 lb=0:   1370 shell pairs
          la=1 lb=0:   1543 shell pairs
          la=1 lb=1:    460 shell pairs
          la=2 lb=0:    392 shell pairs
          la=2 lb=1:    223 shell pairs
          la=2 lb=2:     34 shell pairs

Calculating one electron integrals          ... done (  0.0 sec)
Calculating RI/J V-Matrix + Cholesky decomp.... done (  0.0 sec)
Calculating Nuclear repulsion               ... done (  0.0 sec) ENN=    281.252230841132 Eh

Diagonalization of the overlap matrix:
Smallest eigenvalue                        ... 1.862e-04
Time for diagonalization                   ...    0.003 sec
Threshold for overlap eigenvalues          ... 1.000e-07
Number of eigenvalues below threshold      ... 0
Time for construction of square roots      ...    0.005 sec
Total time needed                          ...    0.009 sec

-------------------
DFT GRID GENERATION
-------------------

General Integration Accuracy     IntAcc      ... 4.388
Radial Grid Type                 RadialGrid  ... OptM3 with GC (2021)
Angular Grid (max. ang.)         AngularGrid ... 4 (Lebedev-302)
Angular grid pruning method      GridPruning ... 4 (adaptive)
Weight generation scheme         WeightScheme... mBecke (2022)
Basis function cutoff            BFCut       ... 1.0000e-11
Integration weight cutoff        WCut        ... 1.0000e-14
Partially contracted basis set               ... off
Rotationally invariant grid construction     ... off
Angular grids for H and He will be reduced by one unit
Diffuse basis detected: some atoms will have their outermost
                        angular grid increased by 1.

Total number of grid points                  ...    74691
Total number of batches                      ...     1175
Average number of points per batch           ...       63
Average number of grid points per atom       ...     4394
Initializing property integral containers    ... done (  0.0 sec)

SHARK setup successfully completed in   1.0 seconds

Maximum memory used throughout the entire STARTUP-calculation: 33.9 MB
Occupation numbers will be reassigned to an Aufbau configuration
             **** ENERGY FILE WAS UPDATED (xtb_opt.en.tmp) ****
Finished Guess after   0.1 sec
Maximum memory used throughout the entire GUESS-calculation: 13.2 MB
--------------------
CPCM SOLVATION MODEL
--------------------
CPCM parameters:
  Epsilon                                         ...      78.3550
  Refrac                                          ...       1.3328
  Rsolv                                           ...       1.3000
  Surface type                                    ... GAUSSIAN VDW
  Discretization scheme                           ... Constant charge density
    Threshold for H atoms                         ...       5.0000 (charges/Ang^2)
    Threshold for non-H atoms                     ...       5.0000 (charges/Ang^2)
  Epsilon function type                           ...         CPCM
Solvent:                                          ... WATER
SMD-CDS solvent descriptors:
  Soln                                            ...       1.3328
  Soln25                                          ...       1.3323
  Sola                                            ...       0.0000
  Solb                                            ...       0.0000
  Solg                                            ...       0.0000
  Solc                                            ...       0.0000
  Solh                                            ...       0.0000
Radii:
  Scheme                                          ... Element-dependent radii
  Radius for C  used is    3.4960 Bohr (=   1.8500 Ang.)
  Radius for O  used is    2.8724 Bohr (=   1.5200 Ang.)
  Radius for H  used is    2.2677 Bohr (=   1.2000 Ang.)
Calculating surface                               ...        done! (  0.0s)
Cavity surface points                             ...         1325
Cavity Volume                                     ...     790.6254
Cavity Surface-area                               ...     527.1230
Calculating surface distance matrix               ...        done! (  0.0s)
Performing Cholesky decomposition & store         ...        done! (  0.0s)
Overall time for CPCM initialization              ...                 0.1s

----------------------------------------D-I-I-S--------------------------------------------
Iteration    Energy (Eh)           Delta-E    RMSDP     MaxDP     DIISErr   Damp  Time(sec)
-------------------------------------------------------------------------------------------
               ***  Starting incremental Fock matrix formation  ***
    1    -309.7855684906620581     0.00e+00  6.90e-05  2.08e-03  4.74e-03  0.700   1.7
                              *** Initializing SOSCF ***
---------------------------------------S-O-S-C-F--------------------------------------
Iteration    Energy (Eh)           Delta-E    RMSDP     MaxDP     MaxGrad    Time(sec)
--------------------------------------------------------------------------------------
    2    -309.7856261665979218    -5.77e-05  2.10e-04  7.29e-03  3.03e-03     2.2
               *** Restarting incremental Fock matrix formation ***
    3    -309.7857494086748602    -1.23e-04  1.03e-04  4.77e-03  4.22e-04     2.6
    4    -309.7857470836221410     2.33e-06  6.04e-05  3.32e-03  4.43e-04     2.2
    5    -309.7857562078877436    -9.12e-06  2.18e-05  4.95e-04  2.02e-04     2.1
    6    -309.7857545101891219     1.70e-06  1.48e-05  3.33e-04  3.21e-04     1.4
    7    -309.7857569046205981    -2.39e-06  3.71e-06  1.71e-04  1.57e-05     1.5
                  *** Gradient check signals convergence ***

               *****************************************************
               *                     SUCCESS                       *
               *           SCF CONVERGED AFTER   7 CYCLES          *
               *****************************************************


SMD CDS free energy correction energy :                 4.61379     Kcal/mol
Total Energy after SMD CDS correction =              -309.778404368 Eh
             **** ENERGY FILE WAS UPDATED (xtb_opt.en.tmp) ****

----------------
TOTAL SCF ENERGY
----------------

Total Energy       :       -309.77840436766536 Eh           -8429.49893 eV

Components:
Nuclear Repulsion  :        281.25223084113179 Eh            7653.26229 eV
Electronic Energy  :       -591.02023211316373 Eh          -16082.47813 eV
One Electron Energy:       -975.34224248376927 Eh          -26540.41171 eV
Two Electron Energy:        384.32201037060554 Eh           10457.93357 eV
CPCM Dielectric    :         -0.01775563258872 Eh              -0.48316 eV
SMD CDS (Gcds)     :          0.00735253695524 Eh               0.20007 eV

Virial components:
Potential Energy   :       -618.14355537776032 Eh          -16820.54128 eV
Kinetic Energy     :        308.36515101009496 Eh            8391.04235 eV
Virial Ratio       :          2.00458305146655

DFT components:
N(Alpha)           :       27.000007179821 electrons
N(Beta)            :       27.000007179821 electrons
N(Total)           :       54.000014359643 electrons
E(X)               :      -43.019589462779 Eh       
E(C)               :       -1.698890316080 Eh       
E(XC)              :      -44.718479778859 Eh       

CPCM Solvation Model Properties:
Surface-charge          :         -0.04598858890570
Corrected charge        :         -0.00000000000000
Outlying charge corr.   :          0.00016719124609 Eh               0.00455 eV
Free-energy (cav+disp)  :          0.00735253695524 Eh               0.20007 eV

---------------
SCF CONVERGENCE
---------------

  Last Energy change         ...    2.3944e-06  Tolerance :   1.0000e-07
  Last MAX-Density change    ...    1.7111e-04  Tolerance :   1.0000e-07
  Last RMS-Density change    ...    3.7085e-06  Tolerance :   5.0000e-09
  Last DIIS Error            ...    3.0302e-03  Tolerance :   1.0000e-07
  Last Orbital Gradient      ...    1.5750e-05  Tolerance :   1.0000e-04
  Last Orbital Rotation      ...    5.2068e-05  Tolerance :   1.0000e-04


----------------
ORBITAL ENERGIES
----------------

  NO   OCC          E(Eh)            E(eV) 
   0   2.0000     -18.948639      -515.6187 
   1   2.0000     -10.119007      -275.3522 
   2   2.0000     -10.060562      -273.7618 
   3   2.0000     -10.035204      -273.0718 
   4   2.0000     -10.033522      -273.0260 
   5   2.0000     -10.027492      -272.8619 
   6   2.0000     -10.012552      -272.4554 
   7   2.0000      -1.006495       -27.3881 
   8   2.0000      -0.787461       -21.4279 
   9   2.0000      -0.733587       -19.9619 
  10   2.0000      -0.666014       -18.1232 
  11   2.0000      -0.600850       -16.3500 
  12   2.0000      -0.544972       -14.8294 
  13   2.0000      -0.507667       -13.8143 
  14   2.0000      -0.456495       -12.4219 
  15   2.0000      -0.432965       -11.7816 
  16   2.0000      -0.415739       -11.3128 
  17   2.0000      -0.406819       -11.0701 
  18   2.0000      -0.373193       -10.1551 
  19   2.0000      -0.368713       -10.0332 
  20   2.0000      -0.363766        -9.8986 
  21   2.0000      -0.330654        -8.9976 
  22   2.0000      -0.316769        -8.6197 
  23   2.0000      -0.304436        -8.2841 
  24   2.0000      -0.296847        -8.0776 
  25   2.0000      -0.249902        -6.8002 
  26   2.0000      -0.230592        -6.2747 
  27   0.0000      -0.098462        -2.6793 
  28   0.0000       0.035794         0.9740 
  29   0.0000       0.091285         2.4840 
  30   0.0000       0.108818         2.9611 
  31   0.0000       0.120584         3.2813 
  32   0.0000       0.129863         3.5338 
  33   0.0000       0.139244         3.7890 
  34   0.0000       0.149233         4.0608 
  35   0.0000       0.156566         4.2604 
  36   0.0000       0.168659         4.5894 
  37   0.0000       0.172117         4.6835 
*Only the first 10 virtual orbitals were printed.
Total SCF time: 0 days 0 hours 0 min 15 sec 
Finished LeanSCF after  17.6 sec

Maximum memory used throughout the entire LEANSCF-calculation: 24.9 MB


-------------------------------------------------------------------------------
                          DFT DISPERSION CORRECTION                            
                                                                               
                                DFTD4 V3.4.0                                   
-------------------------------------------------------------------------------
-------------------------   ----------------
Dispersion correction           -0.004292250
-------------------------   ----------------

------------------   -----------------
gCP correction             0.006742201
------------------   -----------------

-------------------------   --------------------
FINAL SINGLE POINT ENERGY      -309.775954416828
-------------------------   --------------------

------------------------------------------------------------------------------
                         ORCA SCF GRADIENT CALCULATION
------------------------------------------------------------------------------

Nuc. rep. gradient        (SHARK) ... done (  0.0 sec)
HCore & Overlap gradient  (SHARK) ... done (  0.3 sec)
Split-RIJ-J gradient      (SHARK) ... done (  1.7 sec)
XC gradient                       ... done (  4.4 sec)
CPCM gradient                     ... done (  1.1 sec)
SMD gradient                      ... done (  0.0 sec)
Dispersion correction             ... done (  0.0 sec)

-------------------
DISPERSION GRADIENT
-------------------

   1   C   :    0.000067543   -0.000057816    0.000009047
   2   C   :    0.000064852    0.000000180   -0.000023713
   3   C   :    0.000041742    0.000045992   -0.000003103
   4   C   :   -0.000022869    0.000030391   -0.000013897
   5   C   :   -0.000079095    0.000023842    0.000031912
   6   C   :   -0.000091965   -0.000005663    0.000016426
   7   O   :   -0.000074741   -0.000018632   -0.000021999
   8   H   :    0.000032174   -0.000024338    0.000013004
   9   H   :    0.000031455   -0.000033607    0.000000776
  10   H   :    0.000024034   -0.000026587    0.000000686
  11   H   :    0.000024703   -0.000002818   -0.000017313
  12   H   :    0.000026857    0.000002301   -0.000005612
  13   H   :    0.000014364    0.000030179   -0.000010786
  14   H   :    0.000015069    0.000020918    0.000008083
  15   H   :   -0.000019494    0.000007328   -0.000018133
  16   H   :   -0.000026931    0.000013233    0.000026945
  17   H   :   -0.000027698   -0.000004902    0.000007677

Difference to translation invariance:
           :   -0.0000000000    0.0000000000    0.0000000000

Difference to rotation invariance:
           :   -0.0000000000   -0.0000000000   -0.0000000000

Norm of the Dispersion gradient    ...    0.0002309997
RMS gradient                       ...    0.0000323464
MAX gradient                       ...    0.0000919652
gCP correction                   ... done

------------------
CARTESIAN GRADIENT
------------------

   1   C   :   -0.000053087   -0.001995707    0.001122462
   2   C   :    0.000083907    0.001365253   -0.000865931
   3   C   :    0.000487676    0.000991905   -0.000141857
   4   C   :   -0.000422662   -0.000452999   -0.000797094
   5   C   :   -0.000080241    0.000631354    0.001205808
   6   C   :    0.001029973   -0.001223199   -0.003869098
   7   O   :    0.000845406    0.001134799    0.002882958
   8   H   :   -0.000159051    0.000293124   -0.001309094
   9   H   :    0.000684162    0.001039062   -0.000059026
  10   H   :   -0.000762221    0.000808706    0.000164468
  11   H   :   -0.000264537   -0.000223391    0.001001071
  12   H   :   -0.000629893   -0.000442481    0.000239884
  13   H   :   -0.000419783   -0.000793496    0.000586918
  14   H   :   -0.000045670   -0.000936243   -0.000652153
  15   H   :    0.000020883   -0.000133979    0.001273419
  16   H   :   -0.000440317   -0.000358605   -0.001039564
  17   H   :    0.000125456    0.000295896    0.000256829

Difference to translation invariance:
           :   -0.0000000000   -0.0000000000    0.0000000000

Difference to rotation invariance:
           :   -0.0000455272   -0.0000554126   -0.0003089021

Norm of the Cartesian gradient     ...    0.0072044665
RMS gradient                       ...    0.0010088271
MAX gradient                       ...    0.0038690985

-------
TIMINGS
-------

Total SCF gradient time     ....        7.502 sec

Densities                   ....       0.001 sec  (  0.0%)
One electron gradient       ....       0.329 sec  (  4.4%)
RI-J Coulomb gradient       ....       1.653 sec  ( 22.0%)
XC gradient                 ....       4.412 sec  ( 58.8%)
CPCM gradient               ....       1.065 sec  ( 14.2%)
   A-Matrix (El+Nuc)        ....       0.068 sec  (  0.9%)
   Potential                ....       0.998 sec  ( 13.3%)
SMD gradient                ....       0.003 sec  (  0.0%)

Maximum memory used throughout the entire SCFGRAD-calculation: 33.4 MB

------------------------------------------------------------------------------
                              ORCA PROPERTY CALCULATIONS
------------------------------------------------------------------------------

GBWName                                 ... xtb_opt.gbw
Number of atoms                         ...     17
Number of basis functions               ...    188
Max core memory                         ...   1024 MB

Electric properties:
Dipole moment                           ... YES
Quadrupole moment                       ...  NO
Static polarizability (Dipole/Dipole)   ...  NO
Static polarizability (Dipole/Quad.)    ...  NO
Static polarizability (Quad./Quad.)     ...  NO
Static polarizability (Velocity)        ...  NO

Atomic electric properties:
Dipole moment                           ...  NO
Quadrupole moment                       ...  NO
Static polarizability                   ...  NO

Choice of electric origin               ... Center of mass
Position of electric origin             ...    -0.005603     0.000124    -0.001046

General magnetic properties:
Magnetizability                         ...  NO

EPR properties:
g-Tensor (aka g-matrix)                 ...  NO
Zero-Field splitting spin-orbit         ...  NO
Zero-field splitting spin-spin          ...  NO
Hyperfine couplings                     ...  NO (   0 nuclei)
Quadrupole couplings                    ...  NO (   0 nuclei)
Contact density                         ...  NO (   0 nuclei)

NMR properties:
Chemical shifts                         ...  NO (   0 nuclei)
Spin-rotation constants                 ...  NO (   0 nuclei)
Spin-spin couplings                     ...  NO (   0 nuclei,    0 pairs)

Choice of magnetic origin               ... GIAO
Position of magnetic origin             ...     0.000000     0.000000     0.000000

Properties with geometric perturbations:
SCF Hessian                             ...  NO
IR spectrum                             ...  NO
VCD spectrum                            ...  NO
X-ray spectroscopy properties:
SCF XES/XAS/RIXS spectra                ...  NO


-------------
DIPOLE MOMENT
-------------

Method             : SCF
Type of density    : Electron Density
Multiplicity       :   1
Irrep              :   0
Energy             :  -309.7784043676653596 Eh
Relativity type    : 
Basis              : AO
                                X                 Y                 Z
Electronic contribution:     -9.056332071       1.161316373      -0.701548981
Nuclear contribution   :     10.651817189      -0.439665014       1.655871775
                        -----------------------------------------
Total Dipole Moment    :      1.595485118       0.721651360       0.954322794
                        -----------------------------------------
Magnitude (a.u.)       :      1.994263133
Magnitude (Debye)      :      5.069014042



--------------------
Rotational spectrum 
--------------------
 
Rotational constants in cm-1:             0.190481             0.038847             0.036789 
Rotational constants in MHz :          5710.462684          1164.603484          1102.907564 

Dipole components along the rotational axes: 
x,y,z [a.u.] :     1.565784     0.858380    -0.888026 
x,y,z [Debye]:     3.979907     2.181828    -2.257183 

 

Dipole moment calculation done in   0.6 sec 

Maximum memory used throughout the entire PROP-calculation: 11.7 MB

--------------------------------
SUGGESTED CITATIONS FOR THIS RUN
--------------------------------

Below you find a list of papers that are relevant to this ORCA run
We neither can nor want to force you to cite these papers, but we appreciate if you do
You receive ORCA, which is the product of decades of hard work by many enthusiastic individuals, for free
The only thing we kindly ask in return is that you cite our papers,
We deeply appreciate it, if you show your appreciation for ORCA by not just citing the generic ORCA reference.

Please note that relegating all ORCA citations to the supporting information does *not* help us.
SI sections are not indexed - citations you put there will not count into any citation statistics
But we need these citations in order to attract the funding resources that allow us to do what we are doing

Therefore, if you are a happy ORCA user, please consider citing a few of the papers listed below in the main body of your paper

In addition to the list printed below, the program has created the file xtb_opt.bibtex that contains the list in bibtex format
You can import this file easily into all common literature databanks and citation aid programs


List of essential papers. We consider these as the minimum necessary citations

  1. Neese,F.
     Software update: the ORCA program system, version 5.0
     WIRES Comput. Molec. Sci., 2022 12(1)e1606
     doi.org/10.1002/wcms.1606
  2. Grimme,S.; Hansen,A.; Ehlert,S.; Mewes,J.
     r2SCAN-3c: A 'Swiss army knife' composite electronic-structure method
     J. Chem. Phys., 2021 154 064103
     doi.org/10.1063/5.0040021

List of papers to cite with high priority. The work reported in these papers was absolutely
necessary for this run to complete.
Our perspective: the developers of density functionals and basis sets usually get cited in chemistry papers
Good! But without the algorithms to do something with them, the functionals or basis sets would not do anything.
Hence, in our opinion, the algorithm design and method developments papers are equally worthy of getting cited

  1. Neese,F.
     An improvement of the resolution of the identity approximation for the formation of the Coulomb matrix
     J. Comp. Chem., 2003 24(14)1740-1747
     doi.org/10.1002/jcc.10318
  2. Garcia-Rates,M.; Neese,F.
     Effect of the Solute Cavity on the Solvation Energy and its Derivatives within the Framework of the Gaussian Charge Scheme
     J. Comput. Chem., 2020 41 922-939
     doi.org/10.1002/jcc.26139
  3. Neese,F.
     The SHARK Integral Generation and Digestion System
     J. Comp. Chem., 2022  1-16
     doi.org/10.1002/jcc.26942
  4. Lehtola,S.; Steigemann,C.; Oliveira,M.; Marques,M.
     Recent developments in Libxc - A comprehensive library of functionals for density functional theory
     Software X, 2018 7 
     doi.org/10.1016/j.softx.2017.11.002
  5. Caldeweyher,E.; Bannwarth,C.; Grimme,S.
     Extension of the D3 dispersion coefficient model
     J. Chem. Phys., 2017 147 034112
     doi.org/10.1063/1.4993215
  6. Caldeweyher,E.; Ehlert,S.; Hansen,A.; Neugebauer,H.; Spicher,S.; Bannwarth,C.; Grimme,S.
     A generally applicable atomic-charge dependent London dispersion correction
     J. Chem. Phys., 2019 150 154122
     doi.org/10.1063/1.5090222
  7. Caldeweyher,E.; Mewes,J.; Ehlert,S.; Grimme,S.
     Extension and evaluation of the D4 London-dispersion model for periodic systems
     Phys. Chem. Chem. Phys., 2020 22(16)8499-8512
     doi.org/10.1039/D0CP00502A
  8. Wittmann,L.; Gordiy,I.; Friede,M.; Helmich-Paris,B.; Grimme,S.; Hansen,A.; Bursch,M.
     Extension of the D3 and D4 London Dispersion Corrections to the full Actinides Series
     Phys. Chem. Chem. Phys., 2024 26(32)21379-21394
     doi.org/https://doi.org/10.1039/D4CP01514B 

List of suggested additional citations. These are papers that are important in the 'surrounding' of 
of this run, or papers that preceded the highly important papers. If you like your results we are grateful for a citation.

  1. Neese,F.
     The ORCA program system
     WIRES Comput. Molec. Sci., 2012 2(1)73-78
     doi.org/10.1002/wcms.81
  2. Neese,F.
     Software update: the ORCA program system, version 4.0
     WIRES Comput. Molec. Sci., 2018 8(1)1-6
     doi.org/10.1002/wcms.1327
  3. Neese,F.; Wennmohs,F.; Becker,U.; Riplinger,C.
     The ORCA quantum chemistry program package
     J. Chem. Phys., 2020 152 Art. No. L224108
     doi.org/10.1063/5.0004608

List of optional additional citations

  1. Neese,F.
     Approximate second-order SCF convergence for spin unrestricted wavefunctions
     Chem. Phys. Lett., 2000 325(1-3)93-98
     doi.org/10.1016/s0009-2614(00)00662-x

Timings for individual modules:

Sum of individual times          ...       28.369 sec (=   0.473 min)
Startup calculation              ...        1.007 sec (=   0.017 min)   3.6 %
SCF iterations                   ...       17.741 sec (=   0.296 min)  62.5 %
Property calculations            ...        0.687 sec (=   0.011 min)   2.4 %
SCF Gradient evaluation          ...        8.934 sec (=   0.149 min)  31.5 %
                             ****ORCA TERMINATED NORMALLY****
TOTAL RUN TIME: 0 days 0 hours 0 minutes 29 seconds 888 msec
  ------------------------------------------------------------------------
          * successful ORCA run, taking over control again...
av. E:   -309.7759544 ->   -309.7759544
av. G:      0.0306468 ->      0.0306468
 * total energy  :  -309.7759544 Eh     change       -0.7689725E-03 Eh
   gradient norm :     0.0072044 Eh/a0  converged?    E=F G=F D=F
   step length   :     0.0964585 a0

........................................................................
.............................. CYCLE    2 ..............................
........................................................................
                         * ORCA takes the control...
  ------------------------------------------------------------------------

                                 *****************
                                 * O   R   C   A *
                                 *****************

                                            #,                                       
                                            ###                                      
                                            ####                                     
                                            #####                                    
                                            ######                                   
                                           ########,                                 
                                     ,,################,,,,,                         
                               ,,#################################,,                 
                          ,,##########################################,,             
                       ,#########################################, ''#####,          
                    ,#############################################,,   '####,        
                  ,##################################################,,,,####,       
                ,###########''''           ''''###############################       
              ,#####''   ,,,,##########,,,,          '''####'''          '####       
            ,##' ,,,,###########################,,,                        '##       
           ' ,,###''''                  '''############,,,                           
         ,,##''                                '''############,,,,        ,,,,,,###''
      ,#''                                            '''#######################'''  
     '                                                          ''''####''''         
             ,#######,   #######,   ,#######,      ##                                
            ,#'     '#,  ##    ##  ,#'     '#,    #''#        ,####,   ,####,        
            ##       ##  ##   ,#'  ##            #'  '#       #'       #'  '#        
            ##       ##  #######   ##           ,######,      #####,   #    #        
            '#,     ,#'  ##    ##  '#,     ,#' ,#      #,     #,   #   #,  ,#        
             '#######'   ##     ##  '#######'  #'      '#     '####' # '####'        



                #########################################################
                #                        -***-                          #
                #          Department of theory and spectroscopy        #
                #                                                       #
                #                      Frank Neese                      #
                #                                                       #
                #     Directorship, Architecture, Infrastructure        #
                #                    SHARK, DRIVERS                     #
                #        Core code/Algorithms in most modules           #
                #                                                       #
                #        Max Planck Institute fuer Kohlenforschung      #
                #                Kaiser Wilhelm Platz 1                 #
                #                 D-45470 Muelheim/Ruhr                 #
                #                      Germany                          #
                #                                                       #
                #                  All rights reserved                  #
                #                        -***-                          #
                #########################################################


                         Program Version 6.0.1  -  RELEASE   -


 With contributions from (in alphabetic order):
[Max-Planck-Institut fuer Kohlenforschung]                               
  Daniel Aravena         : Magnetic Suceptibility                        
  Michael Atanasov       : Ab Initio Ligand Field Theory (pilot matlab implementation)
  Alexander A. Auer      : GIAO ZORA, VPT2 properties, NMR spectrum      
  Ute Becker             : All parallelization in ORCA, NUMFREQ, NUMCALC 
  Giovanni Bistoni       : ED, misc. LED, open-shell LED, HFLD           
  Martin Brehm           : Molecular dynamics                            
  Dmytro Bykov           : pre 5.0 version of the SCF Hessian            
  Marcos Casanova-Páez   : Triplet and SCS-CIS(D). UHF-(DLPNO)-IP/EA/STEOM-CCSD. UHF-CVS-IP/STEOM-CCSD   
  Vijay G. Chilkuri      : MRCI spin determinant printing, contributions to CSF-ICE 
  Pauline Colinet        : FMM embedding                                 
  Dipayan Datta          : RHF DLPNO-CCSD density                        
  Achintya Kumar Dutta   : EOM-CC, STEOM-CC                              
  Nicolas Foglia         : Exact transition moments, OPA infrastructure, MCD improvements    
  Dmitry Ganyushin       : Spin-Orbit,Spin-Spin,Magnetic field MRCI      
  Miquel Garcia-Rates    : C-PCM and meta-GGA Hessian, CCSD/C-PCM, Gaussian charge scheme 
  Tiago L. C. Gouveia    : GS-ROHF, GS-ROCIS                             
  Yang Guo               : DLPNO-NEVPT2, F12-NEVPT2, CIM, IAO-localization        
  Andreas Hansen         : Spin unrestricted coupled pair/coupled cluster methods 
  Ingolf Harden          : AUTO-CI MPn and infrastructure                
  Benjamin Helmich-Paris : MC-RPA, TRAH-(SCF,CASSCF), AVAS, COSX integrals, SCF dyn. polar. 
  Lee Huntington         : MR-EOM, pCC                                   
  Robert Izsak           : Overlap fitted RIJCOSX, COSX-SCS-MP3, EOM     
  Riya Kayal             : Wick's Theorem for AUTO-CI, AUTO-CI UHF-CCSDT 
  Emily Kempfer          : AUTO-CI, RHF CISDT and CCSDT                  
  Christian Kollmar      : KDIIS, OOCD, Brueckner-CCSD(T), CCSD density, CASPT2, CASPT2-K, improved NEVPT2 
  Axel Koslowski         : Symmetry handling                             
  Simone Kossmann        : meta-GGA functionals, TD-DFT gradient, OOMP2, (MP2 Hessian; deprecated post 5.0) 
  Lucas Lang             : DCDCAS                                        
  Marvin Lechner         : AUTO-CI (C++ implementation), FIC-MRCC        
  Spencer Leger          : CASSCF response                               
  Dagmar Lenk            : GEPOL surface, SMD, ORCA-2-JSON               
  Dimitrios Liakos       : Extrapolation schemes; Compound Job, initial MDCI parallelization 
  Dimitrios Manganas     : Further ROCIS development; embedding schemes. LFT, Crystal Embedding 
  Dimitrios Pantazis     : SARC Basis sets                               
  Anastasios Papadopoulos: AUTO-CI, single reference methods and gradients 
  Taras Petrenko         : pre 6.0 DFT Hessian and TD-DFT gradient, (ASA, deprecated), ECA, 1-Electron XAS/XES, NRVS 
  Peter Pinski           : DLPNO-MP2, DLPNO-MP2 Gradient                 
  Christoph Reimann      : Effective Core Potentials                     
  Marius Retegan         : Local ZFS, SOC                                
  Christoph Riplinger    : Optimizer, TS searches, QM/MM, DLPNO-CCSD(T), (RO)-DLPNO pert. Triples 
  Michael Roemelt        : Original ROCIS implementation                 
  Masaaki Saitow         : Open-shell DLPNO-CCSD energy and density      
  Barbara Sandhoefer     : DKH picture change effects                    
  Kantharuban Sivalingam : CASSCF convergence/infrastructure, NEVPT2 and variants, FIC-MRCI 
  Bernardo de Souza      : ESD, SOC TD-DFT                               
  Georgi L. Stoychev     : AutoAux, RI-MP2 NMR, DLPNO-MP2 response, X2C  
  Van Anh Tran           : RI-MP2 g-tensors                              
  Willem Van den Heuvel  : Paramagnetic NMR                              
  Zikuan Wang            : NOTCH, Electric field optimization            
  Frank Wennmohs         : Technical directorship and infrastructure     
  Hang Xu                : AUTO-CI-Response properties                   
                                                                         
[FACCTs GmbH]                                                            
  Markus Bursch, Miquel Garcia-Rates, Christoph Riplinger, Bernardo de Souza, Georgi L. Stoychev 
                                                                 
  APM, Basis sets (HGBS, AHGBS, def-TZVP (Ac-Lr), def2-XVPD (La-Lu)), CI-OPT, improved COSX, DLPNO-Multilevel,           
  DOCKER, DRACO, updates on ESD, GOAT, IRC, LR-CPCM, MBIS, meta-GGA TD-DFT gradient, ML-optimized integration grids, 
  MM, NACMEs, nearIR, NEB, NEB-TS, NL-DFT gradient (VV10), 2- and 3-layer-ONIOM, interface openCOSMO-RS, QMMM,   
  Crystal-QMMM, SF, symmetry and pop. for TD-DFT, r2SCAN hybrids, SOLVATOR                                   
                                                                         
[Other institutions]                                                     
  V. Asgeirsson          : NEB                                           
  Christoph Bannwarth    : sTDA-DFT, sTD-DFT, PBEh-3c, B97-3c, D3        
  Sebastian Ehlert       : rSCAN, r2SCAN, r2SCAN-3c, D4, dhf basis sets  
  Marvin Friede          : D4 for Fr, Ra, Ac-Lr                          
  Lars Goerigk           : TD-DFT with DH, B97 family of functionals     
  Stefan Grimme          : VdW corrections, initial TS optimization, DFT functionals, gCP, sTDA/sTD-DF 
  Waldemar Hujo          : DFT-NL                                        
  H. Jonsson             : NEB                                           
  Holger Kruse           : gCP                                           
  Marcel Mueller         : wB97X-3c, vDZP basis set                      
  Hagen Neugebauer       : wr2SCAN                                       
  Tobias Risthaus        : range-separated hybrid DFT                    
  Lukas Wittmann         : regularized MP2, r2SCAN double-hybrids, wr2SCAN        
                                                                         
We gratefully acknowledge several colleagues who have allowed us to      
interface, adapt or use parts of their codes:                            
  Ed Valeev, F. Pavosevic, A. Kumar             : LibInt (2-el integral package), F12 methods 
  Garnet Chan, S. Sharma, J. Yang, R. Olivares  : DMRG                   
  Ulf Ekstrom                                   : XCFun DFT Library      
  Mihaly Kallay                                 : mrcc  (arbitrary order and MRCC methods)
  Frank Weinhold                                : gennbo (NPA and NBO analysis)           
  Simon Mueller                                 : openCOSMO-RS                            
  Christopher J. Cramer and Donald G. Truhlar   : smd solvation model                     
  S Lehtola, MJT Oliveira, MAL Marques          : LibXC Library                           
  Liviu Ungur et al                             : ANISO software                          


 Your calculation uses the libint2 library for the computation of 2-el integrals
 For citations please refer to: http://libint.valeyev.net

 Your ORCA version has been built with support for libXC version: 6.2.2
 For citations please refer to: https://libxc.gitlab.io

 This ORCA versions uses:
   CBLAS   interface :  Fast vector & matrix operations
   LAPACKE interface :  Fast linear algebra routines
   SCALAPACK package :  Parallel linear algebra routines
   Shared memory     :  Shared parallel matrices
   BLAS/LAPACK       :  OpenBLAS 0.3.27  USE64BITINT DYNAMIC_ARCH NO_AFFINITY Zen SINGLE_THREADED
        Core in use  :  Zen
   Copyright (c) 2011-2014, The OpenBLAS Project




***************************************
The coordinates will be read from file: xtb_opt.xyz
***************************************


Your calculation utilizes the geometrical counterpoise correction gCP
Please cite in your paper:
H.Kruse, S. Grimme J.Chem.Phys., 136, (2012), 154101 
   

Your calculation utilizes the atom-pairwise dispersion correction
based on EEQ partial charges (D4)


Your calculation utilizes the SMD solvation module
Please cite in your paper:
A.V. Marenich, C.J. Cramer, D.G. Truhlar J. Phys. Chem. B, 113, (2009), 6378 

================================================================================

----- Orbital basis set information -----
Your calculation utilizes the basis: def2-mTZVPP
   Stefan Grimme, Andreas Hansen, Sebastian Ehlert, and Jan-Michael Mewes 
   J. Chem. Phys. 154, 064103 (2021). DOI: 10.1063/5.0040021

----- AuxJ basis set information -----
Your calculation utilizes the auxiliary basis: def2/J
   F. Weigend, Phys. Chem. Chem. Phys. 8, 1057 (2006).

================================================================================
                                        WARNINGS
                       Please study these warnings very carefully!
================================================================================

WARNING: Old DensityContainer found on disk!
         Will remove this file - 
         If you want to keep old densities, please start your calculation with a different basename. 



WARNING: SCAN, rSCAN, or r2SCAN functional requested.
  ===> : libXC variant has now been activated.



================================================================================
                                       INPUT FILE
================================================================================
NAME = xtb_opt.inp
|  1> ! r2scan-3c def2/J RI DEFGRID2 scfconv7 ENGRAD tightSCF miniprint
|  2> %cpcm
|  3>     smd true
|  4>     smdsolvent "water"
|  5> end
|  6> * xyzfile 0 1 xtb_opt.xyz
|  7> 
|  8>                          ****END OF INPUT****
================================================================================

                     *******************************
                     * Energy+Gradient Calculation *
                     *******************************

---------------------------------
CARTESIAN COORDINATES (ANGSTROEM)
---------------------------------
  C      2.360466   -1.285046    0.267519
  C      2.379981    0.030615   -0.505366
  C      1.323784    1.024906    0.008362
  C     -0.056228    0.526025   -0.206958
  C     -1.015768    0.439322    0.731555
  C     -2.350085   -0.068135    0.437452
  O     -2.733936   -0.468274   -0.662776
  H      2.543806   -1.113304    1.334461
  H      1.389960   -1.785870    0.173455
  H      3.128463   -1.972003   -0.101442
  H      2.204434   -0.157269   -1.571756
  H      3.366166    0.500097   -0.422440
  H      1.431719    1.966637   -0.550041
  H      1.488853    1.248051    1.068809
  H     -0.297796    0.199076   -1.220176
  H     -0.825193    0.746216    1.757549
  H     -3.045314   -0.096209    1.299162

----------------------------
CARTESIAN COORDINATES (A.U.)
----------------------------
  NO LB      ZA    FRAG     MASS         X           Y           Z
   0 C     6.0000    0    12.011    4.460635   -2.428386    0.505537
   1 C     6.0000    0    12.011    4.497513    0.057854   -0.955004
   2 C     6.0000    0    12.011    2.501589    1.936792    0.015802
   3 C     6.0000    0    12.011   -0.106255    0.994044   -0.391094
   4 C     6.0000    0    12.011   -1.919524    0.830199    1.382439
   5 C     6.0000    0    12.011   -4.441017   -0.128757    0.826664
   6 O     8.0000    0    15.999   -5.166389   -0.884910   -1.252465
   7 H     1.0000    0     1.008    4.807097   -2.103839    2.521765
   8 H     1.0000    0     1.008    2.626644   -3.374806    0.327783
   9 H     1.0000    0     1.008    5.911939   -3.726546   -0.191698
  10 H     1.0000    0     1.008    4.165776   -0.297195   -2.970188
  11 H     1.0000    0     1.008    6.361132    0.945046   -0.798296
  12 H     1.0000    0     1.008    2.705556    3.716405   -1.039426
  13 H     1.0000    0     1.008    2.813524    2.358475    2.019757
  14 H     1.0000    0     1.008   -0.562752    0.376200   -2.305799
  15 H     1.0000    0     1.008   -1.559388    1.410144    3.321286
  16 H     1.0000    0     1.008   -5.754809   -0.181810    2.455060

------------------------------------------------------------------------------
                   ___                                                        
                  /   \      - P O W E R E D   B Y -                         
                 /     \                                                     
                 |  |  |   _    _      __       _____    __    __             
                 |  |  |  | |  | |    /  \     |  _  \  |  |  /  |          
                  \  \/   | |  | |   /    \    | | | |  |  | /  /          
                 / \  \   | |__| |  /  /\  \   | |_| |  |  |/  /          
                |  |  |   |  __  | /  /__\  \  |    /   |      \           
                |  |  |   | |  | | |   __   |  |    \   |  |\   \          
                \     /   | |  | | |  |  |  |  | |\  \  |  | \   \       
                 \___/    |_|  |_| |__|  |__|  |_| \__\ |__|  \__/        
                                                                              
                      - O R C A' S   B I G   F R I E N D -                    
                                      &                                       
                       - I N T E G R A L  F E E D E R -                       
                                                                              
 v1 FN, 2020, v2 2021, v3 2022-2024                                           
------------------------------------------------------------------------------


----------------------
SHARK INTEGRAL PACKAGE
----------------------

Number of atoms                             ...     17
Number of basis functions                   ...    188
Number of shells                            ...     94
Maximum angular momentum                    ...      2
Integral batch strategy                     ... SHARK/LIBINT Hybrid
RI-J (if used) integral strategy            ... SPLIT-RIJ (Revised 2003 algorithm where possible)
Printlevel                                  ...      1
Contraction scheme used                     ... SEGMENTED contraction
Prescreening option                         ... SCHWARTZ
   Thresh                                   ... 3.000e-11
   Tcut                                     ... 1.000e-12
   Tpresel                                  ... 1.000e-12 
Coulomb Range Separation                    ... NOT USED
Exchange Range Separation                   ... NOT USED
Multipole approximations                    ... NOT USED
Finite Nucleus Model                        ... NOT USED
CABS basis                                  ... NOT available
Auxiliary Coulomb fitting basis             ... AVAILABLE
   # of basis functions in Aux-J            ...    453
   # of shells in Aux-J                     ...    155
   Maximum angular momentum in Aux-J        ...      4
Auxiliary J/K fitting basis                 ... NOT available
Auxiliary Correlation fitting basis         ... NOT available
Auxiliary 'external' fitting basis          ... NOT available

Checking pre-screening integrals            ... done (  0.0 sec) Dimension = 94
Check shell pair data                       ... done (  0.0 sec)
Shell pair information
Shell pair cut-off parameter TPreSel        ...   1.0e-12
Total number of shell pairs                 ...      4465
Shell pairs after pre-screening             ...      4018
Total number of primitive shell pairs       ...     15937
Primitive shell pairs kept                  ...     10408
          la=0 lb=0:   1369 shell pairs
          la=1 lb=0:   1541 shell pairs
          la=1 lb=1:    459 shell pairs
          la=2 lb=0:    392 shell pairs
          la=2 lb=1:    223 shell pairs
          la=2 lb=2:     34 shell pairs

Calculating one electron integrals          ... done (  0.0 sec)
Calculating RI/J V-Matrix + Cholesky decomp.... done (  0.0 sec)
Calculating Nuclear repulsion               ... done (  0.0 sec) ENN=    280.806786206748 Eh

Diagonalization of the overlap matrix:
Smallest eigenvalue                        ... 1.877e-04
Time for diagonalization                   ...    0.004 sec
Threshold for overlap eigenvalues          ... 1.000e-07
Number of eigenvalues below threshold      ... 0
Time for construction of square roots      ...    0.014 sec
Total time needed                          ...    0.020 sec

-------------------
DFT GRID GENERATION
-------------------

General Integration Accuracy     IntAcc      ... 4.388
Radial Grid Type                 RadialGrid  ... OptM3 with GC (2021)
Angular Grid (max. ang.)         AngularGrid ... 4 (Lebedev-302)
Angular grid pruning method      GridPruning ... 4 (adaptive)
Weight generation scheme         WeightScheme... mBecke (2022)
Basis function cutoff            BFCut       ... 1.0000e-11
Integration weight cutoff        WCut        ... 1.0000e-14
Partially contracted basis set               ... off
Rotationally invariant grid construction     ... off
Angular grids for H and He will be reduced by one unit
Diffuse basis detected: some atoms will have their outermost
                        angular grid increased by 1.

Total number of grid points                  ...    74697
Total number of batches                      ...     1175
Average number of points per batch           ...       63
Average number of grid points per atom       ...     4394
Initializing property integral containers    ... done (  0.0 sec)

SHARK setup successfully completed in   1.0 seconds

Maximum memory used throughout the entire STARTUP-calculation: 33.9 MB
Occupation numbers will be reassigned to an Aufbau configuration
             **** ENERGY FILE WAS UPDATED (xtb_opt.en.tmp) ****
Finished Guess after   0.1 sec
Maximum memory used throughout the entire GUESS-calculation: 13.2 MB
--------------------
CPCM SOLVATION MODEL
--------------------
CPCM parameters:
  Epsilon                                         ...      78.3550
  Refrac                                          ...       1.3328
  Rsolv                                           ...       1.3000
  Surface type                                    ... GAUSSIAN VDW
  Discretization scheme                           ... Constant charge density
    Threshold for H atoms                         ...       5.0000 (charges/Ang^2)
    Threshold for non-H atoms                     ...       5.0000 (charges/Ang^2)
  Epsilon function type                           ...         CPCM
Solvent:                                          ... WATER
SMD-CDS solvent descriptors:
  Soln                                            ...       1.3328
  Soln25                                          ...       1.3323
  Sola                                            ...       0.0000
  Solb                                            ...       0.0000
  Solg                                            ...       0.0000
  Solc                                            ...       0.0000
  Solh                                            ...       0.0000
Radii:
  Scheme                                          ... Element-dependent radii
  Radius for C  used is    3.4960 Bohr (=   1.8500 Ang.)
  Radius for O  used is    2.8724 Bohr (=   1.5200 Ang.)
  Radius for H  used is    2.2677 Bohr (=   1.2000 Ang.)
Calculating surface                               ...        done! (  0.1s)
Cavity surface points                             ...         1328
Cavity Volume                                     ...     791.5811
Cavity Surface-area                               ...     528.1297
Calculating surface distance matrix               ...        done! (  0.0s)
Performing Cholesky decomposition & store         ...        done! (  0.1s)
Overall time for CPCM initialization              ...                 0.2s

----------------------------------------D-I-I-S--------------------------------------------
Iteration    Energy (Eh)           Delta-E    RMSDP     MaxDP     DIISErr   Damp  Time(sec)
-------------------------------------------------------------------------------------------
               ***  Starting incremental Fock matrix formation  ***
                              *** Initializing SOSCF ***
---------------------------------------S-O-S-C-F--------------------------------------
Iteration    Energy (Eh)           Delta-E    RMSDP     MaxDP     MaxGrad    Time(sec)
--------------------------------------------------------------------------------------
    1    -309.7857562349608429     0.00e+00  1.11e-04  2.04e-03  2.52e-04    31.9
               *** Restarting incremental Fock matrix formation ***
    2    -309.7858091424017744    -5.29e-05  6.98e-05  3.13e-03  2.72e-04     2.0
    3    -309.7858114278818107    -2.29e-06  4.43e-05  2.24e-03  4.60e-04     1.5
    4    -309.7858132603368517    -1.83e-06  2.12e-05  2.79e-04  3.15e-04     1.6
    5    -309.7858141581214682    -8.98e-07  1.12e-05  2.84e-04  8.81e-05     1.4
    6    -309.7858145771627392    -4.19e-07  5.97e-06  8.06e-05  4.29e-05     1.4
    7    -309.7858146352265862    -5.81e-08  3.99e-06  1.74e-04  4.44e-05     1.3
                 **** Energy Check signals convergence ****

               *****************************************************
               *                     SUCCESS                       *
               *           SCF CONVERGED AFTER   7 CYCLES          *
               *****************************************************


SMD CDS free energy correction energy :                 4.61457     Kcal/mol
Total Energy after SMD CDS correction =              -309.778460845 Eh
             **** ENERGY FILE WAS UPDATED (xtb_opt.en.tmp) ****

----------------
TOTAL SCF ENERGY
----------------

Total Energy       :       -309.77846084538993 Eh           -8429.50047 eV

Components:
Nuclear Repulsion  :        280.80678620674820 Eh            7641.14112 eV
Electronic Energy  :       -590.57471583061420 Eh          -16070.35502 eV
One Electron Energy:       -974.46849665254081 Eh          -26516.63587 eV
Two Electron Energy:        383.89378082192661 Eh           10446.28085 eV
CPCM Dielectric    :         -0.01788501136062 Eh              -0.48668 eV
SMD CDS (Gcds)     :          0.00735378983666 Eh               0.20011 eV

Virial components:
Potential Energy   :       -618.09677679241531 Eh          -16819.26837 eV
Kinetic Energy     :        308.31831594702533 Eh            8389.76790 eV
Virial Ratio       :          2.00473583573483

DFT components:
N(Alpha)           :       27.000007448626 electrons
N(Beta)            :       27.000007448626 electrons
N(Total)           :       54.000014897252 electrons
E(X)               :      -43.008553746002 Eh       
E(C)               :       -1.698353719114 Eh       
E(XC)              :      -44.706907465115 Eh       

CPCM Solvation Model Properties:
Surface-charge          :         -0.04607996349470
Corrected charge        :         -0.00000000000000
Outlying charge corr.   :          0.00016771285159 Eh               0.00456 eV
Free-energy (cav+disp)  :          0.00735378983666 Eh               0.20011 eV

---------------
SCF CONVERGENCE
---------------

  Last Energy change         ...    5.8064e-08  Tolerance :   1.0000e-07
  Last MAX-Density change    ...    1.7375e-04  Tolerance :   1.0000e-07
  Last RMS-Density change    ...    3.9867e-06  Tolerance :   5.0000e-09
  Last DIIS Error            ...    1.7332e-03  Tolerance :   1.0000e-07
  Last Orbital Gradient      ...    4.4385e-05  Tolerance :   1.0000e-04
  Last Orbital Rotation      ...    1.5149e-04  Tolerance :   1.0000e-04


----------------
ORBITAL ENERGIES
----------------

  NO   OCC          E(Eh)            E(eV) 
   0   2.0000     -18.948724      -515.6210 
   1   2.0000     -10.119590      -275.3681 
   2   2.0000     -10.061224      -273.7798 
   3   2.0000     -10.035943      -273.0919 
   4   2.0000     -10.034213      -273.0448 
   5   2.0000     -10.028280      -272.8834 
   6   2.0000     -10.013420      -272.4790 
   7   2.0000      -1.005055       -27.3489 
   8   2.0000      -0.786882       -21.4122 
   9   2.0000      -0.733110       -19.9489 
  10   2.0000      -0.665801       -18.1174 
  11   2.0000      -0.600822       -16.3492 
  12   2.0000      -0.544906       -14.8276 
  13   2.0000      -0.507485       -13.8094 
  14   2.0000      -0.456143       -12.4123 
  15   2.0000      -0.432563       -11.7706 
  16   2.0000      -0.415167       -11.2973 
  17   2.0000      -0.406312       -11.0563 
  18   2.0000      -0.372503       -10.1363 
  19   2.0000      -0.368316       -10.0224 
  20   2.0000      -0.363876        -9.9016 
  21   2.0000      -0.330221        -8.9858 
  22   2.0000      -0.316971        -8.6252 
  23   2.0000      -0.304632        -8.2894 
  24   2.0000      -0.296471        -8.0674 
  25   2.0000      -0.249790        -6.7971 
  26   2.0000      -0.230804        -6.2805 
  27   0.0000      -0.098979        -2.6934 
  28   0.0000       0.035043         0.9536 
  29   0.0000       0.090993         2.4760 
  30   0.0000       0.108509         2.9527 
  31   0.0000       0.120515         3.2794 
  32   0.0000       0.129470         3.5231 
  33   0.0000       0.138678         3.7736 
  34   0.0000       0.148899         4.0517 
  35   0.0000       0.156236         4.2514 
  36   0.0000       0.168217         4.5774 
  37   0.0000       0.171721         4.6728 
*Only the first 10 virtual orbitals were printed.
Total SCF time: 0 days 0 hours 0 min 45 sec 
Finished LeanSCF after  46.9 sec

Maximum memory used throughout the entire LEANSCF-calculation: 24.9 MB


-------------------------------------------------------------------------------
                          DFT DISPERSION CORRECTION                            
                                                                               
                                DFTD4 V3.4.0                                   
-------------------------------------------------------------------------------
-------------------------   ----------------
Dispersion correction           -0.004284644
-------------------------   ----------------

------------------   -----------------
gCP correction             0.006717771
------------------   -----------------

-------------------------   --------------------
FINAL SINGLE POINT ENERGY      -309.776027718356
-------------------------   --------------------

------------------------------------------------------------------------------
                         ORCA SCF GRADIENT CALCULATION
------------------------------------------------------------------------------

Nuc. rep. gradient        (SHARK) ... done (  0.0 sec)
HCore & Overlap gradient  (SHARK) ... done (  0.3 sec)
Split-RIJ-J gradient      (SHARK) ... done (  1.6 sec)
XC gradient                       ... done (  4.4 sec)
CPCM gradient                     ... done (  1.1 sec)
SMD gradient                      ... done (  0.0 sec)
Dispersion correction             ... done (  0.0 sec)

-------------------
DISPERSION GRADIENT
-------------------

   1   C   :    0.000067514   -0.000058138    0.000009169
   2   C   :    0.000064808    0.000000208   -0.000023732
   3   C   :    0.000041669    0.000046188   -0.000003239
   4   C   :   -0.000023036    0.000030634   -0.000014026
   5   C   :   -0.000079151    0.000023827    0.000031873
   6   C   :   -0.000091537   -0.000005623    0.000016483
   7   O   :   -0.000074459   -0.000018610   -0.000021880
   8   H   :    0.000032081   -0.000024467    0.000013000
   9   H   :    0.000031460   -0.000033862    0.000000815
  10   H   :    0.000023839   -0.000026459    0.000000763
  11   H   :    0.000024623   -0.000002826   -0.000017284
  12   H   :    0.000026813    0.000002307   -0.000005587
  13   H   :    0.000014326    0.000030030   -0.000010802
  14   H   :    0.000014955    0.000021085    0.000008090
  15   H   :   -0.000019431    0.000007459   -0.000018312
  16   H   :   -0.000026868    0.000013185    0.000026965
  17   H   :   -0.000027605   -0.000004938    0.000007703

Difference to translation invariance:
           :    0.0000000000   -0.0000000000   -0.0000000000

Difference to rotation invariance:
           :    0.0000000000    0.0000000000   -0.0000000000

Norm of the Dispersion gradient    ...    0.0002308627
RMS gradient                       ...    0.0000323272
MAX gradient                       ...    0.0000915374
gCP correction                   ... done

------------------
CARTESIAN GRADIENT
------------------

   1   C   :    0.000023535   -0.000289437    0.000168427
   2   C   :   -0.000087834    0.000519598   -0.000271512
   3   C   :    0.000217492   -0.000007909   -0.000345149
   4   C   :    0.000411565   -0.000310163    0.000098606
   5   C   :    0.000285715   -0.000093967    0.000354205
   6   C   :   -0.000232357    0.001388894   -0.000325500
   7   O   :    0.000000508   -0.000716734   -0.000530758
   8   H   :    0.000028116    0.000083922    0.000150630
   9   H   :   -0.000262405    0.000037147    0.000066061
  10   H   :   -0.000087362   -0.000105143   -0.000080294
  11   H   :   -0.000061214   -0.000016081   -0.000123567
  12   H   :    0.000031151    0.000022593   -0.000088599
  13   H   :   -0.000022533    0.000191754    0.000206779
  14   H   :   -0.000015006   -0.000108843    0.000207829
  15   H   :   -0.000105610   -0.000238878   -0.000060068
  16   H   :   -0.000135794    0.000105034    0.000183402
  17   H   :    0.000012032   -0.000461788    0.000389509

Difference to translation invariance:
           :   -0.0000000000   -0.0000000000   -0.0000000000

Difference to rotation invariance:
           :   -0.0000683693   -0.0000447618   -0.0003108224

Norm of the Cartesian gradient     ...    0.0021909868
RMS gradient                       ...    0.0003067995
MAX gradient                       ...    0.0013888945

-------
TIMINGS
-------

Total SCF gradient time     ....        7.492 sec

Densities                   ....       0.001 sec  (  0.0%)
One electron gradient       ....       0.306 sec  (  4.1%)
RI-J Coulomb gradient       ....       1.589 sec  ( 21.2%)
XC gradient                 ....       4.448 sec  ( 59.4%)
CPCM gradient               ....       1.090 sec  ( 14.6%)
   A-Matrix (El+Nuc)        ....       0.078 sec  (  1.0%)
   Potential                ....       1.013 sec  ( 13.5%)
SMD gradient                ....       0.005 sec  (  0.1%)

Maximum memory used throughout the entire SCFGRAD-calculation: 33.3 MB

------------------------------------------------------------------------------
                              ORCA PROPERTY CALCULATIONS
------------------------------------------------------------------------------

GBWName                                 ... xtb_opt.gbw
Number of atoms                         ...     17
Number of basis functions               ...    188
Max core memory                         ...   1024 MB

Electric properties:
Dipole moment                           ... YES
Quadrupole moment                       ...  NO
Static polarizability (Dipole/Dipole)   ...  NO
Static polarizability (Dipole/Quad.)    ...  NO
Static polarizability (Quad./Quad.)     ...  NO
Static polarizability (Velocity)        ...  NO

Atomic electric properties:
Dipole moment                           ...  NO
Quadrupole moment                       ...  NO
Static polarizability                   ...  NO

Choice of electric origin               ... Center of mass
Position of electric origin             ...    -0.010189     0.001143    -0.000447

General magnetic properties:
Magnetizability                         ...  NO

EPR properties:
g-Tensor (aka g-matrix)                 ...  NO
Zero-Field splitting spin-orbit         ...  NO
Zero-field splitting spin-spin          ...  NO
Hyperfine couplings                     ...  NO (   0 nuclei)
Quadrupole couplings                    ...  NO (   0 nuclei)
Contact density                         ...  NO (   0 nuclei)

NMR properties:
Chemical shifts                         ...  NO (   0 nuclei)
Spin-rotation constants                 ...  NO (   0 nuclei)
Spin-spin couplings                     ...  NO (   0 nuclei,    0 pairs)

Choice of magnetic origin               ... GIAO
Position of magnetic origin             ...     0.000000     0.000000     0.000000

Properties with geometric perturbations:
SCF Hessian                             ...  NO
IR spectrum                             ...  NO
VCD spectrum                            ...  NO
X-ray spectroscopy properties:
SCF XES/XAS/RIXS spectra                ...  NO


-------------
DIPOLE MOMENT
-------------

Method             : SCF
Type of density    : Electron Density
Multiplicity       :   1
Irrep              :   0
Energy             :  -309.7784608453899295 Eh
Relativity type    : 
Basis              : AO
                                X                 Y                 Z
Electronic contribution:     -9.089654567       1.171764603      -0.694280785
Nuclear contribution   :     10.691463850      -0.448465777       1.650722295
                        -----------------------------------------
Total Dipole Moment    :      1.601809283       0.723298826       0.956441510
                        -----------------------------------------
Magnitude (a.u.)       :      2.000933416
Magnitude (Debye)      :      5.085968554



--------------------
Rotational spectrum 
--------------------
 
Rotational constants in cm-1:             0.190236             0.038677             0.036635 
Rotational constants in MHz :          5703.117451          1159.497867          1098.281407 

Dipole components along the rotational axes: 
x,y,z [a.u.] :     1.571150     0.857968    -0.893932 
x,y,z [Debye]:     3.993545     2.180781    -2.272194 

 

Dipole moment calculation done in   0.4 sec 

Maximum memory used throughout the entire PROP-calculation: 11.7 MB

--------------------------------
SUGGESTED CITATIONS FOR THIS RUN
--------------------------------

Below you find a list of papers that are relevant to this ORCA run
We neither can nor want to force you to cite these papers, but we appreciate if you do
You receive ORCA, which is the product of decades of hard work by many enthusiastic individuals, for free
The only thing we kindly ask in return is that you cite our papers,
We deeply appreciate it, if you show your appreciation for ORCA by not just citing the generic ORCA reference.

Please note that relegating all ORCA citations to the supporting information does *not* help us.
SI sections are not indexed - citations you put there will not count into any citation statistics
But we need these citations in order to attract the funding resources that allow us to do what we are doing

Therefore, if you are a happy ORCA user, please consider citing a few of the papers listed below in the main body of your paper

In addition to the list printed below, the program has created the file xtb_opt.bibtex that contains the list in bibtex format
You can import this file easily into all common literature databanks and citation aid programs


List of essential papers. We consider these as the minimum necessary citations

  1. Neese,F.
     Software update: the ORCA program system, version 5.0
     WIRES Comput. Molec. Sci., 2022 12(1)e1606
     doi.org/10.1002/wcms.1606
  2. Grimme,S.; Hansen,A.; Ehlert,S.; Mewes,J.
     r2SCAN-3c: A 'Swiss army knife' composite electronic-structure method
     J. Chem. Phys., 2021 154 064103
     doi.org/10.1063/5.0040021

List of papers to cite with high priority. The work reported in these papers was absolutely
necessary for this run to complete.
Our perspective: the developers of density functionals and basis sets usually get cited in chemistry papers
Good! But without the algorithms to do something with them, the functionals or basis sets would not do anything.
Hence, in our opinion, the algorithm design and method developments papers are equally worthy of getting cited

  1. Neese,F.
     An improvement of the resolution of the identity approximation for the formation of the Coulomb matrix
     J. Comp. Chem., 2003 24(14)1740-1747
     doi.org/10.1002/jcc.10318
  2. Garcia-Rates,M.; Neese,F.
     Effect of the Solute Cavity on the Solvation Energy and its Derivatives within the Framework of the Gaussian Charge Scheme
     J. Comput. Chem., 2020 41 922-939
     doi.org/10.1002/jcc.26139
  3. Neese,F.
     The SHARK Integral Generation and Digestion System
     J. Comp. Chem., 2022  1-16
     doi.org/10.1002/jcc.26942
  4. Lehtola,S.; Steigemann,C.; Oliveira,M.; Marques,M.
     Recent developments in Libxc - A comprehensive library of functionals for density functional theory
     Software X, 2018 7 
     doi.org/10.1016/j.softx.2017.11.002
  5. Caldeweyher,E.; Bannwarth,C.; Grimme,S.
     Extension of the D3 dispersion coefficient model
     J. Chem. Phys., 2017 147 034112
     doi.org/10.1063/1.4993215
  6. Caldeweyher,E.; Ehlert,S.; Hansen,A.; Neugebauer,H.; Spicher,S.; Bannwarth,C.; Grimme,S.
     A generally applicable atomic-charge dependent London dispersion correction
     J. Chem. Phys., 2019 150 154122
     doi.org/10.1063/1.5090222
  7. Caldeweyher,E.; Mewes,J.; Ehlert,S.; Grimme,S.
     Extension and evaluation of the D4 London-dispersion model for periodic systems
     Phys. Chem. Chem. Phys., 2020 22(16)8499-8512
     doi.org/10.1039/D0CP00502A
  8. Wittmann,L.; Gordiy,I.; Friede,M.; Helmich-Paris,B.; Grimme,S.; Hansen,A.; Bursch,M.
     Extension of the D3 and D4 London Dispersion Corrections to the full Actinides Series
     Phys. Chem. Chem. Phys., 2024 26(32)21379-21394
     doi.org/https://doi.org/10.1039/D4CP01514B 

List of suggested additional citations. These are papers that are important in the 'surrounding' of 
of this run, or papers that preceded the highly important papers. If you like your results we are grateful for a citation.

  1. Neese,F.
     The ORCA program system
     WIRES Comput. Molec. Sci., 2012 2(1)73-78
     doi.org/10.1002/wcms.81
  2. Neese,F.
     Software update: the ORCA program system, version 4.0
     WIRES Comput. Molec. Sci., 2018 8(1)1-6
     doi.org/10.1002/wcms.1327
  3. Neese,F.; Wennmohs,F.; Becker,U.; Riplinger,C.
     The ORCA quantum chemistry program package
     J. Chem. Phys., 2020 152 Art. No. L224108
     doi.org/10.1063/5.0004608

List of optional additional citations

  1. Neese,F.
     Approximate second-order SCF convergence for spin unrestricted wavefunctions
     Chem. Phys. Lett., 2000 325(1-3)93-98
     doi.org/10.1016/s0009-2614(00)00662-x

Timings for individual modules:

Sum of individual times          ...       57.576 sec (=   0.960 min)
Startup calculation              ...        1.054 sec (=   0.018 min)   1.8 %
SCF iterations                   ...       47.051 sec (=   0.784 min)  81.7 %
Property calculations            ...        0.439 sec (=   0.007 min)   0.8 %
SCF Gradient evaluation          ...        9.031 sec (=   0.151 min)  15.7 %
                             ****ORCA TERMINATED NORMALLY****
TOTAL RUN TIME: 0 days 0 hours 0 minutes 59 seconds 252 msec
  ------------------------------------------------------------------------
          * successful ORCA run, taking over control again...
av. E:   -309.7760277 ->   -309.7760277
av. G:      0.0072044 ->      0.0072044
 * total energy  :  -309.7760277 Eh     change       -0.7330153E-04 Eh
   gradient norm :     0.0021909 Eh/a0  converged?    E=F G=F D=F
   step length   :     0.0594830 a0

........................................................................
.............................. CYCLE    3 ..............................
........................................................................
                         * ORCA takes the control...
  ------------------------------------------------------------------------

                                 *****************
                                 * O   R   C   A *
                                 *****************

                                            #,                                       
                                            ###                                      
                                            ####                                     
                                            #####                                    
                                            ######                                   
                                           ########,                                 
                                     ,,################,,,,,                         
                               ,,#################################,,                 
                          ,,##########################################,,             
                       ,#########################################, ''#####,          
                    ,#############################################,,   '####,        
                  ,##################################################,,,,####,       
                ,###########''''           ''''###############################       
              ,#####''   ,,,,##########,,,,          '''####'''          '####       
            ,##' ,,,,###########################,,,                        '##       
           ' ,,###''''                  '''############,,,                           
         ,,##''                                '''############,,,,        ,,,,,,###''
      ,#''                                            '''#######################'''  
     '                                                          ''''####''''         
             ,#######,   #######,   ,#######,      ##                                
            ,#'     '#,  ##    ##  ,#'     '#,    #''#        ,####,   ,####,        
            ##       ##  ##   ,#'  ##            #'  '#       #'       #'  '#        
            ##       ##  #######   ##           ,######,      #####,   #    #        
            '#,     ,#'  ##    ##  '#,     ,#' ,#      #,     #,   #   #,  ,#        
             '#######'   ##     ##  '#######'  #'      '#     '####' # '####'        



                #########################################################
                #                        -***-                          #
                #          Department of theory and spectroscopy        #
                #                                                       #
                #                      Frank Neese                      #
                #                                                       #
                #     Directorship, Architecture, Infrastructure        #
                #                    SHARK, DRIVERS                     #
                #        Core code/Algorithms in most modules           #
                #                                                       #
                #        Max Planck Institute fuer Kohlenforschung      #
                #                Kaiser Wilhelm Platz 1                 #
                #                 D-45470 Muelheim/Ruhr                 #
                #                      Germany                          #
                #                                                       #
                #                  All rights reserved                  #
                #                        -***-                          #
                #########################################################


                         Program Version 6.0.1  -  RELEASE   -


 With contributions from (in alphabetic order):
[Max-Planck-Institut fuer Kohlenforschung]                               
  Daniel Aravena         : Magnetic Suceptibility                        
  Michael Atanasov       : Ab Initio Ligand Field Theory (pilot matlab implementation)
  Alexander A. Auer      : GIAO ZORA, VPT2 properties, NMR spectrum      
  Ute Becker             : All parallelization in ORCA, NUMFREQ, NUMCALC 
  Giovanni Bistoni       : ED, misc. LED, open-shell LED, HFLD           
  Martin Brehm           : Molecular dynamics                            
  Dmytro Bykov           : pre 5.0 version of the SCF Hessian            
  Marcos Casanova-Páez   : Triplet and SCS-CIS(D). UHF-(DLPNO)-IP/EA/STEOM-CCSD. UHF-CVS-IP/STEOM-CCSD   
  Vijay G. Chilkuri      : MRCI spin determinant printing, contributions to CSF-ICE 
  Pauline Colinet        : FMM embedding                                 
  Dipayan Datta          : RHF DLPNO-CCSD density                        
  Achintya Kumar Dutta   : EOM-CC, STEOM-CC                              
  Nicolas Foglia         : Exact transition moments, OPA infrastructure, MCD improvements    
  Dmitry Ganyushin       : Spin-Orbit,Spin-Spin,Magnetic field MRCI      
  Miquel Garcia-Rates    : C-PCM and meta-GGA Hessian, CCSD/C-PCM, Gaussian charge scheme 
  Tiago L. C. Gouveia    : GS-ROHF, GS-ROCIS                             
  Yang Guo               : DLPNO-NEVPT2, F12-NEVPT2, CIM, IAO-localization        
  Andreas Hansen         : Spin unrestricted coupled pair/coupled cluster methods 
  Ingolf Harden          : AUTO-CI MPn and infrastructure                
  Benjamin Helmich-Paris : MC-RPA, TRAH-(SCF,CASSCF), AVAS, COSX integrals, SCF dyn. polar. 
  Lee Huntington         : MR-EOM, pCC                                   
  Robert Izsak           : Overlap fitted RIJCOSX, COSX-SCS-MP3, EOM     
  Riya Kayal             : Wick's Theorem for AUTO-CI, AUTO-CI UHF-CCSDT 
  Emily Kempfer          : AUTO-CI, RHF CISDT and CCSDT                  
  Christian Kollmar      : KDIIS, OOCD, Brueckner-CCSD(T), CCSD density, CASPT2, CASPT2-K, improved NEVPT2 
  Axel Koslowski         : Symmetry handling                             
  Simone Kossmann        : meta-GGA functionals, TD-DFT gradient, OOMP2, (MP2 Hessian; deprecated post 5.0) 
  Lucas Lang             : DCDCAS                                        
  Marvin Lechner         : AUTO-CI (C++ implementation), FIC-MRCC        
  Spencer Leger          : CASSCF response                               
  Dagmar Lenk            : GEPOL surface, SMD, ORCA-2-JSON               
  Dimitrios Liakos       : Extrapolation schemes; Compound Job, initial MDCI parallelization 
  Dimitrios Manganas     : Further ROCIS development; embedding schemes. LFT, Crystal Embedding 
  Dimitrios Pantazis     : SARC Basis sets                               
  Anastasios Papadopoulos: AUTO-CI, single reference methods and gradients 
  Taras Petrenko         : pre 6.0 DFT Hessian and TD-DFT gradient, (ASA, deprecated), ECA, 1-Electron XAS/XES, NRVS 
  Peter Pinski           : DLPNO-MP2, DLPNO-MP2 Gradient                 
  Christoph Reimann      : Effective Core Potentials                     
  Marius Retegan         : Local ZFS, SOC                                
  Christoph Riplinger    : Optimizer, TS searches, QM/MM, DLPNO-CCSD(T), (RO)-DLPNO pert. Triples 
  Michael Roemelt        : Original ROCIS implementation                 
  Masaaki Saitow         : Open-shell DLPNO-CCSD energy and density      
  Barbara Sandhoefer     : DKH picture change effects                    
  Kantharuban Sivalingam : CASSCF convergence/infrastructure, NEVPT2 and variants, FIC-MRCI 
  Bernardo de Souza      : ESD, SOC TD-DFT                               
  Georgi L. Stoychev     : AutoAux, RI-MP2 NMR, DLPNO-MP2 response, X2C  
  Van Anh Tran           : RI-MP2 g-tensors                              
  Willem Van den Heuvel  : Paramagnetic NMR                              
  Zikuan Wang            : NOTCH, Electric field optimization            
  Frank Wennmohs         : Technical directorship and infrastructure     
  Hang Xu                : AUTO-CI-Response properties                   
                                                                         
[FACCTs GmbH]                                                            
  Markus Bursch, Miquel Garcia-Rates, Christoph Riplinger, Bernardo de Souza, Georgi L. Stoychev 
                                                                 
  APM, Basis sets (HGBS, AHGBS, def-TZVP (Ac-Lr), def2-XVPD (La-Lu)), CI-OPT, improved COSX, DLPNO-Multilevel,           
  DOCKER, DRACO, updates on ESD, GOAT, IRC, LR-CPCM, MBIS, meta-GGA TD-DFT gradient, ML-optimized integration grids, 
  MM, NACMEs, nearIR, NEB, NEB-TS, NL-DFT gradient (VV10), 2- and 3-layer-ONIOM, interface openCOSMO-RS, QMMM,   
  Crystal-QMMM, SF, symmetry and pop. for TD-DFT, r2SCAN hybrids, SOLVATOR                                   
                                                                         
[Other institutions]                                                     
  V. Asgeirsson          : NEB                                           
  Christoph Bannwarth    : sTDA-DFT, sTD-DFT, PBEh-3c, B97-3c, D3        
  Sebastian Ehlert       : rSCAN, r2SCAN, r2SCAN-3c, D4, dhf basis sets  
  Marvin Friede          : D4 for Fr, Ra, Ac-Lr                          
  Lars Goerigk           : TD-DFT with DH, B97 family of functionals     
  Stefan Grimme          : VdW corrections, initial TS optimization, DFT functionals, gCP, sTDA/sTD-DF 
  Waldemar Hujo          : DFT-NL                                        
  H. Jonsson             : NEB                                           
  Holger Kruse           : gCP                                           
  Marcel Mueller         : wB97X-3c, vDZP basis set                      
  Hagen Neugebauer       : wr2SCAN                                       
  Tobias Risthaus        : range-separated hybrid DFT                    
  Lukas Wittmann         : regularized MP2, r2SCAN double-hybrids, wr2SCAN        
                                                                         
We gratefully acknowledge several colleagues who have allowed us to      
interface, adapt or use parts of their codes:                            
  Ed Valeev, F. Pavosevic, A. Kumar             : LibInt (2-el integral package), F12 methods 
  Garnet Chan, S. Sharma, J. Yang, R. Olivares  : DMRG                   
  Ulf Ekstrom                                   : XCFun DFT Library      
  Mihaly Kallay                                 : mrcc  (arbitrary order and MRCC methods)
  Frank Weinhold                                : gennbo (NPA and NBO analysis)           
  Simon Mueller                                 : openCOSMO-RS                            
  Christopher J. Cramer and Donald G. Truhlar   : smd solvation model                     
  S Lehtola, MJT Oliveira, MAL Marques          : LibXC Library                           
  Liviu Ungur et al                             : ANISO software                          


 Your calculation uses the libint2 library for the computation of 2-el integrals
 For citations please refer to: http://libint.valeyev.net

 Your ORCA version has been built with support for libXC version: 6.2.2
 For citations please refer to: https://libxc.gitlab.io

 This ORCA versions uses:
   CBLAS   interface :  Fast vector & matrix operations
   LAPACKE interface :  Fast linear algebra routines
   SCALAPACK package :  Parallel linear algebra routines
   Shared memory     :  Shared parallel matrices
   BLAS/LAPACK       :  OpenBLAS 0.3.27  USE64BITINT DYNAMIC_ARCH NO_AFFINITY Zen SINGLE_THREADED
        Core in use  :  Zen
   Copyright (c) 2011-2014, The OpenBLAS Project




***************************************
The coordinates will be read from file: xtb_opt.xyz
***************************************


Your calculation utilizes the geometrical counterpoise correction gCP
Please cite in your paper:
H.Kruse, S. Grimme J.Chem.Phys., 136, (2012), 154101 
   

Your calculation utilizes the atom-pairwise dispersion correction
based on EEQ partial charges (D4)


Your calculation utilizes the SMD solvation module
Please cite in your paper:
A.V. Marenich, C.J. Cramer, D.G. Truhlar J. Phys. Chem. B, 113, (2009), 6378 

================================================================================

----- Orbital basis set information -----
Your calculation utilizes the basis: def2-mTZVPP
   Stefan Grimme, Andreas Hansen, Sebastian Ehlert, and Jan-Michael Mewes 
   J. Chem. Phys. 154, 064103 (2021). DOI: 10.1063/5.0040021

----- AuxJ basis set information -----
Your calculation utilizes the auxiliary basis: def2/J
   F. Weigend, Phys. Chem. Chem. Phys. 8, 1057 (2006).

================================================================================
                                        WARNINGS
                       Please study these warnings very carefully!
================================================================================

WARNING: Old DensityContainer found on disk!
         Will remove this file - 
         If you want to keep old densities, please start your calculation with a different basename. 



WARNING: SCAN, rSCAN, or r2SCAN functional requested.
  ===> : libXC variant has now been activated.



================================================================================
                                       INPUT FILE
================================================================================
NAME = xtb_opt.inp
|  1> ! r2scan-3c def2/J RI DEFGRID2 scfconv7 ENGRAD tightSCF miniprint
|  2> %cpcm
|  3>     smd true
|  4>     smdsolvent "water"
|  5> end
|  6> * xyzfile 0 1 xtb_opt.xyz
|  7> 
|  8>                          ****END OF INPUT****
================================================================================

                     *******************************
                     * Energy+Gradient Calculation *
                     *******************************

---------------------------------
CARTESIAN COORDINATES (ANGSTROEM)
---------------------------------
  C      2.363488   -1.286414    0.267983
  C      2.380512    0.029434   -0.503178
  C      1.322157    1.024844    0.006759
  C     -0.059051    0.528737   -0.209541
  C     -1.016740    0.436315    0.730816
  C     -2.351527   -0.074813    0.442250
  O     -2.741770   -0.462905   -0.660969
  H      2.542737   -1.116883    1.336709
  H      1.395707   -1.793305    0.170505
  H      3.136044   -1.970522   -0.098836
  H      2.208920   -0.157246   -1.570982
  H      3.366002    0.501248   -0.418808
  H      1.433040    1.964632   -0.555662
  H      1.486434    1.253948    1.066569
  H     -0.300851    0.207138   -1.225066
  H     -0.821833    0.739463    1.757863
  H     -3.049955   -0.088838    1.300958

----------------------------
CARTESIAN COORDINATES (A.U.)
----------------------------
  NO LB      ZA    FRAG     MASS         X           Y           Z
   0 C     6.0000    0    12.011    4.466344   -2.430970    0.506414
   1 C     6.0000    0    12.011    4.498515    0.055622   -0.950868
   2 C     6.0000    0    12.011    2.498514    1.936675    0.012773
   3 C     6.0000    0    12.011   -0.111590    0.999169   -0.395974
   4 C     6.0000    0    12.011   -1.921360    0.824517    1.381043
   5 C     6.0000    0    12.011   -4.443743   -0.141376    0.835731
   6 O     8.0000    0    15.999   -5.181193   -0.874764   -1.249050
   7 H     1.0000    0     1.008    4.805077   -2.110602    2.526013
   8 H     1.0000    0     1.008    2.637504   -3.388855    0.322207
   9 H     1.0000    0     1.008    5.926265   -3.723746   -0.186774
  10 H     1.0000    0     1.008    4.174253   -0.297151   -2.968727
  11 H     1.0000    0     1.008    6.360822    0.947221   -0.791433
  12 H     1.0000    0     1.008    2.708052    3.712617   -1.050049
  13 H     1.0000    0     1.008    2.808952    2.369618    2.015524
  14 H     1.0000    0     1.008   -0.568527    0.391434   -2.315039
  15 H     1.0000    0     1.008   -1.553038    1.397382    3.321881
  16 H     1.0000    0     1.008   -5.763579   -0.167880    2.458455

------------------------------------------------------------------------------
                   ___                                                        
                  /   \      - P O W E R E D   B Y -                         
                 /     \                                                     
                 |  |  |   _    _      __       _____    __    __             
                 |  |  |  | |  | |    /  \     |  _  \  |  |  /  |          
                  \  \/   | |  | |   /    \    | | | |  |  | /  /          
                 / \  \   | |__| |  /  /\  \   | |_| |  |  |/  /          
                |  |  |   |  __  | /  /__\  \  |    /   |      \           
                |  |  |   | |  | | |   __   |  |    \   |  |\   \          
                \     /   | |  | | |  |  |  |  | |\  \  |  | \   \       
                 \___/    |_|  |_| |__|  |__|  |_| \__\ |__|  \__/        
                                                                              
                      - O R C A' S   B I G   F R I E N D -                    
                                      &                                       
                       - I N T E G R A L  F E E D E R -                       
                                                                              
 v1 FN, 2020, v2 2021, v3 2022-2024                                           
------------------------------------------------------------------------------


----------------------
SHARK INTEGRAL PACKAGE
----------------------

Number of atoms                             ...     17
Number of basis functions                   ...    188
Number of shells                            ...     94
Maximum angular momentum                    ...      2
Integral batch strategy                     ... SHARK/LIBINT Hybrid
RI-J (if used) integral strategy            ... SPLIT-RIJ (Revised 2003 algorithm where possible)
Printlevel                                  ...      1
Contraction scheme used                     ... SEGMENTED contraction
Prescreening option                         ... SCHWARTZ
   Thresh                                   ... 3.000e-11
   Tcut                                     ... 1.000e-12
   Tpresel                                  ... 1.000e-12 
Coulomb Range Separation                    ... NOT USED
Exchange Range Separation                   ... NOT USED
Multipole approximations                    ... NOT USED
Finite Nucleus Model                        ... NOT USED
CABS basis                                  ... NOT available
Auxiliary Coulomb fitting basis             ... AVAILABLE
   # of basis functions in Aux-J            ...    453
   # of shells in Aux-J                     ...    155
   Maximum angular momentum in Aux-J        ...      4
Auxiliary J/K fitting basis                 ... NOT available
Auxiliary Correlation fitting basis         ... NOT available
Auxiliary 'external' fitting basis          ... NOT available

Checking pre-screening integrals            ... done (  0.0 sec) Dimension = 94
Check shell pair data                       ... done (  0.0 sec)
Shell pair information
Shell pair cut-off parameter TPreSel        ...   1.0e-12
Total number of shell pairs                 ...      4465
Shell pairs after pre-screening             ...      4016
Total number of primitive shell pairs       ...     15937
Primitive shell pairs kept                  ...     10408
          la=0 lb=0:   1369 shell pairs
          la=1 lb=0:   1540 shell pairs
          la=1 lb=1:    458 shell pairs
          la=2 lb=0:    392 shell pairs
          la=2 lb=1:    223 shell pairs
          la=2 lb=2:     34 shell pairs

Calculating one electron integrals          ... done (  0.0 sec)
Calculating RI/J V-Matrix + Cholesky decomp.... done (  0.0 sec)
Calculating Nuclear repulsion               ... done (  0.0 sec) ENN=    280.610007814292 Eh

Diagonalization of the overlap matrix:
Smallest eigenvalue                        ... 1.893e-04
Time for diagonalization                   ...    0.005 sec
Threshold for overlap eigenvalues          ... 1.000e-07
Number of eigenvalues below threshold      ... 0
Time for construction of square roots      ...    0.004 sec
Total time needed                          ...    0.010 sec

-------------------
DFT GRID GENERATION
-------------------

General Integration Accuracy     IntAcc      ... 4.388
Radial Grid Type                 RadialGrid  ... OptM3 with GC (2021)
Angular Grid (max. ang.)         AngularGrid ... 4 (Lebedev-302)
Angular grid pruning method      GridPruning ... 4 (adaptive)
Weight generation scheme         WeightScheme... mBecke (2022)
Basis function cutoff            BFCut       ... 1.0000e-11
Integration weight cutoff        WCut        ... 1.0000e-14
Partially contracted basis set               ... off
Rotationally invariant grid construction     ... off
Angular grids for H and He will be reduced by one unit
Diffuse basis detected: some atoms will have their outermost
                        angular grid increased by 1.

Total number of grid points                  ...    74695
Total number of batches                      ...     1175
Average number of points per batch           ...       63
Average number of grid points per atom       ...     4394
Initializing property integral containers    ... done (  0.0 sec)

SHARK setup successfully completed in   0.9 seconds

Maximum memory used throughout the entire STARTUP-calculation: 33.9 MB
Occupation numbers will be reassigned to an Aufbau configuration
             **** ENERGY FILE WAS UPDATED (xtb_opt.en.tmp) ****
Finished Guess after   0.1 sec
Maximum memory used throughout the entire GUESS-calculation: 13.2 MB
--------------------
CPCM SOLVATION MODEL
--------------------
CPCM parameters:
  Epsilon                                         ...      78.3550
  Refrac                                          ...       1.3328
  Rsolv                                           ...       1.3000
  Surface type                                    ... GAUSSIAN VDW
  Discretization scheme                           ... Constant charge density
    Threshold for H atoms                         ...       5.0000 (charges/Ang^2)
    Threshold for non-H atoms                     ...       5.0000 (charges/Ang^2)
  Epsilon function type                           ...         CPCM
Solvent:                                          ... WATER
SMD-CDS solvent descriptors:
  Soln                                            ...       1.3328
  Soln25                                          ...       1.3323
  Sola                                            ...       0.0000
  Solb                                            ...       0.0000
  Solg                                            ...       0.0000
  Solc                                            ...       0.0000
  Solh                                            ...       0.0000
Radii:
  Scheme                                          ... Element-dependent radii
  Radius for C  used is    3.4960 Bohr (=   1.8500 Ang.)
  Radius for O  used is    2.8724 Bohr (=   1.5200 Ang.)
  Radius for H  used is    2.2677 Bohr (=   1.2000 Ang.)
Calculating surface                               ...        done! (  0.0s)
Cavity surface points                             ...         1328
Cavity Volume                                     ...     791.9463
Cavity Surface-area                               ...     528.6366
Calculating surface distance matrix               ...        done! (  0.0s)
Performing Cholesky decomposition & store         ...        done! (  0.1s)
Overall time for CPCM initialization              ...                 0.1s

----------------------------------------D-I-I-S--------------------------------------------
Iteration    Energy (Eh)           Delta-E    RMSDP     MaxDP     DIISErr   Damp  Time(sec)
-------------------------------------------------------------------------------------------
               ***  Starting incremental Fock matrix formation  ***
    1    -309.7856880453527424     0.00e+00  3.51e-05  6.55e-04  5.18e-03  0.700   3.2
    2    -309.7857231535547839    -3.51e-05  3.44e-05  5.66e-04  3.95e-03  0.700   2.0
                               ***Turning on AO-DIIS***
                              *** Initializing SOSCF ***
---------------------------------------S-O-S-C-F--------------------------------------
Iteration    Energy (Eh)           Delta-E    RMSDP     MaxDP     MaxGrad    Time(sec)
--------------------------------------------------------------------------------------
    3    -309.7857500695693602    -2.69e-05  9.20e-05  1.57e-03  2.83e-03     1.4
               *** Restarting incremental Fock matrix formation ***
    4    -309.7858137214798830    -6.37e-05  2.35e-05  1.07e-03  1.06e-04     2.0
    5    -309.7858134490925863     2.72e-07  1.43e-05  7.23e-04  2.92e-04     2.1
    6    -309.7858141569369650    -7.08e-07  5.74e-06  7.54e-05  3.69e-05    17.5
    7    -309.7858141658749105    -8.94e-09  2.38e-06  4.44e-05  3.72e-05     1.6
                 **** Energy Check signals convergence ****

               *****************************************************
               *                     SUCCESS                       *
               *           SCF CONVERGED AFTER   7 CYCLES          *
               *****************************************************


SMD CDS free energy correction energy :                 4.61505     Kcal/mol
Total Energy after SMD CDS correction =              -309.778459621 Eh
             **** ENERGY FILE WAS UPDATED (xtb_opt.en.tmp) ****

----------------
TOTAL SCF ENERGY
----------------

Total Energy       :       -309.77845962144528 Eh           -8429.50043 eV

Components:
Nuclear Repulsion  :        280.61000781429203 Eh            7635.78651 eV
Electronic Energy  :       -590.37789909358435 Eh          -16064.99936 eV
One Electron Energy:       -974.08133962831891 Eh          -26506.10080 eV
Two Electron Energy:        383.70344053473457 Eh           10441.10143 eV
CPCM Dielectric    :         -0.01792288658255 Eh              -0.48771 eV
SMD CDS (Gcds)     :          0.00735454442962 Eh               0.20013 eV

Virial components:
Potential Energy   :       -618.08366124315626 Eh          -16818.91148 eV
Kinetic Energy     :        308.30520162171098 Eh            8389.41105 eV
Virial Ratio       :          2.00477857004029

DFT components:
N(Alpha)           :       27.000006222756 electrons
N(Beta)            :       27.000006222756 electrons
N(Total)           :       54.000012445512 electrons
E(X)               :      -43.005214041091 Eh       
E(C)               :       -1.698156039243 Eh       
E(XC)              :      -44.703370080334 Eh       

CPCM Solvation Model Properties:
Surface-charge          :         -0.04611493424099
Corrected charge        :         -0.00000000000000
Outlying charge corr.   :          0.00016790716849 Eh               0.00457 eV
Free-energy (cav+disp)  :          0.00735454442962 Eh               0.20013 eV

---------------
SCF CONVERGENCE
---------------

  Last Energy change         ...    8.9379e-09  Tolerance :   1.0000e-07
  Last MAX-Density change    ...    4.4362e-05  Tolerance :   1.0000e-07
  Last RMS-Density change    ...    2.3841e-06  Tolerance :   5.0000e-09
  Last DIIS Error            ...    2.8322e-03  Tolerance :   1.0000e-07
  Last Orbital Gradient      ...    3.7218e-05  Tolerance :   1.0000e-04
  Last Orbital Rotation      ...    1.0944e-04  Tolerance :   1.0000e-04


----------------
ORBITAL ENERGIES
----------------

  NO   OCC          E(Eh)            E(eV) 
   0   2.0000     -18.948846      -515.6243 
   1   2.0000     -10.119994      -275.3790 
   2   2.0000     -10.061190      -273.7789 
   3   2.0000     -10.036316      -273.1020 
   4   2.0000     -10.034290      -273.0469 
   5   2.0000     -10.028454      -272.8881 
   6   2.0000     -10.013544      -272.4824 
   7   2.0000      -1.004744       -27.3405 
   8   2.0000      -0.786541       -21.4029 
   9   2.0000      -0.732927       -19.9440 
  10   2.0000      -0.665819       -18.1178 
  11   2.0000      -0.600869       -16.3505 
  12   2.0000      -0.544814       -14.8251 
  13   2.0000      -0.507421       -13.8076 
  14   2.0000      -0.456126       -12.4118 
  15   2.0000      -0.432451       -11.7676 
  16   2.0000      -0.414835       -11.2882 
  17   2.0000      -0.406166       -11.0523 
  18   2.0000      -0.372204       -10.1282 
  19   2.0000      -0.368364       -10.0237 
  20   2.0000      -0.363944        -9.9034 
  21   2.0000      -0.329995        -8.9796 
  22   2.0000      -0.317150        -8.6301 
  23   2.0000      -0.304526        -8.2866 
  24   2.0000      -0.296187        -8.0597 
  25   2.0000      -0.249751        -6.7961 
  26   2.0000      -0.230928        -6.2839 
  27   0.0000      -0.099189        -2.6991 
  28   0.0000       0.034832         0.9478 
  29   0.0000       0.090847         2.4721 
  30   0.0000       0.108445         2.9509 
  31   0.0000       0.120625         3.2824 
  32   0.0000       0.129452         3.5226 
  33   0.0000       0.138453         3.7675 
  34   0.0000       0.148848         4.0504 
  35   0.0000       0.156011         4.2453 
  36   0.0000       0.168135         4.5752 
  37   0.0000       0.171575         4.6688 
*Only the first 10 virtual orbitals were printed.
Total SCF time: 0 days 0 hours 0 min 30 sec 
Finished LeanSCF after  33.1 sec

Maximum memory used throughout the entire LEANSCF-calculation: 24.9 MB


-------------------------------------------------------------------------------
                          DFT DISPERSION CORRECTION                            
                                                                               
                                DFTD4 V3.4.0                                   
-------------------------------------------------------------------------------
-------------------------   ----------------
Dispersion correction           -0.004280805
-------------------------   ----------------

------------------   -----------------
gCP correction             0.006711102
------------------   -----------------

-------------------------   --------------------
FINAL SINGLE POINT ENERGY      -309.776029323975
-------------------------   --------------------

------------------------------------------------------------------------------
                         ORCA SCF GRADIENT CALCULATION
------------------------------------------------------------------------------

Nuc. rep. gradient        (SHARK) ... done (  0.0 sec)
HCore & Overlap gradient  (SHARK) ... done (  0.3 sec)
Split-RIJ-J gradient      (SHARK) ... done (  1.4 sec)
XC gradient                       ... done (  4.1 sec)
CPCM gradient                     ... done (  1.2 sec)
SMD gradient                      ... done (  0.0 sec)
Dispersion correction             ... done (  0.0 sec)

-------------------
DISPERSION GRADIENT
-------------------

   1   C   :    0.000067614   -0.000058334    0.000009213
   2   C   :    0.000064826    0.000000256   -0.000023711
   3   C   :    0.000041580    0.000046347   -0.000003373
   4   C   :   -0.000023221    0.000030854   -0.000014164
   5   C   :   -0.000079181    0.000023720    0.000031849
   6   C   :   -0.000091375   -0.000005828    0.000016618
   7   O   :   -0.000074287   -0.000018457   -0.000021761
   8   H   :    0.000032076   -0.000024538    0.000013016
   9   H   :    0.000031471   -0.000034033    0.000000809
  10   H   :    0.000023752   -0.000026363    0.000000804
  11   H   :    0.000024590   -0.000002842   -0.000017245
  12   H   :    0.000026800    0.000002299   -0.000005541
  13   H   :    0.000014278    0.000029958   -0.000010848
  14   H   :    0.000014875    0.000021213    0.000008073
  15   H   :   -0.000019417    0.000007577   -0.000018440
  16   H   :   -0.000026850    0.000013093    0.000026989
  17   H   :   -0.000027530   -0.000004922    0.000007712

Difference to translation invariance:
           :    0.0000000000    0.0000000000    0.0000000000

Difference to rotation invariance:
           :    0.0000000000    0.0000000000    0.0000000000

Norm of the Dispersion gradient    ...    0.0002308878
RMS gradient                       ...    0.0000323308
MAX gradient                       ...    0.0000913752
gCP correction                   ... done

------------------
CARTESIAN GRADIENT
------------------

   1   C   :    0.000196580    0.000527468   -0.000376536
   2   C   :   -0.000105895    0.000040206    0.000273302
   3   C   :    0.000149758   -0.000876841   -0.000299743
   4   C   :    0.000315444    0.000357541    0.000348975
   5   C   :   -0.000110911    0.000867096   -0.000492200
   6   C   :    0.000501526   -0.002038396    0.002107607
   7   O   :   -0.000630902    0.000188683   -0.001720129
   8   H   :    0.000103783   -0.000014313    0.000606792
   9   H   :   -0.000556732   -0.000327990    0.000084035
  10   H   :    0.000177544   -0.000458559   -0.000137322
  11   H   :    0.000018179    0.000060220   -0.000490980
  12   H   :    0.000318217    0.000118789   -0.000194504
  13   H   :    0.000016454    0.000528517   -0.000008029
  14   H   :    0.000071583    0.000244774    0.000475331
  15   H   :   -0.000078092   -0.000213817   -0.000522447
  16   H   :   -0.000001636    0.000284384    0.000554668
  17   H   :   -0.000384900    0.000712238   -0.000208820

Difference to translation invariance:
           :   -0.0000000000   -0.0000000000   -0.0000000000

Difference to rotation invariance:
           :   -0.0000251222   -0.0000105070   -0.0003062203

Norm of the Cartesian gradient     ...    0.0042976190
RMS gradient                       ...    0.0006017870
MAX gradient                       ...    0.0021076068

-------
TIMINGS
-------

Total SCF gradient time     ....        6.949 sec

Densities                   ....       0.001 sec  (  0.0%)
One electron gradient       ....       0.334 sec  (  4.8%)
RI-J Coulomb gradient       ....       1.354 sec  ( 19.5%)
XC gradient                 ....       4.057 sec  ( 58.4%)
CPCM gradient               ....       1.153 sec  ( 16.6%)
   A-Matrix (El+Nuc)        ....       0.069 sec  (  1.0%)
   Potential                ....       1.084 sec  ( 15.6%)
SMD gradient                ....       0.003 sec  (  0.0%)

Maximum memory used throughout the entire SCFGRAD-calculation: 33.3 MB

------------------------------------------------------------------------------
                              ORCA PROPERTY CALCULATIONS
------------------------------------------------------------------------------

GBWName                                 ... xtb_opt.gbw
Number of atoms                         ...     17
Number of basis functions               ...    188
Max core memory                         ...   1024 MB

Electric properties:
Dipole moment                           ... YES
Quadrupole moment                       ...  NO
Static polarizability (Dipole/Dipole)   ...  NO
Static polarizability (Dipole/Quad.)    ...  NO
Static polarizability (Quad./Quad.)     ...  NO
Static polarizability (Velocity)        ...  NO

Atomic electric properties:
Dipole moment                           ...  NO
Quadrupole moment                       ...  NO
Static polarizability                   ...  NO

Choice of electric origin               ... Center of mass
Position of electric origin             ...    -0.013152     0.000663     0.000610

General magnetic properties:
Magnetizability                         ...  NO

EPR properties:
g-Tensor (aka g-matrix)                 ...  NO
Zero-Field splitting spin-orbit         ...  NO
Zero-field splitting spin-spin          ...  NO
Hyperfine couplings                     ...  NO (   0 nuclei)
Quadrupole couplings                    ...  NO (   0 nuclei)
Contact density                         ...  NO (   0 nuclei)

NMR properties:
Chemical shifts                         ...  NO (   0 nuclei)
Spin-rotation constants                 ...  NO (   0 nuclei)
Spin-spin couplings                     ...  NO (   0 nuclei,    0 pairs)

Choice of magnetic origin               ... GIAO
Position of magnetic origin             ...     0.000000     0.000000     0.000000

Properties with geometric perturbations:
SCF Hessian                             ...  NO
IR spectrum                             ...  NO
VCD spectrum                            ...  NO
X-ray spectroscopy properties:
SCF XES/XAS/RIXS spectra                ...  NO


-------------
DIPOLE MOMENT
-------------

Method             : SCF
Type of density    : Electron Density
Multiplicity       :   1
Irrep              :   0
Energy             :  -309.7784596214452790 Eh
Relativity type    : 
Basis              : AO
                                X                 Y                 Z
Electronic contribution:     -9.107375146       1.158871283      -0.685540504
Nuclear contribution   :     10.716538086      -0.442044811       1.641430235
                        -----------------------------------------
Total Dipole Moment    :      1.609162940       0.716826472       0.955889731
                        -----------------------------------------
Magnitude (a.u.)       :      2.004238193
Magnitude (Debye)      :      5.094368631



--------------------
Rotational spectrum 
--------------------
 
Rotational constants in cm-1:             0.190234             0.038579             0.036555 
Rotational constants in MHz :          5703.064868          1156.582682          1095.888727 

Dipole components along the rotational axes: 
x,y,z [a.u.] :     1.578229     0.844441    -0.901711 
x,y,z [Debye]:     4.011540     2.146398    -2.291966 

 

Dipole moment calculation done in   0.5 sec 

Maximum memory used throughout the entire PROP-calculation: 11.7 MB

--------------------------------
SUGGESTED CITATIONS FOR THIS RUN
--------------------------------

Below you find a list of papers that are relevant to this ORCA run
We neither can nor want to force you to cite these papers, but we appreciate if you do
You receive ORCA, which is the product of decades of hard work by many enthusiastic individuals, for free
The only thing we kindly ask in return is that you cite our papers,
We deeply appreciate it, if you show your appreciation for ORCA by not just citing the generic ORCA reference.

Please note that relegating all ORCA citations to the supporting information does *not* help us.
SI sections are not indexed - citations you put there will not count into any citation statistics
But we need these citations in order to attract the funding resources that allow us to do what we are doing

Therefore, if you are a happy ORCA user, please consider citing a few of the papers listed below in the main body of your paper

In addition to the list printed below, the program has created the file xtb_opt.bibtex that contains the list in bibtex format
You can import this file easily into all common literature databanks and citation aid programs


List of essential papers. We consider these as the minimum necessary citations

  1. Neese,F.
     Software update: the ORCA program system, version 5.0
     WIRES Comput. Molec. Sci., 2022 12(1)e1606
     doi.org/10.1002/wcms.1606
  2. Grimme,S.; Hansen,A.; Ehlert,S.; Mewes,J.
     r2SCAN-3c: A 'Swiss army knife' composite electronic-structure method
     J. Chem. Phys., 2021 154 064103
     doi.org/10.1063/5.0040021

List of papers to cite with high priority. The work reported in these papers was absolutely
necessary for this run to complete.
Our perspective: the developers of density functionals and basis sets usually get cited in chemistry papers
Good! But without the algorithms to do something with them, the functionals or basis sets would not do anything.
Hence, in our opinion, the algorithm design and method developments papers are equally worthy of getting cited

  1. Neese,F.
     An improvement of the resolution of the identity approximation for the formation of the Coulomb matrix
     J. Comp. Chem., 2003 24(14)1740-1747
     doi.org/10.1002/jcc.10318
  2. Garcia-Rates,M.; Neese,F.
     Effect of the Solute Cavity on the Solvation Energy and its Derivatives within the Framework of the Gaussian Charge Scheme
     J. Comput. Chem., 2020 41 922-939
     doi.org/10.1002/jcc.26139
  3. Neese,F.
     The SHARK Integral Generation and Digestion System
     J. Comp. Chem., 2022  1-16
     doi.org/10.1002/jcc.26942
  4. Lehtola,S.; Steigemann,C.; Oliveira,M.; Marques,M.
     Recent developments in Libxc - A comprehensive library of functionals for density functional theory
     Software X, 2018 7 
     doi.org/10.1016/j.softx.2017.11.002
  5. Caldeweyher,E.; Bannwarth,C.; Grimme,S.
     Extension of the D3 dispersion coefficient model
     J. Chem. Phys., 2017 147 034112
     doi.org/10.1063/1.4993215
  6. Caldeweyher,E.; Ehlert,S.; Hansen,A.; Neugebauer,H.; Spicher,S.; Bannwarth,C.; Grimme,S.
     A generally applicable atomic-charge dependent London dispersion correction
     J. Chem. Phys., 2019 150 154122
     doi.org/10.1063/1.5090222
  7. Caldeweyher,E.; Mewes,J.; Ehlert,S.; Grimme,S.
     Extension and evaluation of the D4 London-dispersion model for periodic systems
     Phys. Chem. Chem. Phys., 2020 22(16)8499-8512
     doi.org/10.1039/D0CP00502A
  8. Wittmann,L.; Gordiy,I.; Friede,M.; Helmich-Paris,B.; Grimme,S.; Hansen,A.; Bursch,M.
     Extension of the D3 and D4 London Dispersion Corrections to the full Actinides Series
     Phys. Chem. Chem. Phys., 2024 26(32)21379-21394
     doi.org/https://doi.org/10.1039/D4CP01514B 

List of suggested additional citations. These are papers that are important in the 'surrounding' of 
of this run, or papers that preceded the highly important papers. If you like your results we are grateful for a citation.

  1. Neese,F.
     The ORCA program system
     WIRES Comput. Molec. Sci., 2012 2(1)73-78
     doi.org/10.1002/wcms.81
  2. Neese,F.
     Software update: the ORCA program system, version 4.0
     WIRES Comput. Molec. Sci., 2018 8(1)1-6
     doi.org/10.1002/wcms.1327
  3. Neese,F.; Wennmohs,F.; Becker,U.; Riplinger,C.
     The ORCA quantum chemistry program package
     J. Chem. Phys., 2020 152 Art. No. L224108
     doi.org/10.1063/5.0004608

List of optional additional citations

  1. Neese,F.
     Approximate second-order SCF convergence for spin unrestricted wavefunctions
     Chem. Phys. Lett., 2000 325(1-3)93-98
     doi.org/10.1016/s0009-2614(00)00662-x

Timings for individual modules:

Sum of individual times          ...       42.339 sec (=   0.706 min)
Startup calculation              ...        0.963 sec (=   0.016 min)   2.3 %
SCF iterations                   ...       33.183 sec (=   0.553 min)  78.4 %
Property calculations            ...        0.574 sec (=   0.010 min)   1.4 %
SCF Gradient evaluation          ...        7.620 sec (=   0.127 min)  18.0 %
                             ****ORCA TERMINATED NORMALLY****
TOTAL RUN TIME: 0 days 0 hours 0 minutes 44 seconds 441 msec
  ------------------------------------------------------------------------
          * successful ORCA run, taking over control again...
av. E:   -309.7760293 ->   -309.7760293
av. G:      0.0021909 ->      0.0021909
 * total energy  :  -309.7760293 Eh     change       -0.1605619E-05 Eh
   gradient norm :     0.0042976 Eh/a0  converged?    E=T G=F D=F
   step length   :     0.0518778 a0

........................................................................
.............................. CYCLE    4 ..............................
........................................................................
                         * ORCA takes the control...
  ------------------------------------------------------------------------

                                 *****************
                                 * O   R   C   A *
                                 *****************

                                            #,                                       
                                            ###                                      
                                            ####                                     
                                            #####                                    
                                            ######                                   
                                           ########,                                 
                                     ,,################,,,,,                         
                               ,,#################################,,                 
                          ,,##########################################,,             
                       ,#########################################, ''#####,          
                    ,#############################################,,   '####,        
                  ,##################################################,,,,####,       
                ,###########''''           ''''###############################       
              ,#####''   ,,,,##########,,,,          '''####'''          '####       
            ,##' ,,,,###########################,,,                        '##       
           ' ,,###''''                  '''############,,,                           
         ,,##''                                '''############,,,,        ,,,,,,###''
      ,#''                                            '''#######################'''  
     '                                                          ''''####''''         
             ,#######,   #######,   ,#######,      ##                                
            ,#'     '#,  ##    ##  ,#'     '#,    #''#        ,####,   ,####,        
            ##       ##  ##   ,#'  ##            #'  '#       #'       #'  '#        
            ##       ##  #######   ##           ,######,      #####,   #    #        
            '#,     ,#'  ##    ##  '#,     ,#' ,#      #,     #,   #   #,  ,#        
             '#######'   ##     ##  '#######'  #'      '#     '####' # '####'        



                #########################################################
                #                        -***-                          #
                #          Department of theory and spectroscopy        #
                #                                                       #
                #                      Frank Neese                      #
                #                                                       #
                #     Directorship, Architecture, Infrastructure        #
                #                    SHARK, DRIVERS                     #
                #        Core code/Algorithms in most modules           #
                #                                                       #
                #        Max Planck Institute fuer Kohlenforschung      #
                #                Kaiser Wilhelm Platz 1                 #
                #                 D-45470 Muelheim/Ruhr                 #
                #                      Germany                          #
                #                                                       #
                #                  All rights reserved                  #
                #                        -***-                          #
                #########################################################


                         Program Version 6.0.1  -  RELEASE   -


 With contributions from (in alphabetic order):
[Max-Planck-Institut fuer Kohlenforschung]                               
  Daniel Aravena         : Magnetic Suceptibility                        
  Michael Atanasov       : Ab Initio Ligand Field Theory (pilot matlab implementation)
  Alexander A. Auer      : GIAO ZORA, VPT2 properties, NMR spectrum      
  Ute Becker             : All parallelization in ORCA, NUMFREQ, NUMCALC 
  Giovanni Bistoni       : ED, misc. LED, open-shell LED, HFLD           
  Martin Brehm           : Molecular dynamics                            
  Dmytro Bykov           : pre 5.0 version of the SCF Hessian            
  Marcos Casanova-Páez   : Triplet and SCS-CIS(D). UHF-(DLPNO)-IP/EA/STEOM-CCSD. UHF-CVS-IP/STEOM-CCSD   
  Vijay G. Chilkuri      : MRCI spin determinant printing, contributions to CSF-ICE 
  Pauline Colinet        : FMM embedding                                 
  Dipayan Datta          : RHF DLPNO-CCSD density                        
  Achintya Kumar Dutta   : EOM-CC, STEOM-CC                              
  Nicolas Foglia         : Exact transition moments, OPA infrastructure, MCD improvements    
  Dmitry Ganyushin       : Spin-Orbit,Spin-Spin,Magnetic field MRCI      
  Miquel Garcia-Rates    : C-PCM and meta-GGA Hessian, CCSD/C-PCM, Gaussian charge scheme 
  Tiago L. C. Gouveia    : GS-ROHF, GS-ROCIS                             
  Yang Guo               : DLPNO-NEVPT2, F12-NEVPT2, CIM, IAO-localization        
  Andreas Hansen         : Spin unrestricted coupled pair/coupled cluster methods 
  Ingolf Harden          : AUTO-CI MPn and infrastructure                
  Benjamin Helmich-Paris : MC-RPA, TRAH-(SCF,CASSCF), AVAS, COSX integrals, SCF dyn. polar. 
  Lee Huntington         : MR-EOM, pCC                                   
  Robert Izsak           : Overlap fitted RIJCOSX, COSX-SCS-MP3, EOM     
  Riya Kayal             : Wick's Theorem for AUTO-CI, AUTO-CI UHF-CCSDT 
  Emily Kempfer          : AUTO-CI, RHF CISDT and CCSDT                  
  Christian Kollmar      : KDIIS, OOCD, Brueckner-CCSD(T), CCSD density, CASPT2, CASPT2-K, improved NEVPT2 
  Axel Koslowski         : Symmetry handling                             
  Simone Kossmann        : meta-GGA functionals, TD-DFT gradient, OOMP2, (MP2 Hessian; deprecated post 5.0) 
  Lucas Lang             : DCDCAS                                        
  Marvin Lechner         : AUTO-CI (C++ implementation), FIC-MRCC        
  Spencer Leger          : CASSCF response                               
  Dagmar Lenk            : GEPOL surface, SMD, ORCA-2-JSON               
  Dimitrios Liakos       : Extrapolation schemes; Compound Job, initial MDCI parallelization 
  Dimitrios Manganas     : Further ROCIS development; embedding schemes. LFT, Crystal Embedding 
  Dimitrios Pantazis     : SARC Basis sets                               
  Anastasios Papadopoulos: AUTO-CI, single reference methods and gradients 
  Taras Petrenko         : pre 6.0 DFT Hessian and TD-DFT gradient, (ASA, deprecated), ECA, 1-Electron XAS/XES, NRVS 
  Peter Pinski           : DLPNO-MP2, DLPNO-MP2 Gradient                 
  Christoph Reimann      : Effective Core Potentials                     
  Marius Retegan         : Local ZFS, SOC                                
  Christoph Riplinger    : Optimizer, TS searches, QM/MM, DLPNO-CCSD(T), (RO)-DLPNO pert. Triples 
  Michael Roemelt        : Original ROCIS implementation                 
  Masaaki Saitow         : Open-shell DLPNO-CCSD energy and density      
  Barbara Sandhoefer     : DKH picture change effects                    
  Kantharuban Sivalingam : CASSCF convergence/infrastructure, NEVPT2 and variants, FIC-MRCI 
  Bernardo de Souza      : ESD, SOC TD-DFT                               
  Georgi L. Stoychev     : AutoAux, RI-MP2 NMR, DLPNO-MP2 response, X2C  
  Van Anh Tran           : RI-MP2 g-tensors                              
  Willem Van den Heuvel  : Paramagnetic NMR                              
  Zikuan Wang            : NOTCH, Electric field optimization            
  Frank Wennmohs         : Technical directorship and infrastructure     
  Hang Xu                : AUTO-CI-Response properties                   
                                                                         
[FACCTs GmbH]                                                            
  Markus Bursch, Miquel Garcia-Rates, Christoph Riplinger, Bernardo de Souza, Georgi L. Stoychev 
                                                                 
  APM, Basis sets (HGBS, AHGBS, def-TZVP (Ac-Lr), def2-XVPD (La-Lu)), CI-OPT, improved COSX, DLPNO-Multilevel,           
  DOCKER, DRACO, updates on ESD, GOAT, IRC, LR-CPCM, MBIS, meta-GGA TD-DFT gradient, ML-optimized integration grids, 
  MM, NACMEs, nearIR, NEB, NEB-TS, NL-DFT gradient (VV10), 2- and 3-layer-ONIOM, interface openCOSMO-RS, QMMM,   
  Crystal-QMMM, SF, symmetry and pop. for TD-DFT, r2SCAN hybrids, SOLVATOR                                   
                                                                         
[Other institutions]                                                     
  V. Asgeirsson          : NEB                                           
  Christoph Bannwarth    : sTDA-DFT, sTD-DFT, PBEh-3c, B97-3c, D3        
  Sebastian Ehlert       : rSCAN, r2SCAN, r2SCAN-3c, D4, dhf basis sets  
  Marvin Friede          : D4 for Fr, Ra, Ac-Lr                          
  Lars Goerigk           : TD-DFT with DH, B97 family of functionals     
  Stefan Grimme          : VdW corrections, initial TS optimization, DFT functionals, gCP, sTDA/sTD-DF 
  Waldemar Hujo          : DFT-NL                                        
  H. Jonsson             : NEB                                           
  Holger Kruse           : gCP                                           
  Marcel Mueller         : wB97X-3c, vDZP basis set                      
  Hagen Neugebauer       : wr2SCAN                                       
  Tobias Risthaus        : range-separated hybrid DFT                    
  Lukas Wittmann         : regularized MP2, r2SCAN double-hybrids, wr2SCAN        
                                                                         
We gratefully acknowledge several colleagues who have allowed us to      
interface, adapt or use parts of their codes:                            
  Ed Valeev, F. Pavosevic, A. Kumar             : LibInt (2-el integral package), F12 methods 
  Garnet Chan, S. Sharma, J. Yang, R. Olivares  : DMRG                   
  Ulf Ekstrom                                   : XCFun DFT Library      
  Mihaly Kallay                                 : mrcc  (arbitrary order and MRCC methods)
  Frank Weinhold                                : gennbo (NPA and NBO analysis)           
  Simon Mueller                                 : openCOSMO-RS                            
  Christopher J. Cramer and Donald G. Truhlar   : smd solvation model                     
  S Lehtola, MJT Oliveira, MAL Marques          : LibXC Library                           
  Liviu Ungur et al                             : ANISO software                          


 Your calculation uses the libint2 library for the computation of 2-el integrals
 For citations please refer to: http://libint.valeyev.net

 Your ORCA version has been built with support for libXC version: 6.2.2
 For citations please refer to: https://libxc.gitlab.io

 This ORCA versions uses:
   CBLAS   interface :  Fast vector & matrix operations
   LAPACKE interface :  Fast linear algebra routines
   SCALAPACK package :  Parallel linear algebra routines
   Shared memory     :  Shared parallel matrices
   BLAS/LAPACK       :  OpenBLAS 0.3.27  USE64BITINT DYNAMIC_ARCH NO_AFFINITY Zen SINGLE_THREADED
        Core in use  :  Zen
   Copyright (c) 2011-2014, The OpenBLAS Project




***************************************
The coordinates will be read from file: xtb_opt.xyz
***************************************


Your calculation utilizes the geometrical counterpoise correction gCP
Please cite in your paper:
H.Kruse, S. Grimme J.Chem.Phys., 136, (2012), 154101 
   

Your calculation utilizes the atom-pairwise dispersion correction
based on EEQ partial charges (D4)


Your calculation utilizes the SMD solvation module
Please cite in your paper:
A.V. Marenich, C.J. Cramer, D.G. Truhlar J. Phys. Chem. B, 113, (2009), 6378 

================================================================================

----- Orbital basis set information -----
Your calculation utilizes the basis: def2-mTZVPP
   Stefan Grimme, Andreas Hansen, Sebastian Ehlert, and Jan-Michael Mewes 
   J. Chem. Phys. 154, 064103 (2021). DOI: 10.1063/5.0040021

----- AuxJ basis set information -----
Your calculation utilizes the auxiliary basis: def2/J
   F. Weigend, Phys. Chem. Chem. Phys. 8, 1057 (2006).

================================================================================
                                        WARNINGS
                       Please study these warnings very carefully!
================================================================================

WARNING: Old DensityContainer found on disk!
         Will remove this file - 
         If you want to keep old densities, please start your calculation with a different basename. 



WARNING: SCAN, rSCAN, or r2SCAN functional requested.
  ===> : libXC variant has now been activated.



================================================================================
                                       INPUT FILE
================================================================================
NAME = xtb_opt.inp
|  1> ! r2scan-3c def2/J RI DEFGRID2 scfconv7 ENGRAD tightSCF miniprint
|  2> %cpcm
|  3>     smd true
|  4>     smdsolvent "water"
|  5> end
|  6> * xyzfile 0 1 xtb_opt.xyz
|  7> 
|  8>                          ****END OF INPUT****
================================================================================

                     *******************************
                     * Energy+Gradient Calculation *
                     *******************************

---------------------------------
CARTESIAN COORDINATES (ANGSTROEM)
---------------------------------
  C      2.363650   -1.286606    0.268407
  C      2.380104    0.029171   -0.502274
  C      1.321376    1.024800    0.006031
  C     -0.059448    0.528261   -0.210367
  C     -1.016286    0.435718    0.730393
  C     -2.352484   -0.069621    0.441164
  O     -2.742701   -0.460521   -0.660193
  H      2.541434   -1.116488    1.336678
  H      1.396940   -1.793952    0.169112
  H      3.137655   -1.968813   -0.097691
  H      2.209221   -0.158354   -1.569601
  H      3.365066    0.501186   -0.416589
  H      1.432351    1.963441   -0.557462
  H      1.485546    1.253752    1.065403
  H     -0.301812    0.207974   -1.225594
  H     -0.820234    0.736991    1.757240
  H     -3.047064   -0.092103    1.302712

----------------------------
CARTESIAN COORDINATES (A.U.)
----------------------------
  NO LB      ZA    FRAG     MASS         X           Y           Z
   0 C     6.0000    0    12.011    4.466651   -2.431332    0.507217
   1 C     6.0000    0    12.011    4.497745    0.055125   -0.949161
   2 C     6.0000    0    12.011    2.497039    1.936591    0.011397
   3 C     6.0000    0    12.011   -0.112340    0.998269   -0.397535
   4 C     6.0000    0    12.011   -1.920502    0.823387    1.380243
   5 C     6.0000    0    12.011   -4.445551   -0.131564    0.833678
   6 O     8.0000    0    15.999   -5.182953   -0.870258   -1.247584
   7 H     1.0000    0     1.008    4.802614   -2.109856    2.525955
   8 H     1.0000    0     1.008    2.639834   -3.390079    0.319575
   9 H     1.0000    0     1.008    5.929308   -3.720517   -0.184609
  10 H     1.0000    0     1.008    4.174822   -0.299246   -2.966116
  11 H     1.0000    0     1.008    6.359053    0.947104   -0.787240
  12 H     1.0000    0     1.008    2.706751    3.710366   -1.053450
  13 H     1.0000    0     1.008    2.807274    2.369248    2.013321
  14 H     1.0000    0     1.008   -0.570342    0.393014   -2.316037
  15 H     1.0000    0     1.008   -1.550017    1.392711    3.320703
  16 H     1.0000    0     1.008   -5.758117   -0.174049    2.461770

------------------------------------------------------------------------------
                   ___                                                        
                  /   \      - P O W E R E D   B Y -                         
                 /     \                                                     
                 |  |  |   _    _      __       _____    __    __             
                 |  |  |  | |  | |    /  \     |  _  \  |  |  /  |          
                  \  \/   | |  | |   /    \    | | | |  |  | /  /          
                 / \  \   | |__| |  /  /\  \   | |_| |  |  |/  /          
                |  |  |   |  __  | /  /__\  \  |    /   |      \           
                |  |  |   | |  | | |   __   |  |    \   |  |\   \          
                \     /   | |  | | |  |  |  |  | |\  \  |  | \   \       
                 \___/    |_|  |_| |__|  |__|  |_| \__\ |__|  \__/        
                                                                              
                      - O R C A' S   B I G   F R I E N D -                    
                                      &                                       
                       - I N T E G R A L  F E E D E R -                       
                                                                              
 v1 FN, 2020, v2 2021, v3 2022-2024                                           
------------------------------------------------------------------------------


----------------------
SHARK INTEGRAL PACKAGE
----------------------

Number of atoms                             ...     17
Number of basis functions                   ...    188
Number of shells                            ...     94
Maximum angular momentum                    ...      2
Integral batch strategy                     ... SHARK/LIBINT Hybrid
RI-J (if used) integral strategy            ... SPLIT-RIJ (Revised 2003 algorithm where possible)
Printlevel                                  ...      1
Contraction scheme used                     ... SEGMENTED contraction
Prescreening option                         ... SCHWARTZ
   Thresh                                   ... 3.000e-11
   Tcut                                     ... 1.000e-12
   Tpresel                                  ... 1.000e-12 
Coulomb Range Separation                    ... NOT USED
Exchange Range Separation                   ... NOT USED
Multipole approximations                    ... NOT USED
Finite Nucleus Model                        ... NOT USED
CABS basis                                  ... NOT available
Auxiliary Coulomb fitting basis             ... AVAILABLE
   # of basis functions in Aux-J            ...    453
   # of shells in Aux-J                     ...    155
   Maximum angular momentum in Aux-J        ...      4
Auxiliary J/K fitting basis                 ... NOT available
Auxiliary Correlation fitting basis         ... NOT available
Auxiliary 'external' fitting basis          ... NOT available

Checking pre-screening integrals            ... done (  0.0 sec) Dimension = 94
Check shell pair data                       ... done (  0.0 sec)
Shell pair information
Shell pair cut-off parameter TPreSel        ...   1.0e-12
Total number of shell pairs                 ...      4465
Shell pairs after pre-screening             ...      4016
Total number of primitive shell pairs       ...     15937
Primitive shell pairs kept                  ...     10408
          la=0 lb=0:   1369 shell pairs
          la=1 lb=0:   1540 shell pairs
          la=1 lb=1:    458 shell pairs
          la=2 lb=0:    392 shell pairs
          la=2 lb=1:    223 shell pairs
          la=2 lb=2:     34 shell pairs

Calculating one electron integrals          ... done (  0.0 sec)
Calculating RI/J V-Matrix + Cholesky decomp.... done (  0.0 sec)
Calculating Nuclear repulsion               ... done (  0.0 sec) ENN=    280.676184556746 Eh

Diagonalization of the overlap matrix:
Smallest eigenvalue                        ... 1.886e-04
Time for diagonalization                   ...    0.003 sec
Threshold for overlap eigenvalues          ... 1.000e-07
Number of eigenvalues below threshold      ... 0
Time for construction of square roots      ...    0.003 sec
Total time needed                          ...    0.008 sec

-------------------
DFT GRID GENERATION
-------------------

General Integration Accuracy     IntAcc      ... 4.388
Radial Grid Type                 RadialGrid  ... OptM3 with GC (2021)
Angular Grid (max. ang.)         AngularGrid ... 4 (Lebedev-302)
Angular grid pruning method      GridPruning ... 4 (adaptive)
Weight generation scheme         WeightScheme... mBecke (2022)
Basis function cutoff            BFCut       ... 1.0000e-11
Integration weight cutoff        WCut        ... 1.0000e-14
Partially contracted basis set               ... off
Rotationally invariant grid construction     ... off
Angular grids for H and He will be reduced by one unit
Diffuse basis detected: some atoms will have their outermost
                        angular grid increased by 1.

Total number of grid points                  ...    74701
Total number of batches                      ...     1175
Average number of points per batch           ...       63
Average number of grid points per atom       ...     4394
Initializing property integral containers    ... done (  0.0 sec)

SHARK setup successfully completed in   0.8 seconds

Maximum memory used throughout the entire STARTUP-calculation: 33.9 MB
Occupation numbers will be reassigned to an Aufbau configuration
             **** ENERGY FILE WAS UPDATED (xtb_opt.en.tmp) ****
Finished Guess after   0.1 sec
Maximum memory used throughout the entire GUESS-calculation: 13.2 MB
--------------------
CPCM SOLVATION MODEL
--------------------
CPCM parameters:
  Epsilon                                         ...      78.3550
  Refrac                                          ...       1.3328
  Rsolv                                           ...       1.3000
  Surface type                                    ... GAUSSIAN VDW
  Discretization scheme                           ... Constant charge density
    Threshold for H atoms                         ...       5.0000 (charges/Ang^2)
    Threshold for non-H atoms                     ...       5.0000 (charges/Ang^2)
  Epsilon function type                           ...         CPCM
Solvent:                                          ... WATER
SMD-CDS solvent descriptors:
  Soln                                            ...       1.3328
  Soln25                                          ...       1.3323
  Sola                                            ...       0.0000
  Solb                                            ...       0.0000
  Solg                                            ...       0.0000
  Solc                                            ...       0.0000
  Solh                                            ...       0.0000
Radii:
  Scheme                                          ... Element-dependent radii
  Radius for C  used is    3.4960 Bohr (=   1.8500 Ang.)
  Radius for O  used is    2.8724 Bohr (=   1.5200 Ang.)
  Radius for H  used is    2.2677 Bohr (=   1.2000 Ang.)
Calculating surface                               ...        done! (  0.0s)
Cavity surface points                             ...         1328
Cavity Volume                                     ...     791.6281
Cavity Surface-area                               ...     528.4178
Calculating surface distance matrix               ...        done! (  0.0s)
Performing Cholesky decomposition & store         ...        done! (  0.1s)
Overall time for CPCM initialization              ...                 0.1s

----------------------------------------D-I-I-S--------------------------------------------
Iteration    Energy (Eh)           Delta-E    RMSDP     MaxDP     DIISErr   Damp  Time(sec)
-------------------------------------------------------------------------------------------
               ***  Starting incremental Fock matrix formation  ***
                              *** Initializing SOSCF ***
---------------------------------------S-O-S-C-F--------------------------------------
Iteration    Energy (Eh)           Delta-E    RMSDP     MaxDP     MaxGrad    Time(sec)
--------------------------------------------------------------------------------------
    1    -309.7858326033942831     0.00e+00  4.70e-05  1.07e-03  1.11e-04     1.8
               *** Restarting incremental Fock matrix formation ***
    2    -309.7858458575642544    -1.33e-05  2.32e-05  4.92e-04  1.12e-04     1.7
    3    -309.7858468262572842    -9.69e-07  1.13e-05  5.82e-04  6.04e-05     1.4
    4    -309.7858467650457897     6.12e-08  6.37e-06  2.82e-04  1.15e-04     1.4
                 **** Energy Check signals convergence ****

               *****************************************************
               *                     SUCCESS                       *
               *           SCF CONVERGED AFTER   4 CYCLES          *
               *****************************************************


SMD CDS free energy correction energy :                 4.61487     Kcal/mol
Total Energy after SMD CDS correction =              -309.778492506 Eh
             **** ENERGY FILE WAS UPDATED (xtb_opt.en.tmp) ****

----------------
TOTAL SCF ENERGY
----------------

Total Energy       :       -309.77849250556000 Eh           -8429.50133 eV

Components:
Nuclear Repulsion  :        280.67618455674562 Eh            7637.58727 eV
Electronic Energy  :       -590.44411630870559 Eh          -16066.80123 eV
One Electron Energy:       -974.21046689405716 Eh          -26509.61453 eV
Two Electron Energy:        383.76635058535157 Eh           10442.81330 eV
CPCM Dielectric    :         -0.01791501308582 Eh              -0.48749 eV
SMD CDS (Gcds)     :          0.00735425948580 Eh               0.20012 eV

Virial components:
Potential Energy   :       -618.09608215617334 Eh          -16819.24947 eV
Kinetic Energy     :        308.31758965061334 Eh            8389.74814 eV
Virial Ratio       :          2.00473830525401

DFT components:
N(Alpha)           :       27.000005832642 electrons
N(Beta)            :       27.000005832642 electrons
N(Total)           :       54.000011665284 electrons
E(X)               :      -43.008349971510 Eh       
E(C)               :       -1.698271635426 Eh       
E(XC)              :      -44.706621606937 Eh       

CPCM Solvation Model Properties:
Surface-charge          :         -0.04609673864154
Corrected charge        :         -0.00000000000000
Outlying charge corr.   :          0.00016779402141 Eh               0.00457 eV
Free-energy (cav+disp)  :          0.00735425948580 Eh               0.20012 eV

---------------
SCF CONVERGENCE
---------------

  Last Energy change         ...   -6.1211e-08  Tolerance :   1.0000e-07
  Last MAX-Density change    ...    2.8163e-04  Tolerance :   1.0000e-07
  Last RMS-Density change    ...    6.3691e-06  Tolerance :   5.0000e-09
  Last DIIS Error            ...    1.6966e-03  Tolerance :   1.0000e-07
  Last Orbital Gradient      ...    1.1473e-04  Tolerance :   1.0000e-04
  Last Orbital Rotation      ...    1.5701e-04  Tolerance :   1.0000e-04


----------------
ORBITAL ENERGIES
----------------

  NO   OCC          E(Eh)            E(eV) 
   0   2.0000     -18.948290      -515.6092 
   1   2.0000     -10.119883      -275.3760 
   2   2.0000     -10.061110      -273.7767 
   3   2.0000     -10.036250      -273.1003 
   4   2.0000     -10.034169      -273.0436 
   5   2.0000     -10.028290      -272.8836 
   6   2.0000     -10.013253      -272.4745 
   7   2.0000      -1.004959       -27.3463 
   8   2.0000      -0.786685       -21.4068 
   9   2.0000      -0.733062       -19.9476 
  10   2.0000      -0.665949       -18.1214 
  11   2.0000      -0.600929       -16.3521 
  12   2.0000      -0.544790       -14.8245 
  13   2.0000      -0.507492       -13.8096 
  14   2.0000      -0.456272       -12.4158 
  15   2.0000      -0.432508       -11.7691 
  16   2.0000      -0.414844       -11.2885 
  17   2.0000      -0.406266       -11.0551 
  18   2.0000      -0.372374       -10.1328 
  19   2.0000      -0.368411       -10.0250 
  20   2.0000      -0.363986        -9.9046 
  21   2.0000      -0.330133        -8.9834 
  22   2.0000      -0.317197        -8.6314 
  23   2.0000      -0.304395        -8.2830 
  24   2.0000      -0.296217        -8.0605 
  25   2.0000      -0.249786        -6.7970 
  26   2.0000      -0.230742        -6.2788 
  27   0.0000      -0.099037        -2.6949 
  28   0.0000       0.035055         0.9539 
  29   0.0000       0.090855         2.4723 
  30   0.0000       0.108533         2.9533 
  31   0.0000       0.120724         3.2851 
  32   0.0000       0.129632         3.5275 
  33   0.0000       0.138607         3.7717 
  34   0.0000       0.148889         4.0515 
  35   0.0000       0.156174         4.2497 
  36   0.0000       0.168303         4.5798 
  37   0.0000       0.171691         4.6719 
*Only the first 10 virtual orbitals were printed.
Total SCF time: 0 days 0 hours 0 min 6 sec 
Finished LeanSCF after   8.4 sec

Maximum memory used throughout the entire LEANSCF-calculation: 24.9 MB


-------------------------------------------------------------------------------
                          DFT DISPERSION CORRECTION                            
                                                                               
                                DFTD4 V3.4.0                                   
-------------------------------------------------------------------------------
-------------------------   ----------------
Dispersion correction           -0.004281319
-------------------------   ----------------

------------------   -----------------
gCP correction             0.006717369
------------------   -----------------

-------------------------   --------------------
FINAL SINGLE POINT ENERGY      -309.776056455495
-------------------------   --------------------

------------------------------------------------------------------------------
                         ORCA SCF GRADIENT CALCULATION
------------------------------------------------------------------------------

Nuc. rep. gradient        (SHARK) ... done (  0.0 sec)
HCore & Overlap gradient  (SHARK) ... done (  0.2 sec)
Split-RIJ-J gradient      (SHARK) ... done (  1.3 sec)
XC gradient                       ... done (  4.1 sec)
CPCM gradient                     ... done (  1.1 sec)
SMD gradient                      ... done (  0.0 sec)
Dispersion correction             ... done (  0.0 sec)

-------------------
DISPERSION GRADIENT
-------------------

   1   C   :    0.000067634   -0.000058327    0.000009204
   2   C   :    0.000064836    0.000000237   -0.000023666
   3   C   :    0.000041565    0.000046317   -0.000003404
   4   C   :   -0.000023240    0.000030836   -0.000014198
   5   C   :   -0.000079173    0.000023700    0.000031833
   6   C   :   -0.000091335   -0.000005723    0.000016600
   7   O   :   -0.000074285   -0.000018423   -0.000021719
   8   H   :    0.000032085   -0.000024529    0.000013034
   9   H   :    0.000031442   -0.000034051    0.000000794
  10   H   :    0.000023766   -0.000026352    0.000000806
  11   H   :    0.000024591   -0.000002865   -0.000017220
  12   H   :    0.000026807    0.000002292   -0.000005516
  13   H   :    0.000014285    0.000029959   -0.000010880
  14   H   :    0.000014879    0.000021203    0.000008063
  15   H   :   -0.000019436    0.000007585   -0.000018448
  16   H   :   -0.000026867    0.000013072    0.000026987
  17   H   :   -0.000027555   -0.000004930    0.000007731

Difference to translation invariance:
           :    0.0000000000   -0.0000000000    0.0000000000

Difference to rotation invariance:
           :    0.0000000000   -0.0000000000   -0.0000000000

Norm of the Dispersion gradient    ...    0.0002308557
RMS gradient                       ...    0.0000323263
MAX gradient                       ...    0.0000913350
gCP correction                   ... done

------------------
CARTESIAN GRADIENT
------------------

   1   C   :    0.000190980    0.000214694   -0.000258737
   2   C   :   -0.000142974    0.000002947    0.000269199
   3   C   :    0.000060153   -0.000291167   -0.000229138
   4   C   :    0.000108238    0.000091402    0.000236793
   5   C   :    0.000008823    0.000212197   -0.000275703
   6   C   :   -0.000025442   -0.000113419    0.000820772
   7   O   :   -0.000144810   -0.000184302   -0.000650262
   8   H   :    0.000076922    0.000020529    0.000221491
   9   H   :   -0.000278707   -0.000096521    0.000049863
  10   H   :    0.000045833   -0.000258426   -0.000074758
  11   H   :   -0.000018284    0.000015894   -0.000189164
  12   H   :    0.000140475    0.000029053   -0.000095737
  13   H   :    0.000003992    0.000295325    0.000045753
  14   H   :    0.000081563    0.000068704    0.000204592
  15   H   :    0.000002728   -0.000179373   -0.000184534
  16   H   :   -0.000036570    0.000135717    0.000239433
  17   H   :   -0.000072918    0.000036746   -0.000129863

Difference to translation invariance:
           :   -0.0000000000   -0.0000000000   -0.0000000000

Difference to rotation invariance:
           :   -0.0000639894    0.0000140575   -0.0002883663

Norm of the Cartesian gradient     ...    0.0015298419
RMS gradient                       ...    0.0002142207
MAX gradient                       ...    0.0008207718

-------
TIMINGS
-------

Total SCF gradient time     ....        6.726 sec

Densities                   ....       0.000 sec  (  0.0%)
One electron gradient       ....       0.172 sec  (  2.6%)
RI-J Coulomb gradient       ....       1.309 sec  ( 19.5%)
XC gradient                 ....       4.093 sec  ( 60.9%)
CPCM gradient               ....       1.088 sec  ( 16.2%)
   A-Matrix (El+Nuc)        ....       0.070 sec  (  1.0%)
   Potential                ....       1.018 sec  ( 15.1%)
SMD gradient                ....       0.002 sec  (  0.0%)

Maximum memory used throughout the entire SCFGRAD-calculation: 33.3 MB

------------------------------------------------------------------------------
                              ORCA PROPERTY CALCULATIONS
------------------------------------------------------------------------------

GBWName                                 ... xtb_opt.gbw
Number of atoms                         ...     17
Number of basis functions               ...    188
Max core memory                         ...   1024 MB

Electric properties:
Dipole moment                           ... YES
Quadrupole moment                       ...  NO
Static polarizability (Dipole/Dipole)   ...  NO
Static polarizability (Dipole/Quad.)    ...  NO
Static polarizability (Quad./Quad.)     ...  NO
Static polarizability (Velocity)        ...  NO

Atomic electric properties:
Dipole moment                           ...  NO
Quadrupole moment                       ...  NO
Static polarizability                   ...  NO

Choice of electric origin               ... Center of mass
Position of electric origin             ...    -0.013829     0.002118     0.000466

General magnetic properties:
Magnetizability                         ...  NO

EPR properties:
g-Tensor (aka g-matrix)                 ...  NO
Zero-Field splitting spin-orbit         ...  NO
Zero-field splitting spin-spin          ...  NO
Hyperfine couplings                     ...  NO (   0 nuclei)
Quadrupole couplings                    ...  NO (   0 nuclei)
Contact density                         ...  NO (   0 nuclei)

NMR properties:
Chemical shifts                         ...  NO (   0 nuclei)
Spin-rotation constants                 ...  NO (   0 nuclei)
Spin-spin couplings                     ...  NO (   0 nuclei,    0 pairs)

Choice of magnetic origin               ... GIAO
Position of magnetic origin             ...     0.000000     0.000000     0.000000

Properties with geometric perturbations:
SCF Hessian                             ...  NO
IR spectrum                             ...  NO
VCD spectrum                            ...  NO
X-ray spectroscopy properties:
SCF XES/XAS/RIXS spectra                ...  NO


-------------
DIPOLE MOMENT
-------------

Method             : SCF
Type of density    : Electron Density
Multiplicity       :   1
Irrep              :   0
Energy             :  -309.7784925055599956 Eh
Relativity type    : 
Basis              : AO
                                X                 Y                 Z
Electronic contribution:     -9.113388512       1.170211479      -0.689455660
Nuclear contribution   :     10.722569111      -0.454875408       1.643056762
                        -----------------------------------------
Total Dipole Moment    :      1.609180598       0.715336071       0.953601102
                        -----------------------------------------
Magnitude (a.u.)       :      2.002629011
Magnitude (Debye)      :      5.090278415



--------------------
Rotational spectrum 
--------------------
 
Rotational constants in cm-1:             0.190491             0.038576             0.036556 
Rotational constants in MHz :          5710.780329          1156.476032          1095.913459 

Dipole components along the rotational axes: 
x,y,z [a.u.] :     1.577904     0.842441    -0.900576 
x,y,z [Debye]:     4.010712     2.141315    -2.289081 

 

Dipole moment calculation done in   0.0 sec 

Maximum memory used throughout the entire PROP-calculation: 11.7 MB

--------------------------------
SUGGESTED CITATIONS FOR THIS RUN
--------------------------------

Below you find a list of papers that are relevant to this ORCA run
We neither can nor want to force you to cite these papers, but we appreciate if you do
You receive ORCA, which is the product of decades of hard work by many enthusiastic individuals, for free
The only thing we kindly ask in return is that you cite our papers,
We deeply appreciate it, if you show your appreciation for ORCA by not just citing the generic ORCA reference.

Please note that relegating all ORCA citations to the supporting information does *not* help us.
SI sections are not indexed - citations you put there will not count into any citation statistics
But we need these citations in order to attract the funding resources that allow us to do what we are doing

Therefore, if you are a happy ORCA user, please consider citing a few of the papers listed below in the main body of your paper

In addition to the list printed below, the program has created the file xtb_opt.bibtex that contains the list in bibtex format
You can import this file easily into all common literature databanks and citation aid programs


List of essential papers. We consider these as the minimum necessary citations

  1. Neese,F.
     Software update: the ORCA program system, version 5.0
     WIRES Comput. Molec. Sci., 2022 12(1)e1606
     doi.org/10.1002/wcms.1606
  2. Grimme,S.; Hansen,A.; Ehlert,S.; Mewes,J.
     r2SCAN-3c: A 'Swiss army knife' composite electronic-structure method
     J. Chem. Phys., 2021 154 064103
     doi.org/10.1063/5.0040021

List of papers to cite with high priority. The work reported in these papers was absolutely
necessary for this run to complete.
Our perspective: the developers of density functionals and basis sets usually get cited in chemistry papers
Good! But without the algorithms to do something with them, the functionals or basis sets would not do anything.
Hence, in our opinion, the algorithm design and method developments papers are equally worthy of getting cited

  1. Neese,F.
     An improvement of the resolution of the identity approximation for the formation of the Coulomb matrix
     J. Comp. Chem., 2003 24(14)1740-1747
     doi.org/10.1002/jcc.10318
  2. Garcia-Rates,M.; Neese,F.
     Effect of the Solute Cavity on the Solvation Energy and its Derivatives within the Framework of the Gaussian Charge Scheme
     J. Comput. Chem., 2020 41 922-939
     doi.org/10.1002/jcc.26139
  3. Neese,F.
     The SHARK Integral Generation and Digestion System
     J. Comp. Chem., 2022  1-16
     doi.org/10.1002/jcc.26942
  4. Lehtola,S.; Steigemann,C.; Oliveira,M.; Marques,M.
     Recent developments in Libxc - A comprehensive library of functionals for density functional theory
     Software X, 2018 7 
     doi.org/10.1016/j.softx.2017.11.002
  5. Caldeweyher,E.; Bannwarth,C.; Grimme,S.
     Extension of the D3 dispersion coefficient model
     J. Chem. Phys., 2017 147 034112
     doi.org/10.1063/1.4993215
  6. Caldeweyher,E.; Ehlert,S.; Hansen,A.; Neugebauer,H.; Spicher,S.; Bannwarth,C.; Grimme,S.
     A generally applicable atomic-charge dependent London dispersion correction
     J. Chem. Phys., 2019 150 154122
     doi.org/10.1063/1.5090222
  7. Caldeweyher,E.; Mewes,J.; Ehlert,S.; Grimme,S.
     Extension and evaluation of the D4 London-dispersion model for periodic systems
     Phys. Chem. Chem. Phys., 2020 22(16)8499-8512
     doi.org/10.1039/D0CP00502A
  8. Wittmann,L.; Gordiy,I.; Friede,M.; Helmich-Paris,B.; Grimme,S.; Hansen,A.; Bursch,M.
     Extension of the D3 and D4 London Dispersion Corrections to the full Actinides Series
     Phys. Chem. Chem. Phys., 2024 26(32)21379-21394
     doi.org/https://doi.org/10.1039/D4CP01514B 

List of suggested additional citations. These are papers that are important in the 'surrounding' of 
of this run, or papers that preceded the highly important papers. If you like your results we are grateful for a citation.

  1. Neese,F.
     The ORCA program system
     WIRES Comput. Molec. Sci., 2012 2(1)73-78
     doi.org/10.1002/wcms.81
  2. Neese,F.
     Software update: the ORCA program system, version 4.0
     WIRES Comput. Molec. Sci., 2018 8(1)1-6
     doi.org/10.1002/wcms.1327
  3. Neese,F.; Wennmohs,F.; Becker,U.; Riplinger,C.
     The ORCA quantum chemistry program package
     J. Chem. Phys., 2020 152 Art. No. L224108
     doi.org/10.1063/5.0004608

List of optional additional citations

  1. Neese,F.
     Approximate second-order SCF convergence for spin unrestricted wavefunctions
     Chem. Phys. Lett., 2000 325(1-3)93-98
     doi.org/10.1016/s0009-2614(00)00662-x

Timings for individual modules:

Sum of individual times          ...       16.684 sec (=   0.278 min)
Startup calculation              ...        0.836 sec (=   0.014 min)   5.0 %
SCF iterations                   ...        8.627 sec (=   0.144 min)  51.7 %
Property calculations            ...        0.090 sec (=   0.001 min)   0.5 %
SCF Gradient evaluation          ...        7.132 sec (=   0.119 min)  42.7 %
                             ****ORCA TERMINATED NORMALLY****
TOTAL RUN TIME: 0 days 0 hours 0 minutes 18 seconds 100 msec
  ------------------------------------------------------------------------
          * successful ORCA run, taking over control again...
av. E:   -309.7760565 ->   -309.7760565
av. G:      0.0042976 ->      0.0042976
 * total energy  :  -309.7760565 Eh     change       -0.2713152E-04 Eh
   gradient norm :     0.0015298 Eh/a0  converged?    E=F G=F D=F
   step length   :     0.0191241 a0

........................................................................
.............................. CYCLE    5 ..............................
........................................................................
                         * ORCA takes the control...
  ------------------------------------------------------------------------

                                 *****************
                                 * O   R   C   A *
                                 *****************

                                            #,                                       
                                            ###                                      
                                            ####                                     
                                            #####                                    
                                            ######                                   
                                           ########,                                 
                                     ,,################,,,,,                         
                               ,,#################################,,                 
                          ,,##########################################,,             
                       ,#########################################, ''#####,          
                    ,#############################################,,   '####,        
                  ,##################################################,,,,####,       
                ,###########''''           ''''###############################       
              ,#####''   ,,,,##########,,,,          '''####'''          '####       
            ,##' ,,,,###########################,,,                        '##       
           ' ,,###''''                  '''############,,,                           
         ,,##''                                '''############,,,,        ,,,,,,###''
      ,#''                                            '''#######################'''  
     '                                                          ''''####''''         
             ,#######,   #######,   ,#######,      ##                                
            ,#'     '#,  ##    ##  ,#'     '#,    #''#        ,####,   ,####,        
            ##       ##  ##   ,#'  ##            #'  '#       #'       #'  '#        
            ##       ##  #######   ##           ,######,      #####,   #    #        
            '#,     ,#'  ##    ##  '#,     ,#' ,#      #,     #,   #   #,  ,#        
             '#######'   ##     ##  '#######'  #'      '#     '####' # '####'        



                #########################################################
                #                        -***-                          #
                #          Department of theory and spectroscopy        #
                #                                                       #
                #                      Frank Neese                      #
                #                                                       #
                #     Directorship, Architecture, Infrastructure        #
                #                    SHARK, DRIVERS                     #
                #        Core code/Algorithms in most modules           #
                #                                                       #
                #        Max Planck Institute fuer Kohlenforschung      #
                #                Kaiser Wilhelm Platz 1                 #
                #                 D-45470 Muelheim/Ruhr                 #
                #                      Germany                          #
                #                                                       #
                #                  All rights reserved                  #
                #                        -***-                          #
                #########################################################


                         Program Version 6.0.1  -  RELEASE   -


 With contributions from (in alphabetic order):
[Max-Planck-Institut fuer Kohlenforschung]                               
  Daniel Aravena         : Magnetic Suceptibility                        
  Michael Atanasov       : Ab Initio Ligand Field Theory (pilot matlab implementation)
  Alexander A. Auer      : GIAO ZORA, VPT2 properties, NMR spectrum      
  Ute Becker             : All parallelization in ORCA, NUMFREQ, NUMCALC 
  Giovanni Bistoni       : ED, misc. LED, open-shell LED, HFLD           
  Martin Brehm           : Molecular dynamics                            
  Dmytro Bykov           : pre 5.0 version of the SCF Hessian            
  Marcos Casanova-Páez   : Triplet and SCS-CIS(D). UHF-(DLPNO)-IP/EA/STEOM-CCSD. UHF-CVS-IP/STEOM-CCSD   
  Vijay G. Chilkuri      : MRCI spin determinant printing, contributions to CSF-ICE 
  Pauline Colinet        : FMM embedding                                 
  Dipayan Datta          : RHF DLPNO-CCSD density                        
  Achintya Kumar Dutta   : EOM-CC, STEOM-CC                              
  Nicolas Foglia         : Exact transition moments, OPA infrastructure, MCD improvements    
  Dmitry Ganyushin       : Spin-Orbit,Spin-Spin,Magnetic field MRCI      
  Miquel Garcia-Rates    : C-PCM and meta-GGA Hessian, CCSD/C-PCM, Gaussian charge scheme 
  Tiago L. C. Gouveia    : GS-ROHF, GS-ROCIS                             
  Yang Guo               : DLPNO-NEVPT2, F12-NEVPT2, CIM, IAO-localization        
  Andreas Hansen         : Spin unrestricted coupled pair/coupled cluster methods 
  Ingolf Harden          : AUTO-CI MPn and infrastructure                
  Benjamin Helmich-Paris : MC-RPA, TRAH-(SCF,CASSCF), AVAS, COSX integrals, SCF dyn. polar. 
  Lee Huntington         : MR-EOM, pCC                                   
  Robert Izsak           : Overlap fitted RIJCOSX, COSX-SCS-MP3, EOM     
  Riya Kayal             : Wick's Theorem for AUTO-CI, AUTO-CI UHF-CCSDT 
  Emily Kempfer          : AUTO-CI, RHF CISDT and CCSDT                  
  Christian Kollmar      : KDIIS, OOCD, Brueckner-CCSD(T), CCSD density, CASPT2, CASPT2-K, improved NEVPT2 
  Axel Koslowski         : Symmetry handling                             
  Simone Kossmann        : meta-GGA functionals, TD-DFT gradient, OOMP2, (MP2 Hessian; deprecated post 5.0) 
  Lucas Lang             : DCDCAS                                        
  Marvin Lechner         : AUTO-CI (C++ implementation), FIC-MRCC        
  Spencer Leger          : CASSCF response                               
  Dagmar Lenk            : GEPOL surface, SMD, ORCA-2-JSON               
  Dimitrios Liakos       : Extrapolation schemes; Compound Job, initial MDCI parallelization 
  Dimitrios Manganas     : Further ROCIS development; embedding schemes. LFT, Crystal Embedding 
  Dimitrios Pantazis     : SARC Basis sets                               
  Anastasios Papadopoulos: AUTO-CI, single reference methods and gradients 
  Taras Petrenko         : pre 6.0 DFT Hessian and TD-DFT gradient, (ASA, deprecated), ECA, 1-Electron XAS/XES, NRVS 
  Peter Pinski           : DLPNO-MP2, DLPNO-MP2 Gradient                 
  Christoph Reimann      : Effective Core Potentials                     
  Marius Retegan         : Local ZFS, SOC                                
  Christoph Riplinger    : Optimizer, TS searches, QM/MM, DLPNO-CCSD(T), (RO)-DLPNO pert. Triples 
  Michael Roemelt        : Original ROCIS implementation                 
  Masaaki Saitow         : Open-shell DLPNO-CCSD energy and density      
  Barbara Sandhoefer     : DKH picture change effects                    
  Kantharuban Sivalingam : CASSCF convergence/infrastructure, NEVPT2 and variants, FIC-MRCI 
  Bernardo de Souza      : ESD, SOC TD-DFT                               
  Georgi L. Stoychev     : AutoAux, RI-MP2 NMR, DLPNO-MP2 response, X2C  
  Van Anh Tran           : RI-MP2 g-tensors                              
  Willem Van den Heuvel  : Paramagnetic NMR                              
  Zikuan Wang            : NOTCH, Electric field optimization            
  Frank Wennmohs         : Technical directorship and infrastructure     
  Hang Xu                : AUTO-CI-Response properties                   
                                                                         
[FACCTs GmbH]                                                            
  Markus Bursch, Miquel Garcia-Rates, Christoph Riplinger, Bernardo de Souza, Georgi L. Stoychev 
                                                                 
  APM, Basis sets (HGBS, AHGBS, def-TZVP (Ac-Lr), def2-XVPD (La-Lu)), CI-OPT, improved COSX, DLPNO-Multilevel,           
  DOCKER, DRACO, updates on ESD, GOAT, IRC, LR-CPCM, MBIS, meta-GGA TD-DFT gradient, ML-optimized integration grids, 
  MM, NACMEs, nearIR, NEB, NEB-TS, NL-DFT gradient (VV10), 2- and 3-layer-ONIOM, interface openCOSMO-RS, QMMM,   
  Crystal-QMMM, SF, symmetry and pop. for TD-DFT, r2SCAN hybrids, SOLVATOR                                   
                                                                         
[Other institutions]                                                     
  V. Asgeirsson          : NEB                                           
  Christoph Bannwarth    : sTDA-DFT, sTD-DFT, PBEh-3c, B97-3c, D3        
  Sebastian Ehlert       : rSCAN, r2SCAN, r2SCAN-3c, D4, dhf basis sets  
  Marvin Friede          : D4 for Fr, Ra, Ac-Lr                          
  Lars Goerigk           : TD-DFT with DH, B97 family of functionals     
  Stefan Grimme          : VdW corrections, initial TS optimization, DFT functionals, gCP, sTDA/sTD-DF 
  Waldemar Hujo          : DFT-NL                                        
  H. Jonsson             : NEB                                           
  Holger Kruse           : gCP                                           
  Marcel Mueller         : wB97X-3c, vDZP basis set                      
  Hagen Neugebauer       : wr2SCAN                                       
  Tobias Risthaus        : range-separated hybrid DFT                    
  Lukas Wittmann         : regularized MP2, r2SCAN double-hybrids, wr2SCAN        
                                                                         
We gratefully acknowledge several colleagues who have allowed us to      
interface, adapt or use parts of their codes:                            
  Ed Valeev, F. Pavosevic, A. Kumar             : LibInt (2-el integral package), F12 methods 
  Garnet Chan, S. Sharma, J. Yang, R. Olivares  : DMRG                   
  Ulf Ekstrom                                   : XCFun DFT Library      
  Mihaly Kallay                                 : mrcc  (arbitrary order and MRCC methods)
  Frank Weinhold                                : gennbo (NPA and NBO analysis)           
  Simon Mueller                                 : openCOSMO-RS                            
  Christopher J. Cramer and Donald G. Truhlar   : smd solvation model                     
  S Lehtola, MJT Oliveira, MAL Marques          : LibXC Library                           
  Liviu Ungur et al                             : ANISO software                          


 Your calculation uses the libint2 library for the computation of 2-el integrals
 For citations please refer to: http://libint.valeyev.net

 Your ORCA version has been built with support for libXC version: 6.2.2
 For citations please refer to: https://libxc.gitlab.io

 This ORCA versions uses:
   CBLAS   interface :  Fast vector & matrix operations
   LAPACKE interface :  Fast linear algebra routines
   SCALAPACK package :  Parallel linear algebra routines
   Shared memory     :  Shared parallel matrices
   BLAS/LAPACK       :  OpenBLAS 0.3.27  USE64BITINT DYNAMIC_ARCH NO_AFFINITY Zen SINGLE_THREADED
        Core in use  :  Zen
   Copyright (c) 2011-2014, The OpenBLAS Project




***************************************
The coordinates will be read from file: xtb_opt.xyz
***************************************


Your calculation utilizes the geometrical counterpoise correction gCP
Please cite in your paper:
H.Kruse, S. Grimme J.Chem.Phys., 136, (2012), 154101 
   

Your calculation utilizes the atom-pairwise dispersion correction
based on EEQ partial charges (D4)


Your calculation utilizes the SMD solvation module
Please cite in your paper:
A.V. Marenich, C.J. Cramer, D.G. Truhlar J. Phys. Chem. B, 113, (2009), 6378 

================================================================================

----- Orbital basis set information -----
Your calculation utilizes the basis: def2-mTZVPP
   Stefan Grimme, Andreas Hansen, Sebastian Ehlert, and Jan-Michael Mewes 
   J. Chem. Phys. 154, 064103 (2021). DOI: 10.1063/5.0040021

----- AuxJ basis set information -----
Your calculation utilizes the auxiliary basis: def2/J
   F. Weigend, Phys. Chem. Chem. Phys. 8, 1057 (2006).

================================================================================
                                        WARNINGS
                       Please study these warnings very carefully!
================================================================================

WARNING: Old DensityContainer found on disk!
         Will remove this file - 
         If you want to keep old densities, please start your calculation with a different basename. 



WARNING: SCAN, rSCAN, or r2SCAN functional requested.
  ===> : libXC variant has now been activated.



================================================================================
                                       INPUT FILE
================================================================================
NAME = xtb_opt.inp
|  1> ! r2scan-3c def2/J RI DEFGRID2 scfconv7 ENGRAD tightSCF miniprint
|  2> %cpcm
|  3>     smd true
|  4>     smdsolvent "water"
|  5> end
|  6> * xyzfile 0 1 xtb_opt.xyz
|  7> 
|  8>                          ****END OF INPUT****
================================================================================

                     *******************************
                     * Energy+Gradient Calculation *
                     *******************************

---------------------------------
CARTESIAN COORDINATES (ANGSTROEM)
---------------------------------
  C      2.364309   -1.286730    0.270210
  C      2.380201    0.028342   -0.500847
  C      1.319577    1.024250    0.003483
  C     -0.060965    0.527849   -0.213373
  C     -1.014750    0.431057    0.729818
  C     -2.353805   -0.066207    0.442128
  O     -2.749136   -0.451764   -0.658587
  H      2.536142   -1.116293    1.338913
  H      1.401195   -1.798626    0.165112
  H      3.143876   -1.964027   -0.092355
  H      2.212908   -0.160321   -1.568152
  H      3.363731    0.502179   -0.411667
  H      1.431788    1.960078   -0.563610
  H      1.482413    1.255779    1.062032
  H     -0.305874    0.215025   -1.229853
  H     -0.814206    0.726714    1.757038
  H     -3.044090   -0.092469    1.307082

----------------------------
CARTESIAN COORDINATES (A.U.)
----------------------------
  NO LB      ZA    FRAG     MASS         X           Y           Z
   0 C     6.0000    0    12.011    4.467897   -2.431568    0.510623
   1 C     6.0000    0    12.011    4.497927    0.053559   -0.946464
   2 C     6.0000    0    12.011    2.493639    1.935552    0.006582
   3 C     6.0000    0    12.011   -0.115208    0.997490   -0.403217
   4 C     6.0000    0    12.011   -1.917600    0.814579    1.379157
   5 C     6.0000    0    12.011   -4.448048   -0.125113    0.835500
   6 O     8.0000    0    15.999   -5.195113   -0.853711   -1.244550
   7 H     1.0000    0     1.008    4.792614   -2.109488    2.530179
   8 H     1.0000    0     1.008    2.647875   -3.398910    0.312017
   9 H     1.0000    0     1.008    5.941065   -3.711472   -0.174526
  10 H     1.0000    0     1.008    4.181789   -0.302963   -2.963378
  11 H     1.0000    0     1.008    6.356530    0.948980   -0.777938
  12 H     1.0000    0     1.008    2.705688    3.704010   -1.065068
  13 H     1.0000    0     1.008    2.801355    2.373079    2.006950
  14 H     1.0000    0     1.008   -0.578019    0.406338   -2.324086
  15 H     1.0000    0     1.008   -1.538627    1.373290    3.320321
  16 H     1.0000    0     1.008   -5.752496   -0.174741    2.470028

------------------------------------------------------------------------------
                   ___                                                        
                  /   \      - P O W E R E D   B Y -                         
                 /     \                                                     
                 |  |  |   _    _      __       _____    __    __             
                 |  |  |  | |  | |    /  \     |  _  \  |  |  /  |          
                  \  \/   | |  | |   /    \    | | | |  |  | /  /          
                 / \  \   | |__| |  /  /\  \   | |_| |  |  |/  /          
                |  |  |   |  __  | /  /__\  \  |    /   |      \           
                |  |  |   | |  | | |   __   |  |    \   |  |\   \          
                \     /   | |  | | |  |  |  |  | |\  \  |  | \   \       
                 \___/    |_|  |_| |__|  |__|  |_| \__\ |__|  \__/        
                                                                              
                      - O R C A' S   B I G   F R I E N D -                    
                                      &                                       
                       - I N T E G R A L  F E E D E R -                       
                                                                              
 v1 FN, 2020, v2 2021, v3 2022-2024                                           
------------------------------------------------------------------------------


----------------------
SHARK INTEGRAL PACKAGE
----------------------

Number of atoms                             ...     17
Number of basis functions                   ...    188
Number of shells                            ...     94
Maximum angular momentum                    ...      2
Integral batch strategy                     ... SHARK/LIBINT Hybrid
RI-J (if used) integral strategy            ... SPLIT-RIJ (Revised 2003 algorithm where possible)
Printlevel                                  ...      1
Contraction scheme used                     ... SEGMENTED contraction
Prescreening option                         ... SCHWARTZ
   Thresh                                   ... 3.000e-11
   Tcut                                     ... 1.000e-12
   Tpresel                                  ... 1.000e-12 
Coulomb Range Separation                    ... NOT USED
Exchange Range Separation                   ... NOT USED
Multipole approximations                    ... NOT USED
Finite Nucleus Model                        ... NOT USED
CABS basis                                  ... NOT available
Auxiliary Coulomb fitting basis             ... AVAILABLE
   # of basis functions in Aux-J            ...    453
   # of shells in Aux-J                     ...    155
   Maximum angular momentum in Aux-J        ...      4
Auxiliary J/K fitting basis                 ... NOT available
Auxiliary Correlation fitting basis         ... NOT available
Auxiliary 'external' fitting basis          ... NOT available

Checking pre-screening integrals            ... done (  0.0 sec) Dimension = 94
Check shell pair data                       ... done (  0.0 sec)
Shell pair information
Shell pair cut-off parameter TPreSel        ...   1.0e-12
Total number of shell pairs                 ...      4465
Shell pairs after pre-screening             ...      4015
Total number of primitive shell pairs       ...     15937
Primitive shell pairs kept                  ...     10407
          la=0 lb=0:   1369 shell pairs
          la=1 lb=0:   1539 shell pairs
          la=1 lb=1:    458 shell pairs
          la=2 lb=0:    392 shell pairs
          la=2 lb=1:    223 shell pairs
          la=2 lb=2:     34 shell pairs

Calculating one electron integrals          ... done (  0.0 sec)
Calculating RI/J V-Matrix + Cholesky decomp.... done (  0.0 sec)
Calculating Nuclear repulsion               ... done (  0.0 sec) ENN=    280.688790767053 Eh

Diagonalization of the overlap matrix:
Smallest eigenvalue                        ... 1.883e-04
Time for diagonalization                   ...    0.003 sec
Threshold for overlap eigenvalues          ... 1.000e-07
Number of eigenvalues below threshold      ... 0
Time for construction of square roots      ...    0.009 sec
Total time needed                          ...    0.014 sec

-------------------
DFT GRID GENERATION
-------------------

General Integration Accuracy     IntAcc      ... 4.388
Radial Grid Type                 RadialGrid  ... OptM3 with GC (2021)
Angular Grid (max. ang.)         AngularGrid ... 4 (Lebedev-302)
Angular grid pruning method      GridPruning ... 4 (adaptive)
Weight generation scheme         WeightScheme... mBecke (2022)
Basis function cutoff            BFCut       ... 1.0000e-11
Integration weight cutoff        WCut        ... 1.0000e-14
Partially contracted basis set               ... off
Rotationally invariant grid construction     ... off
Angular grids for H and He will be reduced by one unit
Diffuse basis detected: some atoms will have their outermost
                        angular grid increased by 1.

Total number of grid points                  ...    74697
Total number of batches                      ...     1175
Average number of points per batch           ...       63
Average number of grid points per atom       ...     4394
Initializing property integral containers    ... done (  0.0 sec)

SHARK setup successfully completed in   0.7 seconds

Maximum memory used throughout the entire STARTUP-calculation: 33.9 MB
Occupation numbers will be reassigned to an Aufbau configuration
             **** ENERGY FILE WAS UPDATED (xtb_opt.en.tmp) ****
Finished Guess after   0.1 sec
Maximum memory used throughout the entire GUESS-calculation: 13.2 MB
--------------------
CPCM SOLVATION MODEL
--------------------
CPCM parameters:
  Epsilon                                         ...      78.3550
  Refrac                                          ...       1.3328
  Rsolv                                           ...       1.3000
  Surface type                                    ... GAUSSIAN VDW
  Discretization scheme                           ... Constant charge density
    Threshold for H atoms                         ...       5.0000 (charges/Ang^2)
    Threshold for non-H atoms                     ...       5.0000 (charges/Ang^2)
  Epsilon function type                           ...         CPCM
Solvent:                                          ... WATER
SMD-CDS solvent descriptors:
  Soln                                            ...       1.3328
  Soln25                                          ...       1.3323
  Sola                                            ...       0.0000
  Solb                                            ...       0.0000
  Solg                                            ...       0.0000
  Solc                                            ...       0.0000
  Solh                                            ...       0.0000
Radii:
  Scheme                                          ... Element-dependent radii
  Radius for C  used is    3.4960 Bohr (=   1.8500 Ang.)
  Radius for O  used is    2.8724 Bohr (=   1.5200 Ang.)
  Radius for H  used is    2.2677 Bohr (=   1.2000 Ang.)
Calculating surface                               ...        done! (  0.0s)
Cavity surface points                             ...         1328
Cavity Volume                                     ...     791.4207
Cavity Surface-area                               ...     528.3381
Calculating surface distance matrix               ...        done! (  0.0s)
Performing Cholesky decomposition & store         ...        done! (  0.1s)
Overall time for CPCM initialization              ...                 0.1s

----------------------------------------D-I-I-S--------------------------------------------
Iteration    Energy (Eh)           Delta-E    RMSDP     MaxDP     DIISErr   Damp  Time(sec)
-------------------------------------------------------------------------------------------
               ***  Starting incremental Fock matrix formation  ***
                              *** Initializing SOSCF ***
---------------------------------------S-O-S-C-F--------------------------------------
Iteration    Energy (Eh)           Delta-E    RMSDP     MaxDP     MaxGrad    Time(sec)
--------------------------------------------------------------------------------------
    1    -309.7857886889560746     0.00e+00  7.82e-05  1.10e-03  3.51e-04     1.8
               *** Restarting incremental Fock matrix formation ***
    2    -309.7858572471570255    -6.86e-05  4.20e-05  5.31e-04  3.50e-04     2.7
    3    -309.7858632688179910    -6.02e-06  1.72e-05  9.38e-04  9.03e-05     2.1
    4    -309.7858628812893471     3.88e-07  1.12e-05  6.21e-04  2.16e-04     1.6
    5    -309.7858633906884620    -5.09e-07  1.85e-06  3.83e-05  1.49e-05     1.5
                  *** Gradient check signals convergence ***

               *****************************************************
               *                     SUCCESS                       *
               *           SCF CONVERGED AFTER   5 CYCLES          *
               *****************************************************


SMD CDS free energy correction energy :                 4.61425     Kcal/mol
Total Energy after SMD CDS correction =              -309.778510116 Eh
             **** ENERGY FILE WAS UPDATED (xtb_opt.en.tmp) ****

----------------
TOTAL SCF ENERGY
----------------

Total Energy       :       -309.77851011598682 Eh           -8429.50181 eV

Components:
Nuclear Repulsion  :        280.68879076705292 Eh            7637.93030 eV
Electronic Energy  :       -590.45676965443192 Eh          -16067.14554 eV
One Electron Energy:       -974.22960490337152 Eh          -26510.13530 eV
Two Electron Energy:        383.77283524893960 Eh           10442.98976 eV
CPCM Dielectric    :         -0.01788450330950 Eh              -0.48666 eV
SMD CDS (Gcds)     :          0.00735327470165 Eh               0.20009 eV

Virial components:
Potential Energy   :       -618.10423772978777 Eh          -16819.47139 eV
Kinetic Energy     :        308.32572761380095 Eh            8389.96959 eV
Virial Ratio       :          2.00471184326209

DFT components:
N(Alpha)           :       27.000003767549 electrons
N(Beta)            :       27.000003767549 electrons
N(Total)           :       54.000007535098 electrons
E(X)               :      -43.010268060873 Eh       
E(C)               :       -1.698336355969 Eh       
E(XC)              :      -44.708604416842 Eh       

CPCM Solvation Model Properties:
Surface-charge          :         -0.04610166378934
Corrected charge        :         -0.00000000000000
Outlying charge corr.   :          0.00016783532572 Eh               0.00457 eV
Free-energy (cav+disp)  :          0.00735327470165 Eh               0.20009 eV

---------------
SCF CONVERGENCE
---------------

  Last Energy change         ...    5.0940e-07  Tolerance :   1.0000e-07
  Last MAX-Density change    ...    3.8317e-05  Tolerance :   1.0000e-07
  Last RMS-Density change    ...    1.8520e-06  Tolerance :   5.0000e-09
  Last DIIS Error            ...    2.7279e-03  Tolerance :   1.0000e-07
  Last Orbital Gradient      ...    1.4899e-05  Tolerance :   1.0000e-04
  Last Orbital Rotation      ...    3.4447e-05  Tolerance :   1.0000e-04


----------------
ORBITAL ENERGIES
----------------

  NO   OCC          E(Eh)            E(eV) 
   0   2.0000     -18.948780      -515.6225 
   1   2.0000     -10.119586      -275.3679 
   2   2.0000     -10.061039      -273.7748 
   3   2.0000     -10.035997      -273.0934 
   4   2.0000     -10.034064      -273.0408 
   5   2.0000     -10.028248      -272.8825 
   6   2.0000     -10.013176      -272.4724 
   7   2.0000      -1.005412       -27.3587 
   8   2.0000      -0.786752       -21.4086 
   9   2.0000      -0.733133       -19.9496 
  10   2.0000      -0.666103       -18.1256 
  11   2.0000      -0.600991       -16.3538 
  12   2.0000      -0.544739       -14.8231 
  13   2.0000      -0.507553       -13.8112 
  14   2.0000      -0.456374       -12.4186 
  15   2.0000      -0.432653       -11.7731 
  16   2.0000      -0.414741       -11.2857 
  17   2.0000      -0.406468       -11.0605 
  18   2.0000      -0.372612       -10.1393 
  19   2.0000      -0.368528       -10.0281 
  20   2.0000      -0.364163        -9.9094 
  21   2.0000      -0.330260        -8.9868 
  22   2.0000      -0.317183        -8.6310 
  23   2.0000      -0.304381        -8.2826 
  24   2.0000      -0.296287        -8.0624 
  25   2.0000      -0.249807        -6.7976 
  26   2.0000      -0.230825        -6.2811 
  27   0.0000      -0.098975        -2.6932 
  28   0.0000       0.035254         0.9593 
  29   0.0000       0.090799         2.4708 
  30   0.0000       0.108654         2.9566 
  31   0.0000       0.120921         3.2904 
  32   0.0000       0.129752         3.5307 
  33   0.0000       0.138649         3.7728 
  34   0.0000       0.148925         4.0525 
  35   0.0000       0.156295         4.2530 
  36   0.0000       0.168490         4.5848 
  37   0.0000       0.171772         4.6742 
*Only the first 10 virtual orbitals were printed.
Total SCF time: 0 days 0 hours 0 min 10 sec 
Finished LeanSCF after  13.1 sec

Maximum memory used throughout the entire LEANSCF-calculation: 24.9 MB


-------------------------------------------------------------------------------
                          DFT DISPERSION CORRECTION                            
                                                                               
                                DFTD4 V3.4.0                                   
-------------------------------------------------------------------------------
-------------------------   ----------------
Dispersion correction           -0.004281058
-------------------------   ----------------

------------------   -----------------
gCP correction             0.006721685
------------------   -----------------

-------------------------   --------------------
FINAL SINGLE POINT ENERGY      -309.776069489678
-------------------------   --------------------

------------------------------------------------------------------------------
                         ORCA SCF GRADIENT CALCULATION
------------------------------------------------------------------------------

Nuc. rep. gradient        (SHARK) ... done (  0.0 sec)
HCore & Overlap gradient  (SHARK) ... done (  0.2 sec)
Split-RIJ-J gradient      (SHARK) ... done (  1.0 sec)
XC gradient                       ... done (  4.3 sec)
CPCM gradient                     ... done (  1.1 sec)
SMD gradient                      ... done (  0.0 sec)
Dispersion correction             ... done (  0.0 sec)

-------------------
DISPERSION GRADIENT
-------------------

   1   C   :    0.000067703   -0.000058352    0.000009242
   2   C   :    0.000064863    0.000000239   -0.000023606
   3   C   :    0.000041505    0.000046307   -0.000003524
   4   C   :   -0.000023324    0.000030867   -0.000014332
   5   C   :   -0.000079151    0.000023546    0.000031822
   6   C   :   -0.000091236   -0.000005688    0.000016651
   7   O   :   -0.000074203   -0.000018217   -0.000021609
   8   H   :    0.000032110   -0.000024538    0.000013088
   9   H   :    0.000031380   -0.000034146    0.000000767
  10   H   :    0.000023767   -0.000026289    0.000000844
  11   H   :    0.000024578   -0.000002904   -0.000017188
  12   H   :    0.000026820    0.000002292   -0.000005471
  13   H   :    0.000014278    0.000029930   -0.000010971
  14   H   :    0.000014845    0.000021239    0.000008025
  15   H   :   -0.000019473    0.000007668   -0.000018543
  16   H   :   -0.000026892    0.000012966    0.000027027
  17   H   :   -0.000027569   -0.000004920    0.000007778

Difference to translation invariance:
           :   -0.0000000000    0.0000000000    0.0000000000

Difference to rotation invariance:
           :   -0.0000000000    0.0000000000    0.0000000000

Norm of the Dispersion gradient    ...    0.0002308021
RMS gradient                       ...    0.0000323188
MAX gradient                       ...    0.0000912358
gCP correction                   ... done

------------------
CARTESIAN GRADIENT
------------------

   1   C   :   -0.000003585    0.000144545   -0.000043195
   2   C   :   -0.000024240   -0.000174773    0.000046594
   3   C   :   -0.000039531    0.000080539    0.000049938
   4   C   :   -0.000041498   -0.000142894    0.000080021
   5   C   :    0.000062172   -0.000079079   -0.000000533
   6   C   :   -0.000313334    0.000466988   -0.000292122
   7   O   :    0.000163262   -0.000146962    0.000241287
   8   H   :    0.000078976   -0.000047882   -0.000081355
   9   H   :    0.000002183    0.000026138    0.000031390
  10   H   :   -0.000035784    0.000003542   -0.000071096
  11   H   :   -0.000013373    0.000008016    0.000040055
  12   H   :   -0.000027900    0.000002086    0.000011614
  13   H   :    0.000034536   -0.000001145    0.000033652
  14   H   :    0.000027484   -0.000008257   -0.000038627
  15   H   :    0.000071948   -0.000040667    0.000035429
  16   H   :   -0.000025527    0.000080072    0.000003677
  17   H   :    0.000084212   -0.000170268   -0.000046729

Difference to translation invariance:
           :   -0.0000000000   -0.0000000000   -0.0000000000

Difference to rotation invariance:
           :   -0.0000444431   -0.0000155994   -0.0002729141

Norm of the Cartesian gradient     ...    0.0008350751
RMS gradient                       ...    0.0001169339
MAX gradient                       ...    0.0004669879

-------
TIMINGS
-------

Total SCF gradient time     ....        6.700 sec

Densities                   ....       0.001 sec  (  0.0%)
One electron gradient       ....       0.181 sec  (  2.7%)
RI-J Coulomb gradient       ....       1.021 sec  ( 15.2%)
XC gradient                 ....       4.349 sec  ( 64.9%)
CPCM gradient               ....       1.085 sec  ( 16.2%)
   A-Matrix (El+Nuc)        ....       0.071 sec  (  1.1%)
   Potential                ....       1.014 sec  ( 15.1%)
SMD gradient                ....       0.005 sec  (  0.1%)

Maximum memory used throughout the entire SCFGRAD-calculation: 33.3 MB

------------------------------------------------------------------------------
                              ORCA PROPERTY CALCULATIONS
------------------------------------------------------------------------------

GBWName                                 ... xtb_opt.gbw
Number of atoms                         ...     17
Number of basis functions               ...    188
Max core memory                         ...   1024 MB

Electric properties:
Dipole moment                           ... YES
Quadrupole moment                       ...  NO
Static polarizability (Dipole/Dipole)   ...  NO
Static polarizability (Dipole/Quad.)    ...  NO
Static polarizability (Quad./Quad.)     ...  NO
Static polarizability (Velocity)        ...  NO

Atomic electric properties:
Dipole moment                           ...  NO
Quadrupole moment                       ...  NO
Static polarizability                   ...  NO

Choice of electric origin               ... Center of mass
Position of electric origin             ...    -0.016183     0.003975     0.000520

General magnetic properties:
Magnetizability                         ...  NO

EPR properties:
g-Tensor (aka g-matrix)                 ...  NO
Zero-Field splitting spin-orbit         ...  NO
Zero-field splitting spin-spin          ...  NO
Hyperfine couplings                     ...  NO (   0 nuclei)
Quadrupole couplings                    ...  NO (   0 nuclei)
Contact density                         ...  NO (   0 nuclei)

NMR properties:
Chemical shifts                         ...  NO (   0 nuclei)
Spin-rotation constants                 ...  NO (   0 nuclei)
Spin-spin couplings                     ...  NO (   0 nuclei,    0 pairs)

Choice of magnetic origin               ... GIAO
Position of magnetic origin             ...     0.000000     0.000000     0.000000

Properties with geometric perturbations:
SCF Hessian                             ...  NO
IR spectrum                             ...  NO
VCD spectrum                            ...  NO
X-ray spectroscopy properties:
SCF XES/XAS/RIXS spectra                ...  NO


-------------
DIPOLE MOMENT
-------------

Method             : SCF
Type of density    : Electron Density
Multiplicity       :   1
Irrep              :   0
Energy             :  -309.7785101159868191 Eh
Relativity type    : 
Basis              : AO
                                X                 Y                 Z
Electronic contribution:     -9.126264690       1.177461423      -0.693177591
Nuclear contribution   :     10.742420431      -0.469231611       1.643126239
                        -----------------------------------------
Total Dipole Moment    :      1.616155741       0.708229811       0.949948648
                        -----------------------------------------
Magnitude (a.u.)       :      2.003983852
Magnitude (Debye)      :      5.093722147



--------------------
Rotational spectrum 
--------------------
 
Rotational constants in cm-1:             0.191027             0.038519             0.036530 
Rotational constants in MHz :          5726.843905          1154.784890          1095.149607 

Dipole components along the rotational axes: 
x,y,z [a.u.] :     1.584377     0.828629    -0.905027 
x,y,z [Debye]:     4.027166     2.106208    -2.300397 

 

Dipole moment calculation done in   0.2 sec 

Maximum memory used throughout the entire PROP-calculation: 11.7 MB

--------------------------------
SUGGESTED CITATIONS FOR THIS RUN
--------------------------------

Below you find a list of papers that are relevant to this ORCA run
We neither can nor want to force you to cite these papers, but we appreciate if you do
You receive ORCA, which is the product of decades of hard work by many enthusiastic individuals, for free
The only thing we kindly ask in return is that you cite our papers,
We deeply appreciate it, if you show your appreciation for ORCA by not just citing the generic ORCA reference.

Please note that relegating all ORCA citations to the supporting information does *not* help us.
SI sections are not indexed - citations you put there will not count into any citation statistics
But we need these citations in order to attract the funding resources that allow us to do what we are doing

Therefore, if you are a happy ORCA user, please consider citing a few of the papers listed below in the main body of your paper

In addition to the list printed below, the program has created the file xtb_opt.bibtex that contains the list in bibtex format
You can import this file easily into all common literature databanks and citation aid programs


List of essential papers. We consider these as the minimum necessary citations

  1. Neese,F.
     Software update: the ORCA program system, version 5.0
     WIRES Comput. Molec. Sci., 2022 12(1)e1606
     doi.org/10.1002/wcms.1606
  2. Grimme,S.; Hansen,A.; Ehlert,S.; Mewes,J.
     r2SCAN-3c: A 'Swiss army knife' composite electronic-structure method
     J. Chem. Phys., 2021 154 064103
     doi.org/10.1063/5.0040021

List of papers to cite with high priority. The work reported in these papers was absolutely
necessary for this run to complete.
Our perspective: the developers of density functionals and basis sets usually get cited in chemistry papers
Good! But without the algorithms to do something with them, the functionals or basis sets would not do anything.
Hence, in our opinion, the algorithm design and method developments papers are equally worthy of getting cited

  1. Neese,F.
     An improvement of the resolution of the identity approximation for the formation of the Coulomb matrix
     J. Comp. Chem., 2003 24(14)1740-1747
     doi.org/10.1002/jcc.10318
  2. Garcia-Rates,M.; Neese,F.
     Effect of the Solute Cavity on the Solvation Energy and its Derivatives within the Framework of the Gaussian Charge Scheme
     J. Comput. Chem., 2020 41 922-939
     doi.org/10.1002/jcc.26139
  3. Neese,F.
     The SHARK Integral Generation and Digestion System
     J. Comp. Chem., 2022  1-16
     doi.org/10.1002/jcc.26942
  4. Lehtola,S.; Steigemann,C.; Oliveira,M.; Marques,M.
     Recent developments in Libxc - A comprehensive library of functionals for density functional theory
     Software X, 2018 7 
     doi.org/10.1016/j.softx.2017.11.002
  5. Caldeweyher,E.; Bannwarth,C.; Grimme,S.
     Extension of the D3 dispersion coefficient model
     J. Chem. Phys., 2017 147 034112
     doi.org/10.1063/1.4993215
  6. Caldeweyher,E.; Ehlert,S.; Hansen,A.; Neugebauer,H.; Spicher,S.; Bannwarth,C.; Grimme,S.
     A generally applicable atomic-charge dependent London dispersion correction
     J. Chem. Phys., 2019 150 154122
     doi.org/10.1063/1.5090222
  7. Caldeweyher,E.; Mewes,J.; Ehlert,S.; Grimme,S.
     Extension and evaluation of the D4 London-dispersion model for periodic systems
     Phys. Chem. Chem. Phys., 2020 22(16)8499-8512
     doi.org/10.1039/D0CP00502A
  8. Wittmann,L.; Gordiy,I.; Friede,M.; Helmich-Paris,B.; Grimme,S.; Hansen,A.; Bursch,M.
     Extension of the D3 and D4 London Dispersion Corrections to the full Actinides Series
     Phys. Chem. Chem. Phys., 2024 26(32)21379-21394
     doi.org/https://doi.org/10.1039/D4CP01514B 

List of suggested additional citations. These are papers that are important in the 'surrounding' of 
of this run, or papers that preceded the highly important papers. If you like your results we are grateful for a citation.

  1. Neese,F.
     The ORCA program system
     WIRES Comput. Molec. Sci., 2012 2(1)73-78
     doi.org/10.1002/wcms.81
  2. Neese,F.
     Software update: the ORCA program system, version 4.0
     WIRES Comput. Molec. Sci., 2018 8(1)1-6
     doi.org/10.1002/wcms.1327
  3. Neese,F.; Wennmohs,F.; Becker,U.; Riplinger,C.
     The ORCA quantum chemistry program package
     J. Chem. Phys., 2020 152 Art. No. L224108
     doi.org/10.1063/5.0004608

List of optional additional citations

  1. Neese,F.
     Approximate second-order SCF convergence for spin unrestricted wavefunctions
     Chem. Phys. Lett., 2000 325(1-3)93-98
     doi.org/10.1016/s0009-2614(00)00662-x

Timings for individual modules:

Sum of individual times          ...       38.833 sec (=   0.647 min)
Startup calculation              ...        0.772 sec (=   0.013 min)   2.0 %
SCF iterations                   ...       13.264 sec (=   0.221 min)  34.2 %
Property calculations            ...        0.315 sec (=   0.005 min)   0.8 %
SCF Gradient evaluation          ...       24.482 sec (=   0.408 min)  63.0 %
                             ****ORCA TERMINATED NORMALLY****
TOTAL RUN TIME: 0 days 0 hours 0 minutes 40 seconds 480 msec
  ------------------------------------------------------------------------
          * successful ORCA run, taking over control again...
av. E:   -309.7760695 ->   -309.7760695
av. G:      0.0015298 ->      0.0015298
 * total energy  :  -309.7760695 Eh     change       -0.1303418E-04 Eh
   gradient norm :     0.0008349 Eh/a0  converged?    E=F G=T D=F
   step length   :     0.0514803 a0

........................................................................
.............................. CYCLE    6 ..............................
........................................................................
                         * ORCA takes the control...
  ------------------------------------------------------------------------

                                 *****************
                                 * O   R   C   A *
                                 *****************

                                            #,                                       
                                            ###                                      
                                            ####                                     
                                            #####                                    
                                            ######                                   
                                           ########,                                 
                                     ,,################,,,,,                         
                               ,,#################################,,                 
                          ,,##########################################,,             
                       ,#########################################, ''#####,          
                    ,#############################################,,   '####,        
                  ,##################################################,,,,####,       
                ,###########''''           ''''###############################       
              ,#####''   ,,,,##########,,,,          '''####'''          '####       
            ,##' ,,,,###########################,,,                        '##       
           ' ,,###''''                  '''############,,,                           
         ,,##''                                '''############,,,,        ,,,,,,###''
      ,#''                                            '''#######################'''  
     '                                                          ''''####''''         
             ,#######,   #######,   ,#######,      ##                                
            ,#'     '#,  ##    ##  ,#'     '#,    #''#        ,####,   ,####,        
            ##       ##  ##   ,#'  ##            #'  '#       #'       #'  '#        
            ##       ##  #######   ##           ,######,      #####,   #    #        
            '#,     ,#'  ##    ##  '#,     ,#' ,#      #,     #,   #   #,  ,#        
             '#######'   ##     ##  '#######'  #'      '#     '####' # '####'        



                #########################################################
                #                        -***-                          #
                #          Department of theory and spectroscopy        #
                #                                                       #
                #                      Frank Neese                      #
                #                                                       #
                #     Directorship, Architecture, Infrastructure        #
                #                    SHARK, DRIVERS                     #
                #        Core code/Algorithms in most modules           #
                #                                                       #
                #        Max Planck Institute fuer Kohlenforschung      #
                #                Kaiser Wilhelm Platz 1                 #
                #                 D-45470 Muelheim/Ruhr                 #
                #                      Germany                          #
                #                                                       #
                #                  All rights reserved                  #
                #                        -***-                          #
                #########################################################


                         Program Version 6.0.1  -  RELEASE   -


 With contributions from (in alphabetic order):
[Max-Planck-Institut fuer Kohlenforschung]                               
  Daniel Aravena         : Magnetic Suceptibility                        
  Michael Atanasov       : Ab Initio Ligand Field Theory (pilot matlab implementation)
  Alexander A. Auer      : GIAO ZORA, VPT2 properties, NMR spectrum      
  Ute Becker             : All parallelization in ORCA, NUMFREQ, NUMCALC 
  Giovanni Bistoni       : ED, misc. LED, open-shell LED, HFLD           
  Martin Brehm           : Molecular dynamics                            
  Dmytro Bykov           : pre 5.0 version of the SCF Hessian            
  Marcos Casanova-Páez   : Triplet and SCS-CIS(D). UHF-(DLPNO)-IP/EA/STEOM-CCSD. UHF-CVS-IP/STEOM-CCSD   
  Vijay G. Chilkuri      : MRCI spin determinant printing, contributions to CSF-ICE 
  Pauline Colinet        : FMM embedding                                 
  Dipayan Datta          : RHF DLPNO-CCSD density                        
  Achintya Kumar Dutta   : EOM-CC, STEOM-CC                              
  Nicolas Foglia         : Exact transition moments, OPA infrastructure, MCD improvements    
  Dmitry Ganyushin       : Spin-Orbit,Spin-Spin,Magnetic field MRCI      
  Miquel Garcia-Rates    : C-PCM and meta-GGA Hessian, CCSD/C-PCM, Gaussian charge scheme 
  Tiago L. C. Gouveia    : GS-ROHF, GS-ROCIS                             
  Yang Guo               : DLPNO-NEVPT2, F12-NEVPT2, CIM, IAO-localization        
  Andreas Hansen         : Spin unrestricted coupled pair/coupled cluster methods 
  Ingolf Harden          : AUTO-CI MPn and infrastructure                
  Benjamin Helmich-Paris : MC-RPA, TRAH-(SCF,CASSCF), AVAS, COSX integrals, SCF dyn. polar. 
  Lee Huntington         : MR-EOM, pCC                                   
  Robert Izsak           : Overlap fitted RIJCOSX, COSX-SCS-MP3, EOM     
  Riya Kayal             : Wick's Theorem for AUTO-CI, AUTO-CI UHF-CCSDT 
  Emily Kempfer          : AUTO-CI, RHF CISDT and CCSDT                  
  Christian Kollmar      : KDIIS, OOCD, Brueckner-CCSD(T), CCSD density, CASPT2, CASPT2-K, improved NEVPT2 
  Axel Koslowski         : Symmetry handling                             
  Simone Kossmann        : meta-GGA functionals, TD-DFT gradient, OOMP2, (MP2 Hessian; deprecated post 5.0) 
  Lucas Lang             : DCDCAS                                        
  Marvin Lechner         : AUTO-CI (C++ implementation), FIC-MRCC        
  Spencer Leger          : CASSCF response                               
  Dagmar Lenk            : GEPOL surface, SMD, ORCA-2-JSON               
  Dimitrios Liakos       : Extrapolation schemes; Compound Job, initial MDCI parallelization 
  Dimitrios Manganas     : Further ROCIS development; embedding schemes. LFT, Crystal Embedding 
  Dimitrios Pantazis     : SARC Basis sets                               
  Anastasios Papadopoulos: AUTO-CI, single reference methods and gradients 
  Taras Petrenko         : pre 6.0 DFT Hessian and TD-DFT gradient, (ASA, deprecated), ECA, 1-Electron XAS/XES, NRVS 
  Peter Pinski           : DLPNO-MP2, DLPNO-MP2 Gradient                 
  Christoph Reimann      : Effective Core Potentials                     
  Marius Retegan         : Local ZFS, SOC                                
  Christoph Riplinger    : Optimizer, TS searches, QM/MM, DLPNO-CCSD(T), (RO)-DLPNO pert. Triples 
  Michael Roemelt        : Original ROCIS implementation                 
  Masaaki Saitow         : Open-shell DLPNO-CCSD energy and density      
  Barbara Sandhoefer     : DKH picture change effects                    
  Kantharuban Sivalingam : CASSCF convergence/infrastructure, NEVPT2 and variants, FIC-MRCI 
  Bernardo de Souza      : ESD, SOC TD-DFT                               
  Georgi L. Stoychev     : AutoAux, RI-MP2 NMR, DLPNO-MP2 response, X2C  
  Van Anh Tran           : RI-MP2 g-tensors                              
  Willem Van den Heuvel  : Paramagnetic NMR                              
  Zikuan Wang            : NOTCH, Electric field optimization            
  Frank Wennmohs         : Technical directorship and infrastructure     
  Hang Xu                : AUTO-CI-Response properties                   
                                                                         
[FACCTs GmbH]                                                            
  Markus Bursch, Miquel Garcia-Rates, Christoph Riplinger, Bernardo de Souza, Georgi L. Stoychev 
                                                                 
  APM, Basis sets (HGBS, AHGBS, def-TZVP (Ac-Lr), def2-XVPD (La-Lu)), CI-OPT, improved COSX, DLPNO-Multilevel,           
  DOCKER, DRACO, updates on ESD, GOAT, IRC, LR-CPCM, MBIS, meta-GGA TD-DFT gradient, ML-optimized integration grids, 
  MM, NACMEs, nearIR, NEB, NEB-TS, NL-DFT gradient (VV10), 2- and 3-layer-ONIOM, interface openCOSMO-RS, QMMM,   
  Crystal-QMMM, SF, symmetry and pop. for TD-DFT, r2SCAN hybrids, SOLVATOR                                   
                                                                         
[Other institutions]                                                     
  V. Asgeirsson          : NEB                                           
  Christoph Bannwarth    : sTDA-DFT, sTD-DFT, PBEh-3c, B97-3c, D3        
  Sebastian Ehlert       : rSCAN, r2SCAN, r2SCAN-3c, D4, dhf basis sets  
  Marvin Friede          : D4 for Fr, Ra, Ac-Lr                          
  Lars Goerigk           : TD-DFT with DH, B97 family of functionals     
  Stefan Grimme          : VdW corrections, initial TS optimization, DFT functionals, gCP, sTDA/sTD-DF 
  Waldemar Hujo          : DFT-NL                                        
  H. Jonsson             : NEB                                           
  Holger Kruse           : gCP                                           
  Marcel Mueller         : wB97X-3c, vDZP basis set                      
  Hagen Neugebauer       : wr2SCAN                                       
  Tobias Risthaus        : range-separated hybrid DFT                    
  Lukas Wittmann         : regularized MP2, r2SCAN double-hybrids, wr2SCAN        
                                                                         
We gratefully acknowledge several colleagues who have allowed us to      
interface, adapt or use parts of their codes:                            
  Ed Valeev, F. Pavosevic, A. Kumar             : LibInt (2-el integral package), F12 methods 
  Garnet Chan, S. Sharma, J. Yang, R. Olivares  : DMRG                   
  Ulf Ekstrom                                   : XCFun DFT Library      
  Mihaly Kallay                                 : mrcc  (arbitrary order and MRCC methods)
  Frank Weinhold                                : gennbo (NPA and NBO analysis)           
  Simon Mueller                                 : openCOSMO-RS                            
  Christopher J. Cramer and Donald G. Truhlar   : smd solvation model                     
  S Lehtola, MJT Oliveira, MAL Marques          : LibXC Library                           
  Liviu Ungur et al                             : ANISO software                          


 Your calculation uses the libint2 library for the computation of 2-el integrals
 For citations please refer to: http://libint.valeyev.net

 Your ORCA version has been built with support for libXC version: 6.2.2
 For citations please refer to: https://libxc.gitlab.io

 This ORCA versions uses:
   CBLAS   interface :  Fast vector & matrix operations
   LAPACKE interface :  Fast linear algebra routines
   SCALAPACK package :  Parallel linear algebra routines
   Shared memory     :  Shared parallel matrices
   BLAS/LAPACK       :  OpenBLAS 0.3.27  USE64BITINT DYNAMIC_ARCH NO_AFFINITY Zen SINGLE_THREADED
        Core in use  :  Zen
   Copyright (c) 2011-2014, The OpenBLAS Project




***************************************
The coordinates will be read from file: xtb_opt.xyz
***************************************


Your calculation utilizes the geometrical counterpoise correction gCP
Please cite in your paper:
H.Kruse, S. Grimme J.Chem.Phys., 136, (2012), 154101 
   

Your calculation utilizes the atom-pairwise dispersion correction
based on EEQ partial charges (D4)


Your calculation utilizes the SMD solvation module
Please cite in your paper:
A.V. Marenich, C.J. Cramer, D.G. Truhlar J. Phys. Chem. B, 113, (2009), 6378 

================================================================================

----- Orbital basis set information -----
Your calculation utilizes the basis: def2-mTZVPP
   Stefan Grimme, Andreas Hansen, Sebastian Ehlert, and Jan-Michael Mewes 
   J. Chem. Phys. 154, 064103 (2021). DOI: 10.1063/5.0040021

----- AuxJ basis set information -----
Your calculation utilizes the auxiliary basis: def2/J
   F. Weigend, Phys. Chem. Chem. Phys. 8, 1057 (2006).

================================================================================
                                        WARNINGS
                       Please study these warnings very carefully!
================================================================================

WARNING: Old DensityContainer found on disk!
         Will remove this file - 
         If you want to keep old densities, please start your calculation with a different basename. 



WARNING: SCAN, rSCAN, or r2SCAN functional requested.
  ===> : libXC variant has now been activated.



================================================================================
                                       INPUT FILE
================================================================================
NAME = xtb_opt.inp
|  1> ! r2scan-3c def2/J RI DEFGRID2 scfconv7 ENGRAD tightSCF miniprint
|  2> %cpcm
|  3>     smd true
|  4>     smdsolvent "water"
|  5> end
|  6> * xyzfile 0 1 xtb_opt.xyz
|  7> 
|  8>                          ****END OF INPUT****
================================================================================

                     *******************************
                     * Energy+Gradient Calculation *
                     *******************************

---------------------------------
CARTESIAN COORDINATES (ANGSTROEM)
---------------------------------
  C      2.364741   -1.286837    0.272660
  C      2.380744    0.027503   -0.499612
  C      1.317841    1.024233   -0.000571
  C     -0.062927    0.528970   -0.217820
  C     -1.012435    0.424770    0.729048
  C     -2.354597   -0.065315    0.444727
  O     -2.757888   -0.440096   -0.657003
  H      2.527168   -1.114900    1.342653
  H      1.405568   -1.804315    0.159812
  H      3.151309   -1.959857   -0.083121
  H      2.218176   -0.162543   -1.567325
  H      3.363091    0.503063   -0.406777
  H      1.431570    1.957642   -0.571085
  H      1.478974    1.258789    1.057455
  H     -0.311412    0.225050   -1.236102
  H     -0.805592    0.711497    1.757566
  H     -3.041018   -0.092818    1.312866

----------------------------
CARTESIAN COORDINATES (A.U.)
----------------------------
  NO LB      ZA    FRAG     MASS         X           Y           Z
   0 C     6.0000    0    12.011    4.468713   -2.431770    0.515253
   1 C     6.0000    0    12.011    4.498955    0.051973   -0.944129
   2 C     6.0000    0    12.011    2.490358    1.935520   -0.001079
   3 C     6.0000    0    12.011   -0.118914    0.999609   -0.411621
   4 C     6.0000    0    12.011   -1.913226    0.802699    1.377701
   5 C     6.0000    0    12.011   -4.449544   -0.123427    0.840412
   6 O     8.0000    0    15.999   -5.211653   -0.831661   -1.241556
   7 H     1.0000    0     1.008    4.775656   -2.106856    2.537246
   8 H     1.0000    0     1.008    2.656139   -3.409661    0.302001
   9 H     1.0000    0     1.008    5.955112   -3.703592   -0.157076
  10 H     1.0000    0     1.008    4.191745   -0.307162   -2.961816
  11 H     1.0000    0     1.008    6.355320    0.950651   -0.768696
  12 H     1.0000    0     1.008    2.705276    3.699408   -1.079193
  13 H     1.0000    0     1.008    2.794856    2.378767    1.998301
  14 H     1.0000    0     1.008   -0.588484    0.425283   -2.335894
  15 H     1.0000    0     1.008   -1.522348    1.344534    3.321319
  16 H     1.0000    0     1.008   -5.746692   -0.175401    2.480958

------------------------------------------------------------------------------
                   ___                                                        
                  /   \      - P O W E R E D   B Y -                         
                 /     \                                                     
                 |  |  |   _    _      __       _____    __    __             
                 |  |  |  | |  | |    /  \     |  _  \  |  |  /  |          
                  \  \/   | |  | |   /    \    | | | |  |  | /  /          
                 / \  \   | |__| |  /  /\  \   | |_| |  |  |/  /          
                |  |  |   |  __  | /  /__\  \  |    /   |      \           
                |  |  |   | |  | | |   __   |  |    \   |  |\   \          
                \     /   | |  | | |  |  |  |  | |\  \  |  | \   \       
                 \___/    |_|  |_| |__|  |__|  |_| \__\ |__|  \__/        
                                                                              
                      - O R C A' S   B I G   F R I E N D -                    
                                      &                                       
                       - I N T E G R A L  F E E D E R -                       
                                                                              
 v1 FN, 2020, v2 2021, v3 2022-2024                                           
------------------------------------------------------------------------------


----------------------
SHARK INTEGRAL PACKAGE
----------------------

Number of atoms                             ...     17
Number of basis functions                   ...    188
Number of shells                            ...     94
Maximum angular momentum                    ...      2
Integral batch strategy                     ... SHARK/LIBINT Hybrid
RI-J (if used) integral strategy            ... SPLIT-RIJ (Revised 2003 algorithm where possible)
Printlevel                                  ...      1
Contraction scheme used                     ... SEGMENTED contraction
Prescreening option                         ... SCHWARTZ
   Thresh                                   ... 3.000e-11
   Tcut                                     ... 1.000e-12
   Tpresel                                  ... 1.000e-12 
Coulomb Range Separation                    ... NOT USED
Exchange Range Separation                   ... NOT USED
Multipole approximations                    ... NOT USED
Finite Nucleus Model                        ... NOT USED
CABS basis                                  ... NOT available
Auxiliary Coulomb fitting basis             ... AVAILABLE
   # of basis functions in Aux-J            ...    453
   # of shells in Aux-J                     ...    155
   Maximum angular momentum in Aux-J        ...      4
Auxiliary J/K fitting basis                 ... NOT available
Auxiliary Correlation fitting basis         ... NOT available
Auxiliary 'external' fitting basis          ... NOT available

Checking pre-screening integrals            ... done (  0.0 sec) Dimension = 94
Check shell pair data                       ... done (  0.0 sec)
Shell pair information
Shell pair cut-off parameter TPreSel        ...   1.0e-12
Total number of shell pairs                 ...      4465
Shell pairs after pre-screening             ...      4014
Total number of primitive shell pairs       ...     15937
Primitive shell pairs kept                  ...     10405
          la=0 lb=0:   1369 shell pairs
          la=1 lb=0:   1539 shell pairs
          la=1 lb=1:    457 shell pairs
          la=2 lb=0:    392 shell pairs
          la=2 lb=1:    223 shell pairs
          la=2 lb=2:     34 shell pairs

Calculating one electron integrals          ... done (  0.0 sec)
Calculating RI/J V-Matrix + Cholesky decomp.... done (  0.0 sec)
Calculating Nuclear repulsion               ... done (  0.0 sec) ENN=    280.630885534285 Eh

Diagonalization of the overlap matrix:
Smallest eigenvalue                        ... 1.885e-04
Time for diagonalization                   ...    0.003 sec
Threshold for overlap eigenvalues          ... 1.000e-07
Number of eigenvalues below threshold      ... 0
Time for construction of square roots      ...    0.004 sec
Total time needed                          ...    0.008 sec

-------------------
DFT GRID GENERATION
-------------------

General Integration Accuracy     IntAcc      ... 4.388
Radial Grid Type                 RadialGrid  ... OptM3 with GC (2021)
Angular Grid (max. ang.)         AngularGrid ... 4 (Lebedev-302)
Angular grid pruning method      GridPruning ... 4 (adaptive)
Weight generation scheme         WeightScheme... mBecke (2022)
Basis function cutoff            BFCut       ... 1.0000e-11
Integration weight cutoff        WCut        ... 1.0000e-14
Partially contracted basis set               ... off
Rotationally invariant grid construction     ... off
Angular grids for H and He will be reduced by one unit
Diffuse basis detected: some atoms will have their outermost
                        angular grid increased by 1.

Total number of grid points                  ...    74692
Total number of batches                      ...     1174
Average number of points per batch           ...       63
Average number of grid points per atom       ...     4394
Initializing property integral containers    ... done (  0.0 sec)

SHARK setup successfully completed in   0.8 seconds

Maximum memory used throughout the entire STARTUP-calculation: 33.9 MB
Occupation numbers will be reassigned to an Aufbau configuration
             **** ENERGY FILE WAS UPDATED (xtb_opt.en.tmp) ****
Finished Guess after   0.1 sec
Maximum memory used throughout the entire GUESS-calculation: 13.2 MB
--------------------
CPCM SOLVATION MODEL
--------------------
CPCM parameters:
  Epsilon                                         ...      78.3550
  Refrac                                          ...       1.3328
  Rsolv                                           ...       1.3000
  Surface type                                    ... GAUSSIAN VDW
  Discretization scheme                           ... Constant charge density
    Threshold for H atoms                         ...       5.0000 (charges/Ang^2)
    Threshold for non-H atoms                     ...       5.0000 (charges/Ang^2)
  Epsilon function type                           ...         CPCM
Solvent:                                          ... WATER
SMD-CDS solvent descriptors:
  Soln                                            ...       1.3328
  Soln25                                          ...       1.3323
  Sola                                            ...       0.0000
  Solb                                            ...       0.0000
  Solg                                            ...       0.0000
  Solc                                            ...       0.0000
  Solh                                            ...       0.0000
Radii:
  Scheme                                          ... Element-dependent radii
  Radius for C  used is    3.4960 Bohr (=   1.8500 Ang.)
  Radius for O  used is    2.8724 Bohr (=   1.5200 Ang.)
  Radius for H  used is    2.2677 Bohr (=   1.2000 Ang.)
Calculating surface                               ...        done! (  0.0s)
Cavity surface points                             ...         1329
Cavity Volume                                     ...     791.4788
Cavity Surface-area                               ...     528.4861
Calculating surface distance matrix               ...        done! (  0.0s)
Performing Cholesky decomposition & store         ...        done! (  0.1s)
Overall time for CPCM initialization              ...                 0.1s

----------------------------------------D-I-I-S--------------------------------------------
Iteration    Energy (Eh)           Delta-E    RMSDP     MaxDP     DIISErr   Damp  Time(sec)
-------------------------------------------------------------------------------------------
               ***  Starting incremental Fock matrix formation  ***
    1    -309.7857053071147106     0.00e+00  3.25e-05  6.59e-04  4.81e-03  0.700   1.9
    2    -309.7857510592193080    -4.58e-05  3.16e-05  5.98e-04  3.72e-03  0.700   1.9
                               ***Turning on AO-DIIS***
                              *** Initializing SOSCF ***
---------------------------------------S-O-S-C-F--------------------------------------
Iteration    Energy (Eh)           Delta-E    RMSDP     MaxDP     MaxGrad    Time(sec)
--------------------------------------------------------------------------------------
    3    -309.7857865707421183    -3.55e-05  8.47e-05  1.50e-03  2.71e-03     1.5
               *** Restarting incremental Fock matrix formation ***
    4    -309.7858709303230285    -8.44e-05  1.45e-05  4.52e-04  8.94e-05     1.9
    5    -309.7858710834871658    -1.53e-07  1.17e-05  5.82e-04  1.33e-04     2.0
    6    -309.7858711794856958    -9.60e-08  6.61e-06  2.30e-04  6.87e-05     1.6
                 **** Energy Check signals convergence ****

               *****************************************************
               *                     SUCCESS                       *
               *           SCF CONVERGED AFTER   6 CYCLES          *
               *****************************************************


SMD CDS free energy correction energy :                 4.61351     Kcal/mol
Total Energy after SMD CDS correction =              -309.778519079 Eh
             **** ENERGY FILE WAS UPDATED (xtb_opt.en.tmp) ****

----------------
TOTAL SCF ENERGY
----------------

Total Energy       :       -309.77851907915294 Eh           -8429.50205 eV

Components:
Nuclear Repulsion  :        280.63088553428548 Eh            7636.35462 eV
Electronic Energy  :       -590.39883279773062 Eh          -16065.56900 eV
One Electron Energy:       -974.11229758635864 Eh          -26506.94320 eV
Two Electron Energy:        383.71346478862807 Eh           10441.37421 eV
CPCM Dielectric    :         -0.01792391604065 Eh              -0.48773 eV
SMD CDS (Gcds)     :          0.00735210033274 Eh               0.20006 eV

Virial components:
Potential Energy   :       -618.10403924763250 Eh          -16819.46599 eV
Kinetic Energy     :        308.32552016847956 Eh            8389.96394 eV
Virial Ratio       :          2.00471254831543

DFT components:
N(Alpha)           :       27.000000373246 electrons
N(Beta)            :       27.000000373246 electrons
N(Total)           :       54.000000746491 electrons
E(X)               :      -43.010125175299 Eh       
E(C)               :       -1.698286772180 Eh       
E(XC)              :      -44.708411947479 Eh       

CPCM Solvation Model Properties:
Surface-charge          :         -0.04611823637491
Corrected charge        :          0.00000000000000
Outlying charge corr.   :          0.00016794274474 Eh               0.00457 eV
Free-energy (cav+disp)  :          0.00735210033274 Eh               0.20006 eV

---------------
SCF CONVERGENCE
---------------

  Last Energy change         ...    9.5999e-08  Tolerance :   1.0000e-07
  Last MAX-Density change    ...    2.3044e-04  Tolerance :   1.0000e-07
  Last RMS-Density change    ...    6.6060e-06  Tolerance :   5.0000e-09
  Last DIIS Error            ...    2.7118e-03  Tolerance :   1.0000e-07
  Last Orbital Gradient      ...    6.8659e-05  Tolerance :   1.0000e-04
  Last Orbital Rotation      ...    1.4638e-04  Tolerance :   1.0000e-04


----------------
ORBITAL ENERGIES
----------------

  NO   OCC          E(Eh)            E(eV) 
   0   2.0000     -18.948446      -515.6134 
   1   2.0000     -10.119694      -275.3709 
   2   2.0000     -10.061221      -273.7798 
   3   2.0000     -10.036060      -273.0951 
   4   2.0000     -10.034084      -273.0413 
   5   2.0000     -10.028380      -272.8861 
   6   2.0000     -10.013234      -272.4740 
   7   2.0000      -1.005216       -27.3533 
   8   2.0000      -0.786772       -21.4092 
   9   2.0000      -0.733127       -19.9494 
  10   2.0000      -0.666221       -18.1288 
  11   2.0000      -0.601083       -16.3563 
  12   2.0000      -0.544705       -14.8222 
  13   2.0000      -0.507575       -13.8118 
  14   2.0000      -0.456388       -12.4190 
  15   2.0000      -0.432641       -11.7728 
  16   2.0000      -0.414581       -11.2813 
  17   2.0000      -0.406474       -11.0607 
  18   2.0000      -0.372484       -10.1358 
  19   2.0000      -0.368561       -10.0291 
  20   2.0000      -0.364250        -9.9117 
  21   2.0000      -0.330321        -8.9885 
  22   2.0000      -0.317244        -8.6327 
  23   2.0000      -0.304373        -8.2824 
  24   2.0000      -0.296287        -8.0624 
  25   2.0000      -0.249823        -6.7980 
  26   2.0000      -0.230732        -6.2785 
  27   0.0000      -0.099051        -2.6953 
  28   0.0000       0.035272         0.9598 
  29   0.0000       0.090714         2.4684 
  30   0.0000       0.108716         2.9583 
  31   0.0000       0.121063         3.2943 
  32   0.0000       0.129782         3.5315 
  33   0.0000       0.138610         3.7718 
  34   0.0000       0.148926         4.0525 
  35   0.0000       0.156178         4.2498 
  36   0.0000       0.168578         4.5872 
  37   0.0000       0.171785         4.6745 
*Only the first 10 virtual orbitals were printed.
Total SCF time: 0 days 0 hours 0 min 11 sec 
Finished LeanSCF after  13.7 sec

Maximum memory used throughout the entire LEANSCF-calculation: 24.9 MB


-------------------------------------------------------------------------------
                          DFT DISPERSION CORRECTION                            
                                                                               
                                DFTD4 V3.4.0                                   
-------------------------------------------------------------------------------
-------------------------   ----------------
Dispersion correction           -0.004280392
-------------------------   ----------------

------------------   -----------------
gCP correction             0.006720188
------------------   -----------------

-------------------------   --------------------
FINAL SINGLE POINT ENERGY      -309.776079282971
-------------------------   --------------------

------------------------------------------------------------------------------
                         ORCA SCF GRADIENT CALCULATION
------------------------------------------------------------------------------

Nuc. rep. gradient        (SHARK) ... done (  0.0 sec)
HCore & Overlap gradient  (SHARK) ... done (  0.2 sec)
Split-RIJ-J gradient      (SHARK) ... done (  0.9 sec)
XC gradient                       ... done (  4.3 sec)
CPCM gradient                     ... done (  1.1 sec)
SMD gradient                      ... done (  0.0 sec)
Dispersion correction             ... done (  0.0 sec)

-------------------
DISPERSION GRADIENT
-------------------

   1   C   :    0.000067774   -0.000058410    0.000009337
   2   C   :    0.000064900    0.000000243   -0.000023548
   3   C   :    0.000041435    0.000046338   -0.000003688
   4   C   :   -0.000023430    0.000030966   -0.000014530
   5   C   :   -0.000079112    0.000023322    0.000031818
   6   C   :   -0.000091141   -0.000005726    0.000016757
   7   O   :   -0.000074089   -0.000017929   -0.000021482
   8   H   :    0.000032156   -0.000024562    0.000013144
   9   H   :    0.000031334   -0.000034268    0.000000732
  10   H   :    0.000023743   -0.000026218    0.000000921
  11   H   :    0.000024565   -0.000002943   -0.000017163
  12   H   :    0.000026841    0.000002291   -0.000005431
  13   H   :    0.000014256    0.000029905   -0.000011080
  14   H   :    0.000014801    0.000021297    0.000007952
  15   H   :   -0.000019522    0.000007796   -0.000018687
  16   H   :   -0.000026932    0.000012811    0.000027104
  17   H   :   -0.000027580   -0.000004912    0.000007843

Difference to translation invariance:
           :    0.0000000000    0.0000000000    0.0000000000

Difference to rotation invariance:
           :   -0.0000000000    0.0000000000    0.0000000000

Norm of the Dispersion gradient    ...    0.0002307831
RMS gradient                       ...    0.0000323161
MAX gradient                       ...    0.0000911407
gCP correction                   ... done

------------------
CARTESIAN GRADIENT
------------------

   1   C   :   -0.000062247    0.000157460   -0.000030802
   2   C   :    0.000058214   -0.000213118    0.000020490
   3   C   :   -0.000141002    0.000148038    0.000130712
   4   C   :   -0.000066818   -0.000012531    0.000009140
   5   C   :   -0.000059605   -0.000081691   -0.000012785
   6   C   :   -0.000025526    0.000308801    0.000010028
   7   O   :    0.000012218   -0.000119146   -0.000010892
   8   H   :    0.000099130   -0.000064305   -0.000044713
   9   H   :    0.000043660   -0.000010397    0.000003578
  10   H   :    0.000055236   -0.000010411   -0.000095484
  11   H   :    0.000004217    0.000017865    0.000072976
  12   H   :   -0.000046037   -0.000001487    0.000057339
  13   H   :    0.000008309   -0.000100531   -0.000016404
  14   H   :   -0.000001176   -0.000010175   -0.000095438
  15   H   :    0.000091514   -0.000017802    0.000013856
  16   H   :    0.000016737    0.000035691    0.000002023
  17   H   :    0.000013178   -0.000026262   -0.000013625

Difference to translation invariance:
           :   -0.0000000000   -0.0000000000   -0.0000000000

Difference to rotation invariance:
           :   -0.0000222563   -0.0000051792   -0.0002459490

Norm of the Cartesian gradient     ...    0.0005795528
RMS gradient                       ...    0.0000811536
MAX gradient                       ...    0.0003088012

-------
TIMINGS
-------

Total SCF gradient time     ....        6.567 sec

Densities                   ....       0.000 sec  (  0.0%)
One electron gradient       ....       0.171 sec  (  2.6%)
RI-J Coulomb gradient       ....       0.945 sec  ( 14.4%)
XC gradient                 ....       4.306 sec  ( 65.6%)
CPCM gradient               ....       1.079 sec  ( 16.4%)
   A-Matrix (El+Nuc)        ....       0.068 sec  (  1.0%)
   Potential                ....       1.011 sec  ( 15.4%)
SMD gradient                ....       0.003 sec  (  0.0%)

Maximum memory used throughout the entire SCFGRAD-calculation: 33.3 MB

------------------------------------------------------------------------------
                              ORCA PROPERTY CALCULATIONS
------------------------------------------------------------------------------

GBWName                                 ... xtb_opt.gbw
Number of atoms                         ...     17
Number of basis functions               ...    188
Max core memory                         ...   1024 MB

Electric properties:
Dipole moment                           ... YES
Quadrupole moment                       ...  NO
Static polarizability (Dipole/Dipole)   ...  NO
Static polarizability (Dipole/Quad.)    ...  NO
Static polarizability (Quad./Quad.)     ...  NO
Static polarizability (Velocity)        ...  NO

Atomic electric properties:
Dipole moment                           ...  NO
Quadrupole moment                       ...  NO
Static polarizability                   ...  NO

Choice of electric origin               ... Center of mass
Position of electric origin             ...    -0.018964     0.006234     0.000344

General magnetic properties:
Magnetizability                         ...  NO

EPR properties:
g-Tensor (aka g-matrix)                 ...  NO
Zero-Field splitting spin-orbit         ...  NO
Zero-field splitting spin-spin          ...  NO
Hyperfine couplings                     ...  NO (   0 nuclei)
Quadrupole couplings                    ...  NO (   0 nuclei)
Contact density                         ...  NO (   0 nuclei)

NMR properties:
Chemical shifts                         ...  NO (   0 nuclei)
Spin-rotation constants                 ...  NO (   0 nuclei)
Spin-spin couplings                     ...  NO (   0 nuclei,    0 pairs)

Choice of magnetic origin               ... GIAO
Position of magnetic origin             ...     0.000000     0.000000     0.000000

Properties with geometric perturbations:
SCF Hessian                             ...  NO
IR spectrum                             ...  NO
VCD spectrum                            ...  NO
X-ray spectroscopy properties:
SCF XES/XAS/RIXS spectra                ...  NO


-------------
DIPOLE MOMENT
-------------

Method             : SCF
Type of density    : Electron Density
Multiplicity       :   1
Irrep              :   0
Energy             :  -309.7785190791529430 Eh
Relativity type    : 
Basis              : AO
                                X                 Y                 Z
Electronic contribution:     -9.139251363       1.183543983      -0.697302004
Nuclear contribution   :     10.765451392      -0.486322296       1.645336509
                        -----------------------------------------
Total Dipole Moment    :      1.626200028       0.697221687       0.948034505
                        -----------------------------------------
Magnitude (a.u.)       :      2.007340040
Magnitude (Debye)      :      5.102252900



--------------------
Rotational spectrum 
--------------------
 
Rotational constants in cm-1:             0.191504             0.038443             0.036494 
Rotational constants in MHz :          5741.132374          1152.500572          1094.049443 

Dipole components along the rotational axes: 
x,y,z [a.u.] :     1.594000     0.806333    -0.915645 
x,y,z [Debye]:     4.051625     2.049535    -2.327385 

 

Dipole moment calculation done in   0.2 sec 

Maximum memory used throughout the entire PROP-calculation: 11.7 MB

--------------------------------
SUGGESTED CITATIONS FOR THIS RUN
--------------------------------

Below you find a list of papers that are relevant to this ORCA run
We neither can nor want to force you to cite these papers, but we appreciate if you do
You receive ORCA, which is the product of decades of hard work by many enthusiastic individuals, for free
The only thing we kindly ask in return is that you cite our papers,
We deeply appreciate it, if you show your appreciation for ORCA by not just citing the generic ORCA reference.

Please note that relegating all ORCA citations to the supporting information does *not* help us.
SI sections are not indexed - citations you put there will not count into any citation statistics
But we need these citations in order to attract the funding resources that allow us to do what we are doing

Therefore, if you are a happy ORCA user, please consider citing a few of the papers listed below in the main body of your paper

In addition to the list printed below, the program has created the file xtb_opt.bibtex that contains the list in bibtex format
You can import this file easily into all common literature databanks and citation aid programs


List of essential papers. We consider these as the minimum necessary citations

  1. Neese,F.
     Software update: the ORCA program system, version 5.0
     WIRES Comput. Molec. Sci., 2022 12(1)e1606
     doi.org/10.1002/wcms.1606
  2. Grimme,S.; Hansen,A.; Ehlert,S.; Mewes,J.
     r2SCAN-3c: A 'Swiss army knife' composite electronic-structure method
     J. Chem. Phys., 2021 154 064103
     doi.org/10.1063/5.0040021

List of papers to cite with high priority. The work reported in these papers was absolutely
necessary for this run to complete.
Our perspective: the developers of density functionals and basis sets usually get cited in chemistry papers
Good! But without the algorithms to do something with them, the functionals or basis sets would not do anything.
Hence, in our opinion, the algorithm design and method developments papers are equally worthy of getting cited

  1. Neese,F.
     An improvement of the resolution of the identity approximation for the formation of the Coulomb matrix
     J. Comp. Chem., 2003 24(14)1740-1747
     doi.org/10.1002/jcc.10318
  2. Garcia-Rates,M.; Neese,F.
     Effect of the Solute Cavity on the Solvation Energy and its Derivatives within the Framework of the Gaussian Charge Scheme
     J. Comput. Chem., 2020 41 922-939
     doi.org/10.1002/jcc.26139
  3. Neese,F.
     The SHARK Integral Generation and Digestion System
     J. Comp. Chem., 2022  1-16
     doi.org/10.1002/jcc.26942
  4. Lehtola,S.; Steigemann,C.; Oliveira,M.; Marques,M.
     Recent developments in Libxc - A comprehensive library of functionals for density functional theory
     Software X, 2018 7 
     doi.org/10.1016/j.softx.2017.11.002
  5. Caldeweyher,E.; Bannwarth,C.; Grimme,S.
     Extension of the D3 dispersion coefficient model
     J. Chem. Phys., 2017 147 034112
     doi.org/10.1063/1.4993215
  6. Caldeweyher,E.; Ehlert,S.; Hansen,A.; Neugebauer,H.; Spicher,S.; Bannwarth,C.; Grimme,S.
     A generally applicable atomic-charge dependent London dispersion correction
     J. Chem. Phys., 2019 150 154122
     doi.org/10.1063/1.5090222
  7. Caldeweyher,E.; Mewes,J.; Ehlert,S.; Grimme,S.
     Extension and evaluation of the D4 London-dispersion model for periodic systems
     Phys. Chem. Chem. Phys., 2020 22(16)8499-8512
     doi.org/10.1039/D0CP00502A
  8. Wittmann,L.; Gordiy,I.; Friede,M.; Helmich-Paris,B.; Grimme,S.; Hansen,A.; Bursch,M.
     Extension of the D3 and D4 London Dispersion Corrections to the full Actinides Series
     Phys. Chem. Chem. Phys., 2024 26(32)21379-21394
     doi.org/https://doi.org/10.1039/D4CP01514B 

List of suggested additional citations. These are papers that are important in the 'surrounding' of 
of this run, or papers that preceded the highly important papers. If you like your results we are grateful for a citation.

  1. Neese,F.
     The ORCA program system
     WIRES Comput. Molec. Sci., 2012 2(1)73-78
     doi.org/10.1002/wcms.81
  2. Neese,F.
     Software update: the ORCA program system, version 4.0
     WIRES Comput. Molec. Sci., 2018 8(1)1-6
     doi.org/10.1002/wcms.1327
  3. Neese,F.; Wennmohs,F.; Becker,U.; Riplinger,C.
     The ORCA quantum chemistry program package
     J. Chem. Phys., 2020 152 Art. No. L224108
     doi.org/10.1063/5.0004608

List of optional additional citations

  1. Neese,F.
     Approximate second-order SCF convergence for spin unrestricted wavefunctions
     Chem. Phys. Lett., 2000 325(1-3)93-98
     doi.org/10.1016/s0009-2614(00)00662-x

Timings for individual modules:

Sum of individual times          ...       21.727 sec (=   0.362 min)
Startup calculation              ...        0.821 sec (=   0.014 min)   3.8 %
SCF iterations                   ...       13.837 sec (=   0.231 min)  63.7 %
Property calculations            ...        0.252 sec (=   0.004 min)   1.2 %
SCF Gradient evaluation          ...        6.817 sec (=   0.114 min)  31.4 %
                             ****ORCA TERMINATED NORMALLY****
TOTAL RUN TIME: 0 days 0 hours 0 minutes 25 seconds 47 msec
  ------------------------------------------------------------------------
          * successful ORCA run, taking over control again...
av. E:   -309.7760793 ->   -309.7760793
av. G:      0.0008349 ->      0.0008349
 * total energy  :  -309.7760793 Eh     change       -0.9793293E-05 Eh
   gradient norm :     0.0005794 Eh/a0  converged?    E=F G=T D=F
   step length   :     0.0691070 a0

........................................................................
.............................. CYCLE    7 ..............................
........................................................................
                         * ORCA takes the control...
  ------------------------------------------------------------------------

                                 *****************
                                 * O   R   C   A *
                                 *****************

                                            #,                                       
                                            ###                                      
                                            ####                                     
                                            #####                                    
                                            ######                                   
                                           ########,                                 
                                     ,,################,,,,,                         
                               ,,#################################,,                 
                          ,,##########################################,,             
                       ,#########################################, ''#####,          
                    ,#############################################,,   '####,        
                  ,##################################################,,,,####,       
                ,###########''''           ''''###############################       
              ,#####''   ,,,,##########,,,,          '''####'''          '####       
            ,##' ,,,,###########################,,,                        '##       
           ' ,,###''''                  '''############,,,                           
         ,,##''                                '''############,,,,        ,,,,,,###''
      ,#''                                            '''#######################'''  
     '                                                          ''''####''''         
             ,#######,   #######,   ,#######,      ##                                
            ,#'     '#,  ##    ##  ,#'     '#,    #''#        ,####,   ,####,        
            ##       ##  ##   ,#'  ##            #'  '#       #'       #'  '#        
            ##       ##  #######   ##           ,######,      #####,   #    #        
            '#,     ,#'  ##    ##  '#,     ,#' ,#      #,     #,   #   #,  ,#        
             '#######'   ##     ##  '#######'  #'      '#     '####' # '####'        



                #########################################################
                #                        -***-                          #
                #          Department of theory and spectroscopy        #
                #                                                       #
                #                      Frank Neese                      #
                #                                                       #
                #     Directorship, Architecture, Infrastructure        #
                #                    SHARK, DRIVERS                     #
                #        Core code/Algorithms in most modules           #
                #                                                       #
                #        Max Planck Institute fuer Kohlenforschung      #
                #                Kaiser Wilhelm Platz 1                 #
                #                 D-45470 Muelheim/Ruhr                 #
                #                      Germany                          #
                #                                                       #
                #                  All rights reserved                  #
                #                        -***-                          #
                #########################################################


                         Program Version 6.0.1  -  RELEASE   -


 With contributions from (in alphabetic order):
[Max-Planck-Institut fuer Kohlenforschung]                               
  Daniel Aravena         : Magnetic Suceptibility                        
  Michael Atanasov       : Ab Initio Ligand Field Theory (pilot matlab implementation)
  Alexander A. Auer      : GIAO ZORA, VPT2 properties, NMR spectrum      
  Ute Becker             : All parallelization in ORCA, NUMFREQ, NUMCALC 
  Giovanni Bistoni       : ED, misc. LED, open-shell LED, HFLD           
  Martin Brehm           : Molecular dynamics                            
  Dmytro Bykov           : pre 5.0 version of the SCF Hessian            
  Marcos Casanova-Páez   : Triplet and SCS-CIS(D). UHF-(DLPNO)-IP/EA/STEOM-CCSD. UHF-CVS-IP/STEOM-CCSD   
  Vijay G. Chilkuri      : MRCI spin determinant printing, contributions to CSF-ICE 
  Pauline Colinet        : FMM embedding                                 
  Dipayan Datta          : RHF DLPNO-CCSD density                        
  Achintya Kumar Dutta   : EOM-CC, STEOM-CC                              
  Nicolas Foglia         : Exact transition moments, OPA infrastructure, MCD improvements    
  Dmitry Ganyushin       : Spin-Orbit,Spin-Spin,Magnetic field MRCI      
  Miquel Garcia-Rates    : C-PCM and meta-GGA Hessian, CCSD/C-PCM, Gaussian charge scheme 
  Tiago L. C. Gouveia    : GS-ROHF, GS-ROCIS                             
  Yang Guo               : DLPNO-NEVPT2, F12-NEVPT2, CIM, IAO-localization        
  Andreas Hansen         : Spin unrestricted coupled pair/coupled cluster methods 
  Ingolf Harden          : AUTO-CI MPn and infrastructure                
  Benjamin Helmich-Paris : MC-RPA, TRAH-(SCF,CASSCF), AVAS, COSX integrals, SCF dyn. polar. 
  Lee Huntington         : MR-EOM, pCC                                   
  Robert Izsak           : Overlap fitted RIJCOSX, COSX-SCS-MP3, EOM     
  Riya Kayal             : Wick's Theorem for AUTO-CI, AUTO-CI UHF-CCSDT 
  Emily Kempfer          : AUTO-CI, RHF CISDT and CCSDT                  
  Christian Kollmar      : KDIIS, OOCD, Brueckner-CCSD(T), CCSD density, CASPT2, CASPT2-K, improved NEVPT2 
  Axel Koslowski         : Symmetry handling                             
  Simone Kossmann        : meta-GGA functionals, TD-DFT gradient, OOMP2, (MP2 Hessian; deprecated post 5.0) 
  Lucas Lang             : DCDCAS                                        
  Marvin Lechner         : AUTO-CI (C++ implementation), FIC-MRCC        
  Spencer Leger          : CASSCF response                               
  Dagmar Lenk            : GEPOL surface, SMD, ORCA-2-JSON               
  Dimitrios Liakos       : Extrapolation schemes; Compound Job, initial MDCI parallelization 
  Dimitrios Manganas     : Further ROCIS development; embedding schemes. LFT, Crystal Embedding 
  Dimitrios Pantazis     : SARC Basis sets                               
  Anastasios Papadopoulos: AUTO-CI, single reference methods and gradients 
  Taras Petrenko         : pre 6.0 DFT Hessian and TD-DFT gradient, (ASA, deprecated), ECA, 1-Electron XAS/XES, NRVS 
  Peter Pinski           : DLPNO-MP2, DLPNO-MP2 Gradient                 
  Christoph Reimann      : Effective Core Potentials                     
  Marius Retegan         : Local ZFS, SOC                                
  Christoph Riplinger    : Optimizer, TS searches, QM/MM, DLPNO-CCSD(T), (RO)-DLPNO pert. Triples 
  Michael Roemelt        : Original ROCIS implementation                 
  Masaaki Saitow         : Open-shell DLPNO-CCSD energy and density      
  Barbara Sandhoefer     : DKH picture change effects                    
  Kantharuban Sivalingam : CASSCF convergence/infrastructure, NEVPT2 and variants, FIC-MRCI 
  Bernardo de Souza      : ESD, SOC TD-DFT                               
  Georgi L. Stoychev     : AutoAux, RI-MP2 NMR, DLPNO-MP2 response, X2C  
  Van Anh Tran           : RI-MP2 g-tensors                              
  Willem Van den Heuvel  : Paramagnetic NMR                              
  Zikuan Wang            : NOTCH, Electric field optimization            
  Frank Wennmohs         : Technical directorship and infrastructure     
  Hang Xu                : AUTO-CI-Response properties                   
                                                                         
[FACCTs GmbH]                                                            
  Markus Bursch, Miquel Garcia-Rates, Christoph Riplinger, Bernardo de Souza, Georgi L. Stoychev 
                                                                 
  APM, Basis sets (HGBS, AHGBS, def-TZVP (Ac-Lr), def2-XVPD (La-Lu)), CI-OPT, improved COSX, DLPNO-Multilevel,           
  DOCKER, DRACO, updates on ESD, GOAT, IRC, LR-CPCM, MBIS, meta-GGA TD-DFT gradient, ML-optimized integration grids, 
  MM, NACMEs, nearIR, NEB, NEB-TS, NL-DFT gradient (VV10), 2- and 3-layer-ONIOM, interface openCOSMO-RS, QMMM,   
  Crystal-QMMM, SF, symmetry and pop. for TD-DFT, r2SCAN hybrids, SOLVATOR                                   
                                                                         
[Other institutions]                                                     
  V. Asgeirsson          : NEB                                           
  Christoph Bannwarth    : sTDA-DFT, sTD-DFT, PBEh-3c, B97-3c, D3        
  Sebastian Ehlert       : rSCAN, r2SCAN, r2SCAN-3c, D4, dhf basis sets  
  Marvin Friede          : D4 for Fr, Ra, Ac-Lr                          
  Lars Goerigk           : TD-DFT with DH, B97 family of functionals     
  Stefan Grimme          : VdW corrections, initial TS optimization, DFT functionals, gCP, sTDA/sTD-DF 
  Waldemar Hujo          : DFT-NL                                        
  H. Jonsson             : NEB                                           
  Holger Kruse           : gCP                                           
  Marcel Mueller         : wB97X-3c, vDZP basis set                      
  Hagen Neugebauer       : wr2SCAN                                       
  Tobias Risthaus        : range-separated hybrid DFT                    
  Lukas Wittmann         : regularized MP2, r2SCAN double-hybrids, wr2SCAN        
                                                                         
We gratefully acknowledge several colleagues who have allowed us to      
interface, adapt or use parts of their codes:                            
  Ed Valeev, F. Pavosevic, A. Kumar             : LibInt (2-el integral package), F12 methods 
  Garnet Chan, S. Sharma, J. Yang, R. Olivares  : DMRG                   
  Ulf Ekstrom                                   : XCFun DFT Library      
  Mihaly Kallay                                 : mrcc  (arbitrary order and MRCC methods)
  Frank Weinhold                                : gennbo (NPA and NBO analysis)           
  Simon Mueller                                 : openCOSMO-RS                            
  Christopher J. Cramer and Donald G. Truhlar   : smd solvation model                     
  S Lehtola, MJT Oliveira, MAL Marques          : LibXC Library                           
  Liviu Ungur et al                             : ANISO software                          


 Your calculation uses the libint2 library for the computation of 2-el integrals
 For citations please refer to: http://libint.valeyev.net

 Your ORCA version has been built with support for libXC version: 6.2.2
 For citations please refer to: https://libxc.gitlab.io

 This ORCA versions uses:
   CBLAS   interface :  Fast vector & matrix operations
   LAPACKE interface :  Fast linear algebra routines
   SCALAPACK package :  Parallel linear algebra routines
   Shared memory     :  Shared parallel matrices
   BLAS/LAPACK       :  OpenBLAS 0.3.27  USE64BITINT DYNAMIC_ARCH NO_AFFINITY Zen SINGLE_THREADED
        Core in use  :  Zen
   Copyright (c) 2011-2014, The OpenBLAS Project




***************************************
The coordinates will be read from file: xtb_opt.xyz
***************************************


Your calculation utilizes the geometrical counterpoise correction gCP
Please cite in your paper:
H.Kruse, S. Grimme J.Chem.Phys., 136, (2012), 154101 
   

Your calculation utilizes the atom-pairwise dispersion correction
based on EEQ partial charges (D4)


Your calculation utilizes the SMD solvation module
Please cite in your paper:
A.V. Marenich, C.J. Cramer, D.G. Truhlar J. Phys. Chem. B, 113, (2009), 6378 

================================================================================

----- Orbital basis set information -----
Your calculation utilizes the basis: def2-mTZVPP
   Stefan Grimme, Andreas Hansen, Sebastian Ehlert, and Jan-Michael Mewes 
   J. Chem. Phys. 154, 064103 (2021). DOI: 10.1063/5.0040021

----- AuxJ basis set information -----
Your calculation utilizes the auxiliary basis: def2/J
   F. Weigend, Phys. Chem. Chem. Phys. 8, 1057 (2006).

================================================================================
                                        WARNINGS
                       Please study these warnings very carefully!
================================================================================

WARNING: Old DensityContainer found on disk!
         Will remove this file - 
         If you want to keep old densities, please start your calculation with a different basename. 



WARNING: SCAN, rSCAN, or r2SCAN functional requested.
  ===> : libXC variant has now been activated.



================================================================================
                                       INPUT FILE
================================================================================
NAME = xtb_opt.inp
|  1> ! r2scan-3c def2/J RI DEFGRID2 scfconv7 ENGRAD tightSCF miniprint
|  2> %cpcm
|  3>     smd true
|  4>     smdsolvent "water"
|  5> end
|  6> * xyzfile 0 1 xtb_opt.xyz
|  7> 
|  8>                          ****END OF INPUT****
================================================================================

                     *******************************
                     * Energy+Gradient Calculation *
                     *******************************

---------------------------------
CARTESIAN COORDINATES (ANGSTROEM)
---------------------------------
  C      2.362592   -1.285784    0.274995
  C      2.381169    0.027201   -0.500344
  C      1.317861    1.024658   -0.003892
  C     -0.063144    0.529955   -0.220922
  C     -1.009259    0.419580    0.728801
  C     -2.353193   -0.066360    0.446225
  O     -2.762170   -0.431625   -0.656551
  H      2.516619   -1.110679    1.345761
  H      1.405506   -1.805572    0.156325
  H      3.153367   -1.957593   -0.073373
  H      2.221011   -0.164712   -1.568061
  H      3.363312    0.502751   -0.405771
  H      1.432131    1.957554   -0.574965
  H      1.478064    1.259496    1.054233
  H     -0.315523    0.233272   -1.240397
  H     -0.798489    0.699349    1.758368
  H     -3.036540   -0.096653    1.316942

----------------------------
CARTESIAN COORDINATES (A.U.)
----------------------------
  NO LB      ZA    FRAG     MASS         X           Y           Z
   0 C     6.0000    0    12.011    4.464651   -2.429779    0.519666
   1 C     6.0000    0    12.011    4.499757    0.051403   -0.945513
   2 C     6.0000    0    12.011    2.490397    1.936323   -0.007354
   3 C     6.0000    0    12.011   -0.119324    1.001469   -0.417482
   4 C     6.0000    0    12.011   -1.907223    0.792892    1.377234
   5 C     6.0000    0    12.011   -4.446890   -0.125402    0.843243
   6 O     8.0000    0    15.999   -5.219745   -0.815653   -1.240702
   7 H     1.0000    0     1.008    4.755721   -2.098879    2.543119
   8 H     1.0000    0     1.008    2.656021   -3.412037    0.295411
   9 H     1.0000    0     1.008    5.959000   -3.699315   -0.138655
  10 H     1.0000    0     1.008    4.197102   -0.311260   -2.963206
  11 H     1.0000    0     1.008    6.355739    0.950062   -0.766796
  12 H     1.0000    0     1.008    2.706335    3.699242   -1.086527
  13 H     1.0000    0     1.008    2.793135    2.380103    1.992211
  14 H     1.0000    0     1.008   -0.596252    0.440820   -2.344010
  15 H     1.0000    0     1.008   -1.508925    1.321578    3.322833
  16 H     1.0000    0     1.008   -5.738228   -0.182648    2.488660

------------------------------------------------------------------------------
                   ___                                                        
                  /   \      - P O W E R E D   B Y -                         
                 /     \                                                     
                 |  |  |   _    _      __       _____    __    __             
                 |  |  |  | |  | |    /  \     |  _  \  |  |  /  |          
                  \  \/   | |  | |   /    \    | | | |  |  | /  /          
                 / \  \   | |__| |  /  /\  \   | |_| |  |  |/  /          
                |  |  |   |  __  | /  /__\  \  |    /   |      \           
                |  |  |   | |  | | |   __   |  |    \   |  |\   \          
                \     /   | |  | | |  |  |  |  | |\  \  |  | \   \       
                 \___/    |_|  |_| |__|  |__|  |_| \__\ |__|  \__/        
                                                                              
                      - O R C A' S   B I G   F R I E N D -                    
                                      &                                       
                       - I N T E G R A L  F E E D E R -                       
                                                                              
 v1 FN, 2020, v2 2021, v3 2022-2024                                           
------------------------------------------------------------------------------


----------------------
SHARK INTEGRAL PACKAGE
----------------------

Number of atoms                             ...     17
Number of basis functions                   ...    188
Number of shells                            ...     94
Maximum angular momentum                    ...      2
Integral batch strategy                     ... SHARK/LIBINT Hybrid
RI-J (if used) integral strategy            ... SPLIT-RIJ (Revised 2003 algorithm where possible)
Printlevel                                  ...      1
Contraction scheme used                     ... SEGMENTED contraction
Prescreening option                         ... SCHWARTZ
   Thresh                                   ... 3.000e-11
   Tcut                                     ... 1.000e-12
   Tpresel                                  ... 1.000e-12 
Coulomb Range Separation                    ... NOT USED
Exchange Range Separation                   ... NOT USED
Multipole approximations                    ... NOT USED
Finite Nucleus Model                        ... NOT USED
CABS basis                                  ... NOT available
Auxiliary Coulomb fitting basis             ... AVAILABLE
   # of basis functions in Aux-J            ...    453
   # of shells in Aux-J                     ...    155
   Maximum angular momentum in Aux-J        ...      4
Auxiliary J/K fitting basis                 ... NOT available
Auxiliary Correlation fitting basis         ... NOT available
Auxiliary 'external' fitting basis          ... NOT available

Checking pre-screening integrals            ... done (  0.0 sec) Dimension = 94
Check shell pair data                       ... done (  0.0 sec)
Shell pair information
Shell pair cut-off parameter TPreSel        ...   1.0e-12
Total number of shell pairs                 ...      4465
Shell pairs after pre-screening             ...      4015
Total number of primitive shell pairs       ...     15937
Primitive shell pairs kept                  ...     10407
          la=0 lb=0:   1369 shell pairs
          la=1 lb=0:   1540 shell pairs
          la=1 lb=1:    457 shell pairs
          la=2 lb=0:    392 shell pairs
          la=2 lb=1:    223 shell pairs
          la=2 lb=2:     34 shell pairs

Calculating one electron integrals          ... done (  0.0 sec)
Calculating RI/J V-Matrix + Cholesky decomp.... done (  0.0 sec)
Calculating Nuclear repulsion               ... done (  0.0 sec) ENN=    280.648120890695 Eh

Diagonalization of the overlap matrix:
Smallest eigenvalue                        ... 1.886e-04
Time for diagonalization                   ...    0.003 sec
Threshold for overlap eigenvalues          ... 1.000e-07
Number of eigenvalues below threshold      ... 0
Time for construction of square roots      ...    0.018 sec
Total time needed                          ...    0.024 sec

-------------------
DFT GRID GENERATION
-------------------

General Integration Accuracy     IntAcc      ... 4.388
Radial Grid Type                 RadialGrid  ... OptM3 with GC (2021)
Angular Grid (max. ang.)         AngularGrid ... 4 (Lebedev-302)
Angular grid pruning method      GridPruning ... 4 (adaptive)
Weight generation scheme         WeightScheme... mBecke (2022)
Basis function cutoff            BFCut       ... 1.0000e-11
Integration weight cutoff        WCut        ... 1.0000e-14
Partially contracted basis set               ... off
Rotationally invariant grid construction     ... off
Angular grids for H and He will be reduced by one unit
Diffuse basis detected: some atoms will have their outermost
                        angular grid increased by 1.

Total number of grid points                  ...    74692
Total number of batches                      ...     1174
Average number of points per batch           ...       63
Average number of grid points per atom       ...     4394
Initializing property integral containers    ... done (  0.0 sec)

SHARK setup successfully completed in   0.7 seconds

Maximum memory used throughout the entire STARTUP-calculation: 33.9 MB
Occupation numbers will be reassigned to an Aufbau configuration
             **** ENERGY FILE WAS UPDATED (xtb_opt.en.tmp) ****
Finished Guess after   0.1 sec
Maximum memory used throughout the entire GUESS-calculation: 13.2 MB
--------------------
CPCM SOLVATION MODEL
--------------------
CPCM parameters:
  Epsilon                                         ...      78.3550
  Refrac                                          ...       1.3328
  Rsolv                                           ...       1.3000
  Surface type                                    ... GAUSSIAN VDW
  Discretization scheme                           ... Constant charge density
    Threshold for H atoms                         ...       5.0000 (charges/Ang^2)
    Threshold for non-H atoms                     ...       5.0000 (charges/Ang^2)
  Epsilon function type                           ...         CPCM
Solvent:                                          ... WATER
SMD-CDS solvent descriptors:
  Soln                                            ...       1.3328
  Soln25                                          ...       1.3323
  Sola                                            ...       0.0000
  Solb                                            ...       0.0000
  Solg                                            ...       0.0000
  Solc                                            ...       0.0000
  Solh                                            ...       0.0000
Radii:
  Scheme                                          ... Element-dependent radii
  Radius for C  used is    3.4960 Bohr (=   1.8500 Ang.)
  Radius for O  used is    2.8724 Bohr (=   1.5200 Ang.)
  Radius for H  used is    2.2677 Bohr (=   1.2000 Ang.)
Calculating surface                               ...        done! (  0.0s)
Cavity surface points                             ...         1329
Cavity Volume                                     ...     791.5384
Cavity Surface-area                               ...     528.4969
Calculating surface distance matrix               ...        done! (  0.0s)
Performing Cholesky decomposition & store         ...        done! (  0.0s)
Overall time for CPCM initialization              ...                 0.1s

----------------------------------------D-I-I-S--------------------------------------------
Iteration    Energy (Eh)           Delta-E    RMSDP     MaxDP     DIISErr   Damp  Time(sec)
-------------------------------------------------------------------------------------------
               ***  Starting incremental Fock matrix formation  ***
    1    -309.7857669177240041     0.00e+00  2.50e-05  5.79e-04  4.36e-03  0.700   1.8
    2    -309.7857962300644203    -2.93e-05  2.43e-05  5.28e-04  3.37e-03  0.700   1.3
                               ***Turning on AO-DIIS***
                              *** Initializing SOSCF ***
---------------------------------------S-O-S-C-F--------------------------------------
Iteration    Energy (Eh)           Delta-E    RMSDP     MaxDP     MaxGrad    Time(sec)
--------------------------------------------------------------------------------------
    3    -309.7858190074971390    -2.28e-05  6.48e-05  1.32e-03  2.45e-03     1.4
               *** Restarting incremental Fock matrix formation ***
    4    -309.7858731093256210    -5.41e-05  8.35e-06  1.08e-04  7.60e-05     1.8
    5    -309.7858733020416366    -1.93e-07  3.81e-06  1.34e-04  3.19e-05     1.4
    6    -309.7858732879359422     1.41e-08  2.63e-06  1.22e-04  5.28e-05     1.4
                 **** Energy Check signals convergence ****

               *****************************************************
               *                     SUCCESS                       *
               *           SCF CONVERGED AFTER   6 CYCLES          *
               *****************************************************


SMD CDS free energy correction energy :                 4.61285     Kcal/mol
Total Energy after SMD CDS correction =              -309.778522248 Eh
             **** ENERGY FILE WAS UPDATED (xtb_opt.en.tmp) ****

----------------
TOTAL SCF ENERGY
----------------

Total Energy       :       -309.77852224848141 Eh           -8429.50214 eV

Components:
Nuclear Repulsion  :        280.64812089069460 Eh            7636.82362 eV
Electronic Energy  :       -590.41607897812435 Eh          -16066.03829 eV
One Electron Energy:       -974.14661341166811 Eh          -26507.87699 eV
Two Electron Energy:        383.73053443354377 Eh           10441.83869 eV
CPCM Dielectric    :         -0.01791520050618 Eh              -0.48750 eV
SMD CDS (Gcds)     :          0.00735103945456 Eh               0.20003 eV

Virial components:
Potential Energy   :       -618.10364916882634 Eh          -16819.45538 eV
Kinetic Energy     :        308.32512692034493 Eh            8389.95324 eV
Virial Ratio       :          2.00471384003845

DFT components:
N(Alpha)           :       26.999997408891 electrons
N(Beta)            :       26.999997408891 electrons
N(Total)           :       53.999994817782 electrons
E(X)               :      -43.010090084381 Eh       
E(C)               :       -1.698285662419 Eh       
E(XC)              :      -44.708375746800 Eh       

CPCM Solvation Model Properties:
Surface-charge          :         -0.04611942432846
Corrected charge        :         -0.00000000000000
Outlying charge corr.   :          0.00016796386031 Eh               0.00457 eV
Free-energy (cav+disp)  :          0.00735103945456 Eh               0.20003 eV

---------------
SCF CONVERGENCE
---------------

  Last Energy change         ...   -1.4106e-08  Tolerance :   1.0000e-07
  Last MAX-Density change    ...    1.2201e-04  Tolerance :   1.0000e-07
  Last RMS-Density change    ...    2.6316e-06  Tolerance :   5.0000e-09
  Last DIIS Error            ...    2.4545e-03  Tolerance :   1.0000e-07
  Last Orbital Gradient      ...    5.2834e-05  Tolerance :   1.0000e-04
  Last Orbital Rotation      ...    7.1361e-05  Tolerance :   1.0000e-04


----------------
ORBITAL ENERGIES
----------------

  NO   OCC          E(Eh)            E(eV) 
   0   2.0000     -18.948613      -515.6180 
   1   2.0000     -10.119736      -275.3720 
   2   2.0000     -10.061075      -273.7758 
   3   2.0000     -10.035998      -273.0934 
   4   2.0000     -10.034018      -273.0395 
   5   2.0000     -10.028304      -272.8840 
   6   2.0000     -10.013261      -272.4747 
   7   2.0000      -1.005309       -27.3558 
   8   2.0000      -0.786730       -21.4080 
   9   2.0000      -0.733063       -19.9477 
  10   2.0000      -0.666172       -18.1275 
  11   2.0000      -0.601082       -16.3563 
  12   2.0000      -0.544687       -14.8217 
  13   2.0000      -0.507524       -13.8104 
  14   2.0000      -0.456383       -12.4188 
  15   2.0000      -0.432651       -11.7730 
  16   2.0000      -0.414535       -11.2801 
  17   2.0000      -0.406495       -11.0613 
  18   2.0000      -0.372525       -10.1369 
  19   2.0000      -0.368523       -10.0280 
  20   2.0000      -0.364198        -9.9103 
  21   2.0000      -0.330282        -8.9874 
  22   2.0000      -0.317142        -8.6299 
  23   2.0000      -0.304441        -8.2843 
  24   2.0000      -0.296315        -8.0631 
  25   2.0000      -0.249805        -6.7976 
  26   2.0000      -0.230772        -6.2796 
  27   0.0000      -0.099064        -2.6957 
  28   0.0000       0.035300         0.9606 
  29   0.0000       0.090735         2.4690 
  30   0.0000       0.108782         2.9601 
  31   0.0000       0.121157         3.2969 
  32   0.0000       0.129737         3.5303 
  33   0.0000       0.138598         3.7714 
  34   0.0000       0.148957         4.0533 
  35   0.0000       0.156048         4.2463 
  36   0.0000       0.168630         4.5887 
  37   0.0000       0.171847         4.6762 
*Only the first 10 virtual orbitals were printed.
Total SCF time: 0 days 0 hours 0 min 10 sec 
Finished LeanSCF after  10.9 sec

Maximum memory used throughout the entire LEANSCF-calculation: 24.9 MB


-------------------------------------------------------------------------------
                          DFT DISPERSION CORRECTION                            
                                                                               
                                DFTD4 V3.4.0                                   
-------------------------------------------------------------------------------
-------------------------   ----------------
Dispersion correction           -0.004281848
-------------------------   ----------------

------------------   -----------------
gCP correction             0.006719002
------------------   -----------------

-------------------------   --------------------
FINAL SINGLE POINT ENERGY      -309.776085094307
-------------------------   --------------------

------------------------------------------------------------------------------
                         ORCA SCF GRADIENT CALCULATION
------------------------------------------------------------------------------

Nuc. rep. gradient        (SHARK) ... done (  0.0 sec)
HCore & Overlap gradient  (SHARK) ... done (  0.3 sec)
Split-RIJ-J gradient      (SHARK) ... done (  1.4 sec)
XC gradient                       ... done (  5.1 sec)
CPCM gradient                     ... done (  1.1 sec)
SMD gradient                      ... done (  0.0 sec)
Dispersion correction             ... done (  0.0 sec)

-------------------
DISPERSION GRADIENT
-------------------

   1   C   :    0.000067782   -0.000058371    0.000009444
   2   C   :    0.000064937    0.000000228   -0.000023540
   3   C   :    0.000041440    0.000046321   -0.000003779
   4   C   :   -0.000023424    0.000031003   -0.000014656
   5   C   :   -0.000079063    0.000023133    0.000031837
   6   C   :   -0.000091196   -0.000005773    0.000016832
   7   O   :   -0.000074085   -0.000017703   -0.000021430
   8   H   :    0.000032217   -0.000024550    0.000013190
   9   H   :    0.000031301   -0.000034296    0.000000700
  10   H   :    0.000023765   -0.000026217    0.000000990
  11   H   :    0.000024573   -0.000002971   -0.000017181
  12   H   :    0.000026869    0.000002289   -0.000005438
  13   H   :    0.000014257    0.000029922   -0.000011152
  14   H   :    0.000014805    0.000021304    0.000007880
  15   H   :   -0.000019573    0.000007899   -0.000018778
  16   H   :   -0.000026984    0.000012701    0.000027183
  17   H   :   -0.000027622   -0.000004919    0.000007897

Difference to translation invariance:
           :   -0.0000000000   -0.0000000000    0.0000000000

Difference to rotation invariance:
           :   -0.0000000000    0.0000000000   -0.0000000000

Norm of the Dispersion gradient    ...    0.0002308265
RMS gradient                       ...    0.0000323222
MAX gradient                       ...    0.0000911962
gCP correction                   ... done

------------------
CARTESIAN GRADIENT
------------------

   1   C   :   -0.000123503   -0.000037174    0.000090356
   2   C   :    0.000092248    0.000010930   -0.000173996
   3   C   :   -0.000028212    0.000071149    0.000132370
   4   C   :    0.000044490   -0.000054423   -0.000089714
   5   C   :   -0.000142169   -0.000019850    0.000173288
   6   C   :    0.000123278   -0.000003383   -0.000149114
   7   O   :   -0.000020162    0.000009762    0.000030579
   8   H   :    0.000075473   -0.000049993   -0.000006469
   9   H   :    0.000077281    0.000015896   -0.000003860
  10   H   :    0.000032511    0.000046652   -0.000077281
  11   H   :    0.000021973    0.000011751    0.000058208
  12   H   :   -0.000067780    0.000006345    0.000066211
  13   H   :   -0.000016715   -0.000117328   -0.000007219
  14   H   :   -0.000046734   -0.000024504   -0.000061523
  15   H   :    0.000015912   -0.000000757   -0.000016738
  16   H   :   -0.000000155    0.000024933   -0.000036447
  17   H   :   -0.000037737    0.000109995    0.000071348

Difference to translation invariance:
           :   -0.0000000000   -0.0000000000   -0.0000000000

Difference to rotation invariance:
           :   -0.0000338292   -0.0000077292   -0.0002234136

Norm of the Cartesian gradient     ...    0.0005177478
RMS gradient                       ...    0.0000724992
MAX gradient                       ...    0.0001739963

-------
TIMINGS
-------

Total SCF gradient time     ....        7.889 sec

Densities                   ....       0.001 sec  (  0.0%)
One electron gradient       ....       0.308 sec  (  3.9%)
RI-J Coulomb gradient       ....       1.363 sec  ( 17.3%)
XC gradient                 ....       5.091 sec  ( 64.5%)
CPCM gradient               ....       1.079 sec  ( 13.7%)
   A-Matrix (El+Nuc)        ....       0.068 sec  (  0.9%)
   Potential                ....       1.011 sec  ( 12.8%)
SMD gradient                ....       0.002 sec  (  0.0%)

Maximum memory used throughout the entire SCFGRAD-calculation: 33.4 MB

------------------------------------------------------------------------------
                              ORCA PROPERTY CALCULATIONS
------------------------------------------------------------------------------

GBWName                                 ... xtb_opt.gbw
Number of atoms                         ...     17
Number of basis functions               ...    188
Max core memory                         ...   1024 MB

Electric properties:
Dipole moment                           ... YES
Quadrupole moment                       ...  NO
Static polarizability (Dipole/Dipole)   ...  NO
Static polarizability (Dipole/Quad.)    ...  NO
Static polarizability (Quad./Quad.)     ...  NO
Static polarizability (Velocity)        ...  NO

Atomic electric properties:
Dipole moment                           ...  NO
Quadrupole moment                       ...  NO
Static polarizability                   ...  NO

Choice of electric origin               ... Center of mass
Position of electric origin             ...    -0.019636     0.007816    -0.000281

General magnetic properties:
Magnetizability                         ...  NO

EPR properties:
g-Tensor (aka g-matrix)                 ...  NO
Zero-Field splitting spin-orbit         ...  NO
Zero-field splitting spin-spin          ...  NO
Hyperfine couplings                     ...  NO (   0 nuclei)
Quadrupole couplings                    ...  NO (   0 nuclei)
Contact density                         ...  NO (   0 nuclei)

NMR properties:
Chemical shifts                         ...  NO (   0 nuclei)
Spin-rotation constants                 ...  NO (   0 nuclei)
Spin-spin couplings                     ...  NO (   0 nuclei,    0 pairs)

Choice of magnetic origin               ... GIAO
Position of magnetic origin             ...     0.000000     0.000000     0.000000

Properties with geometric perturbations:
SCF Hessian                             ...  NO
IR spectrum                             ...  NO
VCD spectrum                            ...  NO
X-ray spectroscopy properties:
SCF XES/XAS/RIXS spectra                ...  NO


-------------
DIPOLE MOMENT
-------------

Method             : SCF
Type of density    : Electron Density
Multiplicity       :   1
Irrep              :   0
Energy             :  -309.7785222484814085 Eh
Relativity type    : 
Basis              : AO
                                X                 Y                 Z
Electronic contribution:     -9.138259897       1.186112140      -0.704125128
Nuclear contribution   :     10.770255278      -0.498186388       1.651379933
                        -----------------------------------------
Total Dipole Moment    :      1.631995381       0.687925751       0.947254804
                        -----------------------------------------
Magnitude (a.u.)       :      2.008467681
Magnitude (Debye)      :      5.105119134



--------------------
Rotational spectrum 
--------------------
 
Rotational constants in cm-1:             0.191806             0.038428             0.036508 
Rotational constants in MHz :          5750.191380          1152.040515          1094.476727 

Dipole components along the rotational axes: 
x,y,z [a.u.] :     1.599885     0.786798    -0.924802 
x,y,z [Debye]:     4.066585     1.999882    -2.350660 

 

Dipole moment calculation done in   1.3 sec 

Maximum memory used throughout the entire PROP-calculation: 11.7 MB

--------------------------------
SUGGESTED CITATIONS FOR THIS RUN
--------------------------------

Below you find a list of papers that are relevant to this ORCA run
We neither can nor want to force you to cite these papers, but we appreciate if you do
You receive ORCA, which is the product of decades of hard work by many enthusiastic individuals, for free
The only thing we kindly ask in return is that you cite our papers,
We deeply appreciate it, if you show your appreciation for ORCA by not just citing the generic ORCA reference.

Please note that relegating all ORCA citations to the supporting information does *not* help us.
SI sections are not indexed - citations you put there will not count into any citation statistics
But we need these citations in order to attract the funding resources that allow us to do what we are doing

Therefore, if you are a happy ORCA user, please consider citing a few of the papers listed below in the main body of your paper

In addition to the list printed below, the program has created the file xtb_opt.bibtex that contains the list in bibtex format
You can import this file easily into all common literature databanks and citation aid programs


List of essential papers. We consider these as the minimum necessary citations

  1. Neese,F.
     Software update: the ORCA program system, version 5.0
     WIRES Comput. Molec. Sci., 2022 12(1)e1606
     doi.org/10.1002/wcms.1606
  2. Grimme,S.; Hansen,A.; Ehlert,S.; Mewes,J.
     r2SCAN-3c: A 'Swiss army knife' composite electronic-structure method
     J. Chem. Phys., 2021 154 064103
     doi.org/10.1063/5.0040021

List of papers to cite with high priority. The work reported in these papers was absolutely
necessary for this run to complete.
Our perspective: the developers of density functionals and basis sets usually get cited in chemistry papers
Good! But without the algorithms to do something with them, the functionals or basis sets would not do anything.
Hence, in our opinion, the algorithm design and method developments papers are equally worthy of getting cited

  1. Neese,F.
     An improvement of the resolution of the identity approximation for the formation of the Coulomb matrix
     J. Comp. Chem., 2003 24(14)1740-1747
     doi.org/10.1002/jcc.10318
  2. Garcia-Rates,M.; Neese,F.
     Effect of the Solute Cavity on the Solvation Energy and its Derivatives within the Framework of the Gaussian Charge Scheme
     J. Comput. Chem., 2020 41 922-939
     doi.org/10.1002/jcc.26139
  3. Neese,F.
     The SHARK Integral Generation and Digestion System
     J. Comp. Chem., 2022  1-16
     doi.org/10.1002/jcc.26942
  4. Lehtola,S.; Steigemann,C.; Oliveira,M.; Marques,M.
     Recent developments in Libxc - A comprehensive library of functionals for density functional theory
     Software X, 2018 7 
     doi.org/10.1016/j.softx.2017.11.002
  5. Caldeweyher,E.; Bannwarth,C.; Grimme,S.
     Extension of the D3 dispersion coefficient model
     J. Chem. Phys., 2017 147 034112
     doi.org/10.1063/1.4993215
  6. Caldeweyher,E.; Ehlert,S.; Hansen,A.; Neugebauer,H.; Spicher,S.; Bannwarth,C.; Grimme,S.
     A generally applicable atomic-charge dependent London dispersion correction
     J. Chem. Phys., 2019 150 154122
     doi.org/10.1063/1.5090222
  7. Caldeweyher,E.; Mewes,J.; Ehlert,S.; Grimme,S.
     Extension and evaluation of the D4 London-dispersion model for periodic systems
     Phys. Chem. Chem. Phys., 2020 22(16)8499-8512
     doi.org/10.1039/D0CP00502A
  8. Wittmann,L.; Gordiy,I.; Friede,M.; Helmich-Paris,B.; Grimme,S.; Hansen,A.; Bursch,M.
     Extension of the D3 and D4 London Dispersion Corrections to the full Actinides Series
     Phys. Chem. Chem. Phys., 2024 26(32)21379-21394
     doi.org/https://doi.org/10.1039/D4CP01514B 

List of suggested additional citations. These are papers that are important in the 'surrounding' of 
of this run, or papers that preceded the highly important papers. If you like your results we are grateful for a citation.

  1. Neese,F.
     The ORCA program system
     WIRES Comput. Molec. Sci., 2012 2(1)73-78
     doi.org/10.1002/wcms.81
  2. Neese,F.
     Software update: the ORCA program system, version 4.0
     WIRES Comput. Molec. Sci., 2018 8(1)1-6
     doi.org/10.1002/wcms.1327
  3. Neese,F.; Wennmohs,F.; Becker,U.; Riplinger,C.
     The ORCA quantum chemistry program package
     J. Chem. Phys., 2020 152 Art. No. L224108
     doi.org/10.1063/5.0004608

List of optional additional citations

  1. Neese,F.
     Approximate second-order SCF convergence for spin unrestricted wavefunctions
     Chem. Phys. Lett., 2000 325(1-3)93-98
     doi.org/10.1016/s0009-2614(00)00662-x

Timings for individual modules:

Sum of individual times          ...       21.848 sec (=   0.364 min)
Startup calculation              ...        0.768 sec (=   0.013 min)   3.5 %
SCF iterations                   ...       11.034 sec (=   0.184 min)  50.5 %
Property calculations            ...        1.386 sec (=   0.023 min)   6.3 %
SCF Gradient evaluation          ...        8.660 sec (=   0.144 min)  39.6 %
                             ****ORCA TERMINATED NORMALLY****
TOTAL RUN TIME: 0 days 0 hours 0 minutes 23 seconds 743 msec
  ------------------------------------------------------------------------
          * successful ORCA run, taking over control again...
av. E:   -309.7760851 ->   -309.7760851
av. G:      0.0005794 ->      0.0005794
 * total energy  :  -309.7760851 Eh     change       -0.5811336E-05 Eh
   gradient norm :     0.0005176 Eh/a0  converged?    E=F G=T D=F
   step length   :     0.0540459 a0

........................................................................
.............................. CYCLE    8 ..............................
........................................................................
                         * ORCA takes the control...
  ------------------------------------------------------------------------

                                 *****************
                                 * O   R   C   A *
                                 *****************

                                            #,                                       
                                            ###                                      
                                            ####                                     
                                            #####                                    
                                            ######                                   
                                           ########,                                 
                                     ,,################,,,,,                         
                               ,,#################################,,                 
                          ,,##########################################,,             
                       ,#########################################, ''#####,          
                    ,#############################################,,   '####,        
                  ,##################################################,,,,####,       
                ,###########''''           ''''###############################       
              ,#####''   ,,,,##########,,,,          '''####'''          '####       
            ,##' ,,,,###########################,,,                        '##       
           ' ,,###''''                  '''############,,,                           
         ,,##''                                '''############,,,,        ,,,,,,###''
      ,#''                                            '''#######################'''  
     '                                                          ''''####''''         
             ,#######,   #######,   ,#######,      ##                                
            ,#'     '#,  ##    ##  ,#'     '#,    #''#        ,####,   ,####,        
            ##       ##  ##   ,#'  ##            #'  '#       #'       #'  '#        
            ##       ##  #######   ##           ,######,      #####,   #    #        
            '#,     ,#'  ##    ##  '#,     ,#' ,#      #,     #,   #   #,  ,#        
             '#######'   ##     ##  '#######'  #'      '#     '####' # '####'        



                #########################################################
                #                        -***-                          #
                #          Department of theory and spectroscopy        #
                #                                                       #
                #                      Frank Neese                      #
                #                                                       #
                #     Directorship, Architecture, Infrastructure        #
                #                    SHARK, DRIVERS                     #
                #        Core code/Algorithms in most modules           #
                #                                                       #
                #        Max Planck Institute fuer Kohlenforschung      #
                #                Kaiser Wilhelm Platz 1                 #
                #                 D-45470 Muelheim/Ruhr                 #
                #                      Germany                          #
                #                                                       #
                #                  All rights reserved                  #
                #                        -***-                          #
                #########################################################


                         Program Version 6.0.1  -  RELEASE   -


 With contributions from (in alphabetic order):
[Max-Planck-Institut fuer Kohlenforschung]                               
  Daniel Aravena         : Magnetic Suceptibility                        
  Michael Atanasov       : Ab Initio Ligand Field Theory (pilot matlab implementation)
  Alexander A. Auer      : GIAO ZORA, VPT2 properties, NMR spectrum      
  Ute Becker             : All parallelization in ORCA, NUMFREQ, NUMCALC 
  Giovanni Bistoni       : ED, misc. LED, open-shell LED, HFLD           
  Martin Brehm           : Molecular dynamics                            
  Dmytro Bykov           : pre 5.0 version of the SCF Hessian            
  Marcos Casanova-Páez   : Triplet and SCS-CIS(D). UHF-(DLPNO)-IP/EA/STEOM-CCSD. UHF-CVS-IP/STEOM-CCSD   
  Vijay G. Chilkuri      : MRCI spin determinant printing, contributions to CSF-ICE 
  Pauline Colinet        : FMM embedding                                 
  Dipayan Datta          : RHF DLPNO-CCSD density                        
  Achintya Kumar Dutta   : EOM-CC, STEOM-CC                              
  Nicolas Foglia         : Exact transition moments, OPA infrastructure, MCD improvements    
  Dmitry Ganyushin       : Spin-Orbit,Spin-Spin,Magnetic field MRCI      
  Miquel Garcia-Rates    : C-PCM and meta-GGA Hessian, CCSD/C-PCM, Gaussian charge scheme 
  Tiago L. C. Gouveia    : GS-ROHF, GS-ROCIS                             
  Yang Guo               : DLPNO-NEVPT2, F12-NEVPT2, CIM, IAO-localization        
  Andreas Hansen         : Spin unrestricted coupled pair/coupled cluster methods 
  Ingolf Harden          : AUTO-CI MPn and infrastructure                
  Benjamin Helmich-Paris : MC-RPA, TRAH-(SCF,CASSCF), AVAS, COSX integrals, SCF dyn. polar. 
  Lee Huntington         : MR-EOM, pCC                                   
  Robert Izsak           : Overlap fitted RIJCOSX, COSX-SCS-MP3, EOM     
  Riya Kayal             : Wick's Theorem for AUTO-CI, AUTO-CI UHF-CCSDT 
  Emily Kempfer          : AUTO-CI, RHF CISDT and CCSDT                  
  Christian Kollmar      : KDIIS, OOCD, Brueckner-CCSD(T), CCSD density, CASPT2, CASPT2-K, improved NEVPT2 
  Axel Koslowski         : Symmetry handling                             
  Simone Kossmann        : meta-GGA functionals, TD-DFT gradient, OOMP2, (MP2 Hessian; deprecated post 5.0) 
  Lucas Lang             : DCDCAS                                        
  Marvin Lechner         : AUTO-CI (C++ implementation), FIC-MRCC        
  Spencer Leger          : CASSCF response                               
  Dagmar Lenk            : GEPOL surface, SMD, ORCA-2-JSON               
  Dimitrios Liakos       : Extrapolation schemes; Compound Job, initial MDCI parallelization 
  Dimitrios Manganas     : Further ROCIS development; embedding schemes. LFT, Crystal Embedding 
  Dimitrios Pantazis     : SARC Basis sets                               
  Anastasios Papadopoulos: AUTO-CI, single reference methods and gradients 
  Taras Petrenko         : pre 6.0 DFT Hessian and TD-DFT gradient, (ASA, deprecated), ECA, 1-Electron XAS/XES, NRVS 
  Peter Pinski           : DLPNO-MP2, DLPNO-MP2 Gradient                 
  Christoph Reimann      : Effective Core Potentials                     
  Marius Retegan         : Local ZFS, SOC                                
  Christoph Riplinger    : Optimizer, TS searches, QM/MM, DLPNO-CCSD(T), (RO)-DLPNO pert. Triples 
  Michael Roemelt        : Original ROCIS implementation                 
  Masaaki Saitow         : Open-shell DLPNO-CCSD energy and density      
  Barbara Sandhoefer     : DKH picture change effects                    
  Kantharuban Sivalingam : CASSCF convergence/infrastructure, NEVPT2 and variants, FIC-MRCI 
  Bernardo de Souza      : ESD, SOC TD-DFT                               
  Georgi L. Stoychev     : AutoAux, RI-MP2 NMR, DLPNO-MP2 response, X2C  
  Van Anh Tran           : RI-MP2 g-tensors                              
  Willem Van den Heuvel  : Paramagnetic NMR                              
  Zikuan Wang            : NOTCH, Electric field optimization            
  Frank Wennmohs         : Technical directorship and infrastructure     
  Hang Xu                : AUTO-CI-Response properties                   
                                                                         
[FACCTs GmbH]                                                            
  Markus Bursch, Miquel Garcia-Rates, Christoph Riplinger, Bernardo de Souza, Georgi L. Stoychev 
                                                                 
  APM, Basis sets (HGBS, AHGBS, def-TZVP (Ac-Lr), def2-XVPD (La-Lu)), CI-OPT, improved COSX, DLPNO-Multilevel,           
  DOCKER, DRACO, updates on ESD, GOAT, IRC, LR-CPCM, MBIS, meta-GGA TD-DFT gradient, ML-optimized integration grids, 
  MM, NACMEs, nearIR, NEB, NEB-TS, NL-DFT gradient (VV10), 2- and 3-layer-ONIOM, interface openCOSMO-RS, QMMM,   
  Crystal-QMMM, SF, symmetry and pop. for TD-DFT, r2SCAN hybrids, SOLVATOR                                   
                                                                         
[Other institutions]                                                     
  V. Asgeirsson          : NEB                                           
  Christoph Bannwarth    : sTDA-DFT, sTD-DFT, PBEh-3c, B97-3c, D3        
  Sebastian Ehlert       : rSCAN, r2SCAN, r2SCAN-3c, D4, dhf basis sets  
  Marvin Friede          : D4 for Fr, Ra, Ac-Lr                          
  Lars Goerigk           : TD-DFT with DH, B97 family of functionals     
  Stefan Grimme          : VdW corrections, initial TS optimization, DFT functionals, gCP, sTDA/sTD-DF 
  Waldemar Hujo          : DFT-NL                                        
  H. Jonsson             : NEB                                           
  Holger Kruse           : gCP                                           
  Marcel Mueller         : wB97X-3c, vDZP basis set                      
  Hagen Neugebauer       : wr2SCAN                                       
  Tobias Risthaus        : range-separated hybrid DFT                    
  Lukas Wittmann         : regularized MP2, r2SCAN double-hybrids, wr2SCAN        
                                                                         
We gratefully acknowledge several colleagues who have allowed us to      
interface, adapt or use parts of their codes:                            
  Ed Valeev, F. Pavosevic, A. Kumar             : LibInt (2-el integral package), F12 methods 
  Garnet Chan, S. Sharma, J. Yang, R. Olivares  : DMRG                   
  Ulf Ekstrom                                   : XCFun DFT Library      
  Mihaly Kallay                                 : mrcc  (arbitrary order and MRCC methods)
  Frank Weinhold                                : gennbo (NPA and NBO analysis)           
  Simon Mueller                                 : openCOSMO-RS                            
  Christopher J. Cramer and Donald G. Truhlar   : smd solvation model                     
  S Lehtola, MJT Oliveira, MAL Marques          : LibXC Library                           
  Liviu Ungur et al                             : ANISO software                          


 Your calculation uses the libint2 library for the computation of 2-el integrals
 For citations please refer to: http://libint.valeyev.net

 Your ORCA version has been built with support for libXC version: 6.2.2
 For citations please refer to: https://libxc.gitlab.io

 This ORCA versions uses:
   CBLAS   interface :  Fast vector & matrix operations
   LAPACKE interface :  Fast linear algebra routines
   SCALAPACK package :  Parallel linear algebra routines
   Shared memory     :  Shared parallel matrices
   BLAS/LAPACK       :  OpenBLAS 0.3.27  USE64BITINT DYNAMIC_ARCH NO_AFFINITY Zen SINGLE_THREADED
        Core in use  :  Zen
   Copyright (c) 2011-2014, The OpenBLAS Project




***************************************
The coordinates will be read from file: xtb_opt.xyz
***************************************


Your calculation utilizes the geometrical counterpoise correction gCP
Please cite in your paper:
H.Kruse, S. Grimme J.Chem.Phys., 136, (2012), 154101 
   

Your calculation utilizes the atom-pairwise dispersion correction
based on EEQ partial charges (D4)


Your calculation utilizes the SMD solvation module
Please cite in your paper:
A.V. Marenich, C.J. Cramer, D.G. Truhlar J. Phys. Chem. B, 113, (2009), 6378 

================================================================================

----- Orbital basis set information -----
Your calculation utilizes the basis: def2-mTZVPP
   Stefan Grimme, Andreas Hansen, Sebastian Ehlert, and Jan-Michael Mewes 
   J. Chem. Phys. 154, 064103 (2021). DOI: 10.1063/5.0040021

----- AuxJ basis set information -----
Your calculation utilizes the auxiliary basis: def2/J
   F. Weigend, Phys. Chem. Chem. Phys. 8, 1057 (2006).

================================================================================
                                        WARNINGS
                       Please study these warnings very carefully!
================================================================================

WARNING: Old DensityContainer found on disk!
         Will remove this file - 
         If you want to keep old densities, please start your calculation with a different basename. 



WARNING: SCAN, rSCAN, or r2SCAN functional requested.
  ===> : libXC variant has now been activated.



================================================================================
                                       INPUT FILE
================================================================================
NAME = xtb_opt.inp
|  1> ! r2scan-3c def2/J RI DEFGRID2 scfconv7 ENGRAD tightSCF miniprint
|  2> %cpcm
|  3>     smd true
|  4>     smdsolvent "water"
|  5> end
|  6> * xyzfile 0 1 xtb_opt.xyz
|  7> 
|  8>                          ****END OF INPUT****
================================================================================

                     *******************************
                     * Energy+Gradient Calculation *
                     *******************************

---------------------------------
CARTESIAN COORDINATES (ANGSTROEM)
---------------------------------
  C      2.358549   -1.284455    0.278308
  C      2.381065    0.026353   -0.501073
  C      1.318431    1.026671   -0.008772
  C     -0.063507    0.534153   -0.225384
  C     -1.004832    0.413954    0.728033
  C     -2.350756   -0.068375    0.448284
  O     -2.766769   -0.420779   -0.656270
  H      2.500425   -1.104263    1.350122
  H      1.403831   -1.806964    0.151938
  H      3.154657   -1.955967   -0.058603
  H      2.223426   -0.168301   -1.568757
  H      3.363782    0.500712   -0.405583
  H      1.434634    1.959014   -0.580526
  H      1.478262    1.261998    1.049447
  H     -0.320556    0.246339   -1.246280
  H     -0.788362    0.682422    1.759680
  H     -3.028965   -0.107668    1.322810

----------------------------
CARTESIAN COORDINATES (A.U.)
----------------------------
  NO LB      ZA    FRAG     MASS         X           Y           Z
   0 C     6.0000    0    12.011    4.457012   -2.427268    0.525925
   1 C     6.0000    0    12.011    4.499560    0.049799   -0.946890
   2 C     6.0000    0    12.011    2.491474    1.940126   -0.016576
   3 C     6.0000    0    12.011   -0.120010    1.009402   -0.425914
   4 C     6.0000    0    12.011   -1.898857    0.782259    1.375783
   5 C     6.0000    0    12.011   -4.442286   -0.129211    0.847135
   6 O     8.0000    0    15.999   -5.228436   -0.795157   -1.240171
   7 H     1.0000    0     1.008    4.725118   -2.086754    2.551361
   8 H     1.0000    0     1.008    2.652857   -3.414668    0.287121
   9 H     1.0000    0     1.008    5.961438   -3.696241   -0.110744
  10 H     1.0000    0     1.008    4.201667   -0.318042   -2.964522
  11 H     1.0000    0     1.008    6.356627    0.946208   -0.766441
  12 H     1.0000    0     1.008    2.711066    3.702000   -1.097035
  13 H     1.0000    0     1.008    2.793510    2.384831    1.983168
  14 H     1.0000    0     1.008   -0.605763    0.465512   -2.355129
  15 H     1.0000    0     1.008   -1.489788    1.289590    3.325313
  16 H     1.0000    0     1.008   -5.723915   -0.203463    2.499749

------------------------------------------------------------------------------
                   ___                                                        
                  /   \      - P O W E R E D   B Y -                         
                 /     \                                                     
                 |  |  |   _    _      __       _____    __    __             
                 |  |  |  | |  | |    /  \     |  _  \  |  |  /  |          
                  \  \/   | |  | |   /    \    | | | |  |  | /  /          
                 / \  \   | |__| |  /  /\  \   | |_| |  |  |/  /          
                |  |  |   |  __  | /  /__\  \  |    /   |      \           
                |  |  |   | |  | | |   __   |  |    \   |  |\   \          
                \     /   | |  | | |  |  |  |  | |\  \  |  | \   \       
                 \___/    |_|  |_| |__|  |__|  |_| \__\ |__|  \__/        
                                                                              
                      - O R C A' S   B I G   F R I E N D -                    
                                      &                                       
                       - I N T E G R A L  F E E D E R -                       
                                                                              
 v1 FN, 2020, v2 2021, v3 2022-2024                                           
------------------------------------------------------------------------------


----------------------
SHARK INTEGRAL PACKAGE
----------------------

Number of atoms                             ...     17
Number of basis functions                   ...    188
Number of shells                            ...     94
Maximum angular momentum                    ...      2
Integral batch strategy                     ... SHARK/LIBINT Hybrid
RI-J (if used) integral strategy            ... SPLIT-RIJ (Revised 2003 algorithm where possible)
Printlevel                                  ...      1
Contraction scheme used                     ... SEGMENTED contraction
Prescreening option                         ... SCHWARTZ
   Thresh                                   ... 3.000e-11
   Tcut                                     ... 1.000e-12
   Tpresel                                  ... 1.000e-12 
Coulomb Range Separation                    ... NOT USED
Exchange Range Separation                   ... NOT USED
Multipole approximations                    ... NOT USED
Finite Nucleus Model                        ... NOT USED
CABS basis                                  ... NOT available
Auxiliary Coulomb fitting basis             ... AVAILABLE
   # of basis functions in Aux-J            ...    453
   # of shells in Aux-J                     ...    155
   Maximum angular momentum in Aux-J        ...      4
Auxiliary J/K fitting basis                 ... NOT available
Auxiliary Correlation fitting basis         ... NOT available
Auxiliary 'external' fitting basis          ... NOT available

Checking pre-screening integrals            ... done (  0.0 sec) Dimension = 94
Check shell pair data                       ... done (  0.0 sec)
Shell pair information
Shell pair cut-off parameter TPreSel        ...   1.0e-12
Total number of shell pairs                 ...      4465
Shell pairs after pre-screening             ...      4015
Total number of primitive shell pairs       ...     15937
Primitive shell pairs kept                  ...     10406
          la=0 lb=0:   1369 shell pairs
          la=1 lb=0:   1540 shell pairs
          la=1 lb=1:    457 shell pairs
          la=2 lb=0:    392 shell pairs
          la=2 lb=1:    223 shell pairs
          la=2 lb=2:     34 shell pairs

Calculating one electron integrals          ... done (  0.0 sec)
Calculating RI/J V-Matrix + Cholesky decomp.... done (  0.0 sec)
Calculating Nuclear repulsion               ... done (  0.0 sec) ENN=    280.661214872740 Eh

Diagonalization of the overlap matrix:
Smallest eigenvalue                        ... 1.891e-04
Time for diagonalization                   ...    0.003 sec
Threshold for overlap eigenvalues          ... 1.000e-07
Number of eigenvalues below threshold      ... 0
Time for construction of square roots      ...    0.003 sec
Total time needed                          ...    0.007 sec

-------------------
DFT GRID GENERATION
-------------------

General Integration Accuracy     IntAcc      ... 4.388
Radial Grid Type                 RadialGrid  ... OptM3 with GC (2021)
Angular Grid (max. ang.)         AngularGrid ... 4 (Lebedev-302)
Angular grid pruning method      GridPruning ... 4 (adaptive)
Weight generation scheme         WeightScheme... mBecke (2022)
Basis function cutoff            BFCut       ... 1.0000e-11
Integration weight cutoff        WCut        ... 1.0000e-14
Partially contracted basis set               ... off
Rotationally invariant grid construction     ... off
Angular grids for H and He will be reduced by one unit
Diffuse basis detected: some atoms will have their outermost
                        angular grid increased by 1.

Total number of grid points                  ...    74703
Total number of batches                      ...     1176
Average number of points per batch           ...       63
Average number of grid points per atom       ...     4394
Initializing property integral containers    ... done (  0.0 sec)

SHARK setup successfully completed in   0.7 seconds

Maximum memory used throughout the entire STARTUP-calculation: 33.9 MB
Occupation numbers will be reassigned to an Aufbau configuration
             **** ENERGY FILE WAS UPDATED (xtb_opt.en.tmp) ****
Finished Guess after   0.9 sec
Maximum memory used throughout the entire GUESS-calculation: 13.2 MB
--------------------
CPCM SOLVATION MODEL
--------------------
CPCM parameters:
  Epsilon                                         ...      78.3550
  Refrac                                          ...       1.3328
  Rsolv                                           ...       1.3000
  Surface type                                    ... GAUSSIAN VDW
  Discretization scheme                           ... Constant charge density
    Threshold for H atoms                         ...       5.0000 (charges/Ang^2)
    Threshold for non-H atoms                     ...       5.0000 (charges/Ang^2)
  Epsilon function type                           ...         CPCM
Solvent:                                          ... WATER
SMD-CDS solvent descriptors:
  Soln                                            ...       1.3328
  Soln25                                          ...       1.3323
  Sola                                            ...       0.0000
  Solb                                            ...       0.0000
  Solg                                            ...       0.0000
  Solc                                            ...       0.0000
  Solh                                            ...       0.0000
Radii:
  Scheme                                          ... Element-dependent radii
  Radius for C  used is    3.4960 Bohr (=   1.8500 Ang.)
  Radius for O  used is    2.8724 Bohr (=   1.5200 Ang.)
  Radius for H  used is    2.2677 Bohr (=   1.2000 Ang.)
Calculating surface                               ...        done! (  0.0s)
Cavity surface points                             ...         1327
Cavity Volume                                     ...     791.6630
Cavity Surface-area                               ...     528.5906
Calculating surface distance matrix               ...        done! (  0.0s)
Performing Cholesky decomposition & store         ...        done! (  0.1s)
Overall time for CPCM initialization              ...                 0.2s

----------------------------------------D-I-I-S--------------------------------------------
Iteration    Energy (Eh)           Delta-E    RMSDP     MaxDP     DIISErr   Damp  Time(sec)
-------------------------------------------------------------------------------------------
               ***  Starting incremental Fock matrix formation  ***
    1    -309.7856621298753339     0.00e+00  3.52e-05  8.31e-04  6.29e-03  0.700  38.1
    2    -309.7857195456174964    -5.74e-05  3.42e-05  7.62e-04  4.87e-03  0.700   1.5
                               ***Turning on AO-DIIS***
    3    -309.7857643100005021    -4.48e-05  2.74e-05  5.78e-04  3.55e-03  0.700   1.4
                              *** Initializing SOSCF ***
---------------------------------------S-O-S-C-F--------------------------------------
Iteration    Energy (Eh)           Delta-E    RMSDP     MaxDP     MaxGrad    Time(sec)
--------------------------------------------------------------------------------------
    4    -309.7857962314431575    -3.19e-05  6.89e-05  1.44e-03  2.53e-03     1.4
               *** Restarting incremental Fock matrix formation ***
    5    -309.7858711980840667    -7.50e-05  7.33e-06  1.01e-04  4.87e-05    70.1
    6    -309.7858713116674494    -1.14e-07  1.75e-06  5.66e-05  1.05e-05     1.6
                  *** Gradient check signals convergence ***

               *****************************************************
               *                     SUCCESS                       *
               *           SCF CONVERGED AFTER   6 CYCLES          *
               *****************************************************


SMD CDS free energy correction energy :                 4.61169     Kcal/mol
Total Energy after SMD CDS correction =              -309.778522114 Eh
             **** ENERGY FILE WAS UPDATED (xtb_opt.en.tmp) ****

----------------
TOTAL SCF ENERGY
----------------

Total Energy       :       -309.77852211425784 Eh           -8429.50213 eV

Components:
Nuclear Repulsion  :        280.66121487273955 Eh            7637.17992 eV
Electronic Energy  :       -590.42917126488283 Eh          -16066.39455 eV
One Electron Energy:       -974.17092670278828 Eh          -26508.53858 eV
Two Electron Energy:        383.74175543790551 Eh           10442.14403 eV
CPCM Dielectric    :         -0.01791491952429 Eh              -0.48749 eV
SMD CDS (Gcds)     :          0.00734919740958 Eh               0.19998 eV

Virial components:
Potential Energy   :       -618.10025584010589 Eh          -16819.36304 eV
Kinetic Energy     :        308.32173372584805 Eh            8389.86091 eV
Virial Ratio       :          2.00472489684981

DFT components:
N(Alpha)           :       26.999994006861 electrons
N(Beta)            :       26.999994006861 electrons
N(Total)           :       53.999988013721 electrons
E(X)               :      -43.009100358475 Eh       
E(C)               :       -1.698244060474 Eh       
E(XC)              :      -44.707344418949 Eh       

CPCM Solvation Model Properties:
Surface-charge          :         -0.04612881857718
Corrected charge        :          0.00000000000000
Outlying charge corr.   :          0.00016804665555 Eh               0.00457 eV
Free-energy (cav+disp)  :          0.00734919740958 Eh               0.19998 eV

---------------
SCF CONVERGENCE
---------------

  Last Energy change         ...    1.1358e-07  Tolerance :   1.0000e-07
  Last MAX-Density change    ...    5.6584e-05  Tolerance :   1.0000e-07
  Last RMS-Density change    ...    1.7453e-06  Tolerance :   5.0000e-09
  Last DIIS Error            ...    2.5289e-03  Tolerance :   1.0000e-07
  Last Orbital Gradient      ...    1.0540e-05  Tolerance :   1.0000e-04
  Last Orbital Rotation      ...    3.6054e-05  Tolerance :   1.0000e-04


----------------
ORBITAL ENERGIES
----------------

  NO   OCC          E(Eh)            E(eV) 
   0   2.0000     -18.948801      -515.6231 
   1   2.0000     -10.119716      -275.3715 
   2   2.0000     -10.061171      -273.7784 
   3   2.0000     -10.036108      -273.0964 
   4   2.0000     -10.034083      -273.0413 
   5   2.0000     -10.028536      -272.8903 
   6   2.0000     -10.013311      -272.4760 
   7   2.0000      -1.005258       -27.3545 
   8   2.0000      -0.786738       -21.4082 
   9   2.0000      -0.733026       -19.9466 
  10   2.0000      -0.666140       -18.1266 
  11   2.0000      -0.601101       -16.3568 
  12   2.0000      -0.544719       -14.8225 
  13   2.0000      -0.507491       -13.8095 
  14   2.0000      -0.456386       -12.4189 
  15   2.0000      -0.432665       -11.7734 
  16   2.0000      -0.414521       -11.2797 
  17   2.0000      -0.406501       -11.0614 
  18   2.0000      -0.372512       -10.1366 
  19   2.0000      -0.368477       -10.0268 
  20   2.0000      -0.364121        -9.9082 
  21   2.0000      -0.330209        -8.9854 
  22   2.0000      -0.317254        -8.6329 
  23   2.0000      -0.304497        -8.2858 
  24   2.0000      -0.296296        -8.0626 
  25   2.0000      -0.249870        -6.7993 
  26   2.0000      -0.230830        -6.2812 
  27   0.0000      -0.099152        -2.6981 
  28   0.0000       0.035257         0.9594 
  29   0.0000       0.090740         2.4692 
  30   0.0000       0.108816         2.9610 
  31   0.0000       0.121219         3.2985 
  32   0.0000       0.129691         3.5291 
  33   0.0000       0.138553         3.7702 
  34   0.0000       0.148966         4.0536 
  35   0.0000       0.155725         4.2375 
  36   0.0000       0.168644         4.5890 
  37   0.0000       0.171899         4.6776 
*Only the first 10 virtual orbitals were printed.
Total SCF time: 0 days 0 hours 1 min 56 sec 
Finished LeanSCF after 116.4 sec

Maximum memory used throughout the entire LEANSCF-calculation: 24.9 MB


-------------------------------------------------------------------------------
                          DFT DISPERSION CORRECTION                            
                                                                               
                                DFTD4 V3.4.0                                   
-------------------------------------------------------------------------------
-------------------------   ----------------
Dispersion correction           -0.004283979
-------------------------   ----------------

------------------   -----------------
gCP correction             0.006716312
------------------   -----------------

-------------------------   --------------------
FINAL SINGLE POINT ENERGY      -309.776089780819
-------------------------   --------------------

------------------------------------------------------------------------------
                         ORCA SCF GRADIENT CALCULATION
------------------------------------------------------------------------------

Nuc. rep. gradient        (SHARK) ... done (  0.0 sec)
HCore & Overlap gradient  (SHARK) ... done (  0.2 sec)
Split-RIJ-J gradient      (SHARK) ... done (  1.1 sec)
XC gradient                       ... done (  3.9 sec)
CPCM gradient                     ... done (  1.1 sec)
SMD gradient                      ... done (  0.0 sec)
Dispersion correction             ... done (  0.0 sec)

-------------------
DISPERSION GRADIENT
-------------------

   1   C   :    0.000067797   -0.000058387    0.000009617
   2   C   :    0.000065001    0.000000185   -0.000023538
   3   C   :    0.000041471    0.000046353   -0.000003920
   4   C   :   -0.000023410    0.000031167   -0.000014841
   5   C   :   -0.000078995    0.000022910    0.000031853
   6   C   :   -0.000091318   -0.000005855    0.000016944
   7   O   :   -0.000074115   -0.000017426   -0.000021371
   8   H   :    0.000032305   -0.000024549    0.000013249
   9   H   :    0.000031284   -0.000034362    0.000000660
  10   H   :    0.000023778   -0.000026237    0.000001099
  11   H   :    0.000024597   -0.000003025   -0.000017207
  12   H   :    0.000026911    0.000002258   -0.000005451
  13   H   :    0.000014260    0.000029953   -0.000011245
  14   H   :    0.000014821    0.000021340    0.000007772
  15   H   :   -0.000019628    0.000008083   -0.000018903
  16   H   :   -0.000027065    0.000012561    0.000027303
  17   H   :   -0.000027693   -0.000004968    0.000007978

Difference to translation invariance:
           :    0.0000000000    0.0000000000    0.0000000000

Difference to rotation invariance:
           :   -0.0000000000    0.0000000000    0.0000000000

Norm of the Dispersion gradient    ...    0.0002310005
RMS gradient                       ...    0.0000323465
MAX gradient                       ...    0.0000913178
gCP correction                   ... done

------------------
CARTESIAN GRADIENT
------------------

   1   C   :    0.000011630   -0.000117198   -0.000042209
   2   C   :   -0.000002242    0.000175157   -0.000017575
   3   C   :    0.000027303   -0.000104155   -0.000028527
   4   C   :    0.000067696    0.000122924   -0.000158607
   5   C   :   -0.000111567   -0.000039035    0.000041223
   6   C   :    0.000162128    0.000023850    0.000086543
   7   O   :   -0.000110646   -0.000053165   -0.000245531
   8   H   :    0.000027905    0.000026382    0.000099790
   9   H   :    0.000005335   -0.000004180   -0.000020662
  10   H   :    0.000086075   -0.000065186   -0.000017480
  11   H   :    0.000040471   -0.000000491    0.000003067
  12   H   :   -0.000004511   -0.000004949    0.000029031
  13   H   :   -0.000071675    0.000019936   -0.000003075
  14   H   :   -0.000020489   -0.000023211    0.000016094
  15   H   :   -0.000026723   -0.000076395   -0.000031604
  16   H   :    0.000021304   -0.000020045    0.000133418
  17   H   :   -0.000101994    0.000139761    0.000156103

Difference to translation invariance:
           :   -0.0000000000   -0.0000000000   -0.0000000000

Difference to rotation invariance:
           :   -0.0000191838   -0.0000116747   -0.0001880839

Norm of the Cartesian gradient     ...    0.0005856170
RMS gradient                       ...    0.0000820028
MAX gradient                       ...    0.0002455315

-------
TIMINGS
-------

Total SCF gradient time     ....        6.310 sec

Densities                   ....       0.000 sec  (  0.0%)
One electron gradient       ....       0.181 sec  (  2.9%)
RI-J Coulomb gradient       ....       1.086 sec  ( 17.2%)
XC gradient                 ....       3.897 sec  ( 61.8%)
CPCM gradient               ....       1.090 sec  ( 17.3%)
   A-Matrix (El+Nuc)        ....       0.068 sec  (  1.1%)
   Potential                ....       1.021 sec  ( 16.2%)
SMD gradient                ....       0.005 sec  (  0.1%)

Maximum memory used throughout the entire SCFGRAD-calculation: 33.3 MB

------------------------------------------------------------------------------
                              ORCA PROPERTY CALCULATIONS
------------------------------------------------------------------------------

GBWName                                 ... xtb_opt.gbw
Number of atoms                         ...     17
Number of basis functions               ...    188
Max core memory                         ...   1024 MB

Electric properties:
Dipole moment                           ... YES
Quadrupole moment                       ...  NO
Static polarizability (Dipole/Dipole)   ...  NO
Static polarizability (Dipole/Quad.)    ...  NO
Static polarizability (Quad./Quad.)     ...  NO
Static polarizability (Velocity)        ...  NO

Atomic electric properties:
Dipole moment                           ...  NO
Quadrupole moment                       ...  NO
Static polarizability                   ...  NO

Choice of electric origin               ... Center of mass
Position of electric origin             ...    -0.020344     0.010745    -0.001359

General magnetic properties:
Magnetizability                         ...  NO

EPR properties:
g-Tensor (aka g-matrix)                 ...  NO
Zero-Field splitting spin-orbit         ...  NO
Zero-field splitting spin-spin          ...  NO
Hyperfine couplings                     ...  NO (   0 nuclei)
Quadrupole couplings                    ...  NO (   0 nuclei)
Contact density                         ...  NO (   0 nuclei)

NMR properties:
Chemical shifts                         ...  NO (   0 nuclei)
Spin-rotation constants                 ...  NO (   0 nuclei)
Spin-spin couplings                     ...  NO (   0 nuclei,    0 pairs)

Choice of magnetic origin               ... GIAO
Position of magnetic origin             ...     0.000000     0.000000     0.000000

Properties with geometric perturbations:
SCF Hessian                             ...  NO
IR spectrum                             ...  NO
VCD spectrum                            ...  NO
X-ray spectroscopy properties:
SCF XES/XAS/RIXS spectra                ...  NO


-------------
DIPOLE MOMENT
-------------

Method             : SCF
Type of density    : Electron Density
Multiplicity       :   1
Irrep              :   0
Energy             :  -309.7785221142578393 Eh
Relativity type    : 
Basis              : AO
                                X                 Y                 Z
Electronic contribution:     -9.136500759       1.195288690      -0.713800959
Nuclear contribution   :     10.775281895      -0.521871680       1.661606978
                        -----------------------------------------
Total Dipole Moment    :      1.638781137       0.673417010       0.947806019
                        -----------------------------------------
Magnitude (a.u.)       :      2.009335794
Magnitude (Debye)      :      5.107325703



--------------------
Rotational spectrum 
--------------------
 
Rotational constants in cm-1:             0.191947             0.038430             0.036537 
Rotational constants in MHz :          5754.439365          1152.110309          1095.356898 

Dipole components along the rotational axes: 
x,y,z [a.u.] :     1.607009     0.756864    -0.939206 
x,y,z [Debye]:     4.084693     1.923796    -2.387273 

 

Dipole moment calculation done in   0.0 sec 

Maximum memory used throughout the entire PROP-calculation: 11.7 MB

--------------------------------
SUGGESTED CITATIONS FOR THIS RUN
--------------------------------

Below you find a list of papers that are relevant to this ORCA run
We neither can nor want to force you to cite these papers, but we appreciate if you do
You receive ORCA, which is the product of decades of hard work by many enthusiastic individuals, for free
The only thing we kindly ask in return is that you cite our papers,
We deeply appreciate it, if you show your appreciation for ORCA by not just citing the generic ORCA reference.

Please note that relegating all ORCA citations to the supporting information does *not* help us.
SI sections are not indexed - citations you put there will not count into any citation statistics
But we need these citations in order to attract the funding resources that allow us to do what we are doing

Therefore, if you are a happy ORCA user, please consider citing a few of the papers listed below in the main body of your paper

In addition to the list printed below, the program has created the file xtb_opt.bibtex that contains the list in bibtex format
You can import this file easily into all common literature databanks and citation aid programs


List of essential papers. We consider these as the minimum necessary citations

  1. Neese,F.
     Software update: the ORCA program system, version 5.0
     WIRES Comput. Molec. Sci., 2022 12(1)e1606
     doi.org/10.1002/wcms.1606
  2. Grimme,S.; Hansen,A.; Ehlert,S.; Mewes,J.
     r2SCAN-3c: A 'Swiss army knife' composite electronic-structure method
     J. Chem. Phys., 2021 154 064103
     doi.org/10.1063/5.0040021

List of papers to cite with high priority. The work reported in these papers was absolutely
necessary for this run to complete.
Our perspective: the developers of density functionals and basis sets usually get cited in chemistry papers
Good! But without the algorithms to do something with them, the functionals or basis sets would not do anything.
Hence, in our opinion, the algorithm design and method developments papers are equally worthy of getting cited

  1. Neese,F.
     An improvement of the resolution of the identity approximation for the formation of the Coulomb matrix
     J. Comp. Chem., 2003 24(14)1740-1747
     doi.org/10.1002/jcc.10318
  2. Garcia-Rates,M.; Neese,F.
     Effect of the Solute Cavity on the Solvation Energy and its Derivatives within the Framework of the Gaussian Charge Scheme
     J. Comput. Chem., 2020 41 922-939
     doi.org/10.1002/jcc.26139
  3. Neese,F.
     The SHARK Integral Generation and Digestion System
     J. Comp. Chem., 2022  1-16
     doi.org/10.1002/jcc.26942
  4. Lehtola,S.; Steigemann,C.; Oliveira,M.; Marques,M.
     Recent developments in Libxc - A comprehensive library of functionals for density functional theory
     Software X, 2018 7 
     doi.org/10.1016/j.softx.2017.11.002
  5. Caldeweyher,E.; Bannwarth,C.; Grimme,S.
     Extension of the D3 dispersion coefficient model
     J. Chem. Phys., 2017 147 034112
     doi.org/10.1063/1.4993215
  6. Caldeweyher,E.; Ehlert,S.; Hansen,A.; Neugebauer,H.; Spicher,S.; Bannwarth,C.; Grimme,S.
     A generally applicable atomic-charge dependent London dispersion correction
     J. Chem. Phys., 2019 150 154122
     doi.org/10.1063/1.5090222
  7. Caldeweyher,E.; Mewes,J.; Ehlert,S.; Grimme,S.
     Extension and evaluation of the D4 London-dispersion model for periodic systems
     Phys. Chem. Chem. Phys., 2020 22(16)8499-8512
     doi.org/10.1039/D0CP00502A
  8. Wittmann,L.; Gordiy,I.; Friede,M.; Helmich-Paris,B.; Grimme,S.; Hansen,A.; Bursch,M.
     Extension of the D3 and D4 London Dispersion Corrections to the full Actinides Series
     Phys. Chem. Chem. Phys., 2024 26(32)21379-21394
     doi.org/https://doi.org/10.1039/D4CP01514B 

List of suggested additional citations. These are papers that are important in the 'surrounding' of 
of this run, or papers that preceded the highly important papers. If you like your results we are grateful for a citation.

  1. Neese,F.
     The ORCA program system
     WIRES Comput. Molec. Sci., 2012 2(1)73-78
     doi.org/10.1002/wcms.81
  2. Neese,F.
     Software update: the ORCA program system, version 4.0
     WIRES Comput. Molec. Sci., 2018 8(1)1-6
     doi.org/10.1002/wcms.1327
  3. Neese,F.; Wennmohs,F.; Becker,U.; Riplinger,C.
     The ORCA quantum chemistry program package
     J. Chem. Phys., 2020 152 Art. No. L224108
     doi.org/10.1063/5.0004608

List of optional additional citations

  1. Neese,F.
     Approximate second-order SCF convergence for spin unrestricted wavefunctions
     Chem. Phys. Lett., 2000 325(1-3)93-98
     doi.org/10.1016/s0009-2614(00)00662-x

Timings for individual modules:

Sum of individual times          ...      128.899 sec (=   2.148 min)
Startup calculation              ...        0.741 sec (=   0.012 min)   0.6 %
SCF iterations                   ...      121.317 sec (=   2.022 min)  94.1 %
Property calculations            ...        0.122 sec (=   0.002 min)   0.1 %
SCF Gradient evaluation          ...        6.719 sec (=   0.112 min)   5.2 %
                             ****ORCA TERMINATED NORMALLY****
TOTAL RUN TIME: 0 days 0 hours 2 minutes 9 seconds 726 msec
  ------------------------------------------------------------------------
          * successful ORCA run, taking over control again...
av. E:   -309.7760898 ->   -309.7760898
av. G:      0.0005176 ->      0.0005176
 * total energy  :  -309.7760898 Eh     change       -0.4686512E-05 Eh
   gradient norm :     0.0005855 Eh/a0  converged?    E=T G=T D=F
   step length   :     0.0801031 a0

   *** GEOMETRY OPTIMIZATION CONVERGED AFTER 8 CYCLES ***

------------------------------------------------------------------------
 total energy gain   :        -0.0009043 Eh       -0.5675 kcal/mol
 total RMSD          :         0.0916209 a0        0.0485 Å
 total power (kW/mol):        -0.2967919 (step)   -0.0064 (real)
------------------------------------------------------------------------

 L-ANCopt (total)              0 d,  0 h,  6 min, 11.204 sec
 setup                          ...        0 min,  0.001 sec (  0.000%)
 model hessian                  ...        0 min,  0.047 sec (  0.013%)
 ANC generation                 ...        0 min,  0.032 sec (  0.009%)
 coordinate transformation      ...        0 min,  0.027 sec (  0.007%)
 Rational function              ...        0 min,  0.000 sec (  0.000%)
 singlepoint calculation        ...        6 min, 11.092 sec ( 99.970%)
 optimization log               ...        0 min,  0.004 sec (  0.001%)
 hessian update                 ...        0 min,  0.000 sec (  0.000%)

================
 final structure:
================
$coord
        4.45701186252199       -2.42726836174678        0.52592546872509      C
        4.49956030994252        0.04979918571440       -0.94689002969483      C
        2.49147418136032        1.94012606569520       -0.01657616697673      C
       -0.12000997529803        1.00940228955380       -0.42591449304396      C
       -1.89885722269768        0.78225906436221        1.37578255462385      C
       -4.44228574875131       -0.12921071954889        0.84713454886498      C
       -5.22843628916703       -0.79515692056617       -1.24017086922101      O
        4.72511815570561       -2.08675439068642        2.55136145562518      H
        2.65285657509883       -3.41466750207931        0.28712118289511      H
        5.96143761422468       -3.69624114014170       -0.11074384306339      H
        4.20166703024601       -0.31804216166417       -2.96452160473664      H
        6.35662653816022        0.94620767577616       -0.76644059785282      H
        2.71106620609110        3.70199969885876       -1.09703513107072      H
        2.79350961560612        2.38483090670756        1.98316816190784      H
       -0.60576275396999        0.46551235396715       -2.35512879646116      H
       -1.48978751702367        1.28959028230318        3.32531314294920      H
       -5.72391452656298       -0.20346327093994        2.49974878724821      H
$end
 
 Bond Distances (Angstroems)
 ---------------------------
C1-C2=1.5252         C1-H8=1.0961         C1-H9=1.0957         C1-H10=1.0946        C2-C1=1.5252         C2-C3=1.5402         
C2-H11=1.0967        C2-H12=1.0954        C3-C2=1.5402         C3-C4=1.4830         C3-H13=1.0999        C3-H14=1.0958        
C4-C3=1.4830         C4-C5=1.3452         C4-H15=1.0914        C5-C4=1.3452         C5-C6=1.4569         C5-H16=1.0878        
C6-C5=1.4569         C6-O7=1.2318         C6-H17=1.1074        O7-C6=1.2318         H8-C1=1.0961         H9-C1=1.0957         
H10-C1=1.0946        H11-C2=1.0967        H12-C2=1.0954        H13-C3=1.0999        H14-C3=1.0958        H15-C4=1.0914        
H16-C5=1.0878        H17-C6=1.1074        
 C  H  Rav=1.0961 sigma=0.0049  Rmin=1.0878  Rmax=1.1074    10
 C  C  Rav=1.4701 sigma=0.0691  Rmin=1.3452  Rmax=1.5402     5
 O  C  Rav=1.2318 sigma=0.0000  Rmin=1.2318  Rmax=1.2318     1
 
 selected bond angles (degree)
 --------------------
H8-C1-C2=110.89                H9-C1-C2=111.33                H9-C1-H8=107.70                H10-C1-C2=111.05               
H10-C1-H8=107.92               H10-C1-H9=107.80               C3-C2-C1=112.62                H11-C2-C1=110.05               
H11-C2-C3=109.10               H12-C2-C1=109.93               H12-C2-C3=108.05               H12-C2-H11=106.90              
C4-C3-C2=112.37                H13-C3-C2=108.15               H13-C3-C4=107.70               H14-C3-C2=110.34               
H14-C3-C4=110.38               H14-C3-H13=107.73              C5-C4-C3=125.33                H15-C4-C3=116.34               
H15-C4-C5=118.33               C6-C5-C4=122.68                H16-C5-C4=120.72               H16-C5-C6=116.60               
O7-C6-C5=125.37                H17-C6-C5=115.21               H17-C6-O7=119.42               
 
 selected dihedral angles (degree)
 ---------------------------------
C3-C2-C1-H8=302.80            C3-C2-C1-H9= 62.69            C3-C2-C1-H10=182.82           H11-C2-C1-H8=180.82           
H11-C2-C1-H9=300.71           H11-C2-C1-H10= 60.84          H12-C2-C1-H8= 63.34           H12-C2-C1-H9=183.23           
H12-C2-C1-H10=303.36          C4-C3-C2-C1=295.76            C4-C3-C2-H11= 58.26           C4-C3-C2-H12=174.14           
H13-C3-C2-C1=177.01           H13-C3-C2-H11=299.52          H13-C3-C2-H12= 55.40          H14-C3-C2-C1= 59.41           
H14-C3-C2-H11=181.92          H14-C3-C2-H12=297.79          C5-C4-C3-C2=124.86            C5-C4-C3-H13=243.87           
C5-C4-C3-H14=  1.23           H15-C4-C3-C2=305.11           H15-C4-C3-H13= 64.11          H15-C4-C3-H14=181.48          
C6-C5-C4-C3=179.53            C6-C5-C4-H15=359.28           H16-C5-C4-C3=359.78           H16-C5-C4-H15=179.54          
O7-C6-C5-C4=  0.58            O7-C6-C5-H16=180.34           H17-C6-C5-C4=180.64           H17-C6-C5-H16=  0.39          
           -------------------------------------------------
          |                Final Singlepoint                |
           -------------------------------------------------
                         * ORCA takes the control...
  ------------------------------------------------------------------------

                                 *****************
                                 * O   R   C   A *
                                 *****************

                                            #,                                       
                                            ###                                      
                                            ####                                     
                                            #####                                    
                                            ######                                   
                                           ########,                                 
                                     ,,################,,,,,                         
                               ,,#################################,,                 
                          ,,##########################################,,             
                       ,#########################################, ''#####,          
                    ,#############################################,,   '####,        
                  ,##################################################,,,,####,       
                ,###########''''           ''''###############################       
              ,#####''   ,,,,##########,,,,          '''####'''          '####       
            ,##' ,,,,###########################,,,                        '##       
           ' ,,###''''                  '''############,,,                           
         ,,##''                                '''############,,,,        ,,,,,,###''
      ,#''                                            '''#######################'''  
     '                                                          ''''####''''         
             ,#######,   #######,   ,#######,      ##                                
            ,#'     '#,  ##    ##  ,#'     '#,    #''#        ,####,   ,####,        
            ##       ##  ##   ,#'  ##            #'  '#       #'       #'  '#        
            ##       ##  #######   ##           ,######,      #####,   #    #        
            '#,     ,#'  ##    ##  '#,     ,#' ,#      #,     #,   #   #,  ,#        
             '#######'   ##     ##  '#######'  #'      '#     '####' # '####'        



                #########################################################
                #                        -***-                          #
                #          Department of theory and spectroscopy        #
                #                                                       #
                #                      Frank Neese                      #
                #                                                       #
                #     Directorship, Architecture, Infrastructure        #
                #                    SHARK, DRIVERS                     #
                #        Core code/Algorithms in most modules           #
                #                                                       #
                #        Max Planck Institute fuer Kohlenforschung      #
                #                Kaiser Wilhelm Platz 1                 #
                #                 D-45470 Muelheim/Ruhr                 #
                #                      Germany                          #
                #                                                       #
                #                  All rights reserved                  #
                #                        -***-                          #
                #########################################################


                         Program Version 6.0.1  -  RELEASE   -


 With contributions from (in alphabetic order):
[Max-Planck-Institut fuer Kohlenforschung]                               
  Daniel Aravena         : Magnetic Suceptibility                        
  Michael Atanasov       : Ab Initio Ligand Field Theory (pilot matlab implementation)
  Alexander A. Auer      : GIAO ZORA, VPT2 properties, NMR spectrum      
  Ute Becker             : All parallelization in ORCA, NUMFREQ, NUMCALC 
  Giovanni Bistoni       : ED, misc. LED, open-shell LED, HFLD           
  Martin Brehm           : Molecular dynamics                            
  Dmytro Bykov           : pre 5.0 version of the SCF Hessian            
  Marcos Casanova-Páez   : Triplet and SCS-CIS(D). UHF-(DLPNO)-IP/EA/STEOM-CCSD. UHF-CVS-IP/STEOM-CCSD   
  Vijay G. Chilkuri      : MRCI spin determinant printing, contributions to CSF-ICE 
  Pauline Colinet        : FMM embedding                                 
  Dipayan Datta          : RHF DLPNO-CCSD density                        
  Achintya Kumar Dutta   : EOM-CC, STEOM-CC                              
  Nicolas Foglia         : Exact transition moments, OPA infrastructure, MCD improvements    
  Dmitry Ganyushin       : Spin-Orbit,Spin-Spin,Magnetic field MRCI      
  Miquel Garcia-Rates    : C-PCM and meta-GGA Hessian, CCSD/C-PCM, Gaussian charge scheme 
  Tiago L. C. Gouveia    : GS-ROHF, GS-ROCIS                             
  Yang Guo               : DLPNO-NEVPT2, F12-NEVPT2, CIM, IAO-localization        
  Andreas Hansen         : Spin unrestricted coupled pair/coupled cluster methods 
  Ingolf Harden          : AUTO-CI MPn and infrastructure                
  Benjamin Helmich-Paris : MC-RPA, TRAH-(SCF,CASSCF), AVAS, COSX integrals, SCF dyn. polar. 
  Lee Huntington         : MR-EOM, pCC                                   
  Robert Izsak           : Overlap fitted RIJCOSX, COSX-SCS-MP3, EOM     
  Riya Kayal             : Wick's Theorem for AUTO-CI, AUTO-CI UHF-CCSDT 
  Emily Kempfer          : AUTO-CI, RHF CISDT and CCSDT                  
  Christian Kollmar      : KDIIS, OOCD, Brueckner-CCSD(T), CCSD density, CASPT2, CASPT2-K, improved NEVPT2 
  Axel Koslowski         : Symmetry handling                             
  Simone Kossmann        : meta-GGA functionals, TD-DFT gradient, OOMP2, (MP2 Hessian; deprecated post 5.0) 
  Lucas Lang             : DCDCAS                                        
  Marvin Lechner         : AUTO-CI (C++ implementation), FIC-MRCC        
  Spencer Leger          : CASSCF response                               
  Dagmar Lenk            : GEPOL surface, SMD, ORCA-2-JSON               
  Dimitrios Liakos       : Extrapolation schemes; Compound Job, initial MDCI parallelization 
  Dimitrios Manganas     : Further ROCIS development; embedding schemes. LFT, Crystal Embedding 
  Dimitrios Pantazis     : SARC Basis sets                               
  Anastasios Papadopoulos: AUTO-CI, single reference methods and gradients 
  Taras Petrenko         : pre 6.0 DFT Hessian and TD-DFT gradient, (ASA, deprecated), ECA, 1-Electron XAS/XES, NRVS 
  Peter Pinski           : DLPNO-MP2, DLPNO-MP2 Gradient                 
  Christoph Reimann      : Effective Core Potentials                     
  Marius Retegan         : Local ZFS, SOC                                
  Christoph Riplinger    : Optimizer, TS searches, QM/MM, DLPNO-CCSD(T), (RO)-DLPNO pert. Triples 
  Michael Roemelt        : Original ROCIS implementation                 
  Masaaki Saitow         : Open-shell DLPNO-CCSD energy and density      
  Barbara Sandhoefer     : DKH picture change effects                    
  Kantharuban Sivalingam : CASSCF convergence/infrastructure, NEVPT2 and variants, FIC-MRCI 
  Bernardo de Souza      : ESD, SOC TD-DFT                               
  Georgi L. Stoychev     : AutoAux, RI-MP2 NMR, DLPNO-MP2 response, X2C  
  Van Anh Tran           : RI-MP2 g-tensors                              
  Willem Van den Heuvel  : Paramagnetic NMR                              
  Zikuan Wang            : NOTCH, Electric field optimization            
  Frank Wennmohs         : Technical directorship and infrastructure     
  Hang Xu                : AUTO-CI-Response properties                   
                                                                         
[FACCTs GmbH]                                                            
  Markus Bursch, Miquel Garcia-Rates, Christoph Riplinger, Bernardo de Souza, Georgi L. Stoychev 
                                                                 
  APM, Basis sets (HGBS, AHGBS, def-TZVP (Ac-Lr), def2-XVPD (La-Lu)), CI-OPT, improved COSX, DLPNO-Multilevel,           
  DOCKER, DRACO, updates on ESD, GOAT, IRC, LR-CPCM, MBIS, meta-GGA TD-DFT gradient, ML-optimized integration grids, 
  MM, NACMEs, nearIR, NEB, NEB-TS, NL-DFT gradient (VV10), 2- and 3-layer-ONIOM, interface openCOSMO-RS, QMMM,   
  Crystal-QMMM, SF, symmetry and pop. for TD-DFT, r2SCAN hybrids, SOLVATOR                                   
                                                                         
[Other institutions]                                                     
  V. Asgeirsson          : NEB                                           
  Christoph Bannwarth    : sTDA-DFT, sTD-DFT, PBEh-3c, B97-3c, D3        
  Sebastian Ehlert       : rSCAN, r2SCAN, r2SCAN-3c, D4, dhf basis sets  
  Marvin Friede          : D4 for Fr, Ra, Ac-Lr                          
  Lars Goerigk           : TD-DFT with DH, B97 family of functionals     
  Stefan Grimme          : VdW corrections, initial TS optimization, DFT functionals, gCP, sTDA/sTD-DF 
  Waldemar Hujo          : DFT-NL                                        
  H. Jonsson             : NEB                                           
  Holger Kruse           : gCP                                           
  Marcel Mueller         : wB97X-3c, vDZP basis set                      
  Hagen Neugebauer       : wr2SCAN                                       
  Tobias Risthaus        : range-separated hybrid DFT                    
  Lukas Wittmann         : regularized MP2, r2SCAN double-hybrids, wr2SCAN        
                                                                         
We gratefully acknowledge several colleagues who have allowed us to      
interface, adapt or use parts of their codes:                            
  Ed Valeev, F. Pavosevic, A. Kumar             : LibInt (2-el integral package), F12 methods 
  Garnet Chan, S. Sharma, J. Yang, R. Olivares  : DMRG                   
  Ulf Ekstrom                                   : XCFun DFT Library      
  Mihaly Kallay                                 : mrcc  (arbitrary order and MRCC methods)
  Frank Weinhold                                : gennbo (NPA and NBO analysis)           
  Simon Mueller                                 : openCOSMO-RS                            
  Christopher J. Cramer and Donald G. Truhlar   : smd solvation model                     
  S Lehtola, MJT Oliveira, MAL Marques          : LibXC Library                           
  Liviu Ungur et al                             : ANISO software                          


 Your calculation uses the libint2 library for the computation of 2-el integrals
 For citations please refer to: http://libint.valeyev.net

 Your ORCA version has been built with support for libXC version: 6.2.2
 For citations please refer to: https://libxc.gitlab.io

 This ORCA versions uses:
   CBLAS   interface :  Fast vector & matrix operations
   LAPACKE interface :  Fast linear algebra routines
   SCALAPACK package :  Parallel linear algebra routines
   Shared memory     :  Shared parallel matrices
   BLAS/LAPACK       :  OpenBLAS 0.3.27  USE64BITINT DYNAMIC_ARCH NO_AFFINITY Zen SINGLE_THREADED
        Core in use  :  Zen
   Copyright (c) 2011-2014, The OpenBLAS Project




***************************************
The coordinates will be read from file: xtb_opt.xyz
***************************************


Your calculation utilizes the geometrical counterpoise correction gCP
Please cite in your paper:
H.Kruse, S. Grimme J.Chem.Phys., 136, (2012), 154101 
   

Your calculation utilizes the atom-pairwise dispersion correction
based on EEQ partial charges (D4)


Your calculation utilizes the SMD solvation module
Please cite in your paper:
A.V. Marenich, C.J. Cramer, D.G. Truhlar J. Phys. Chem. B, 113, (2009), 6378 

================================================================================

----- Orbital basis set information -----
Your calculation utilizes the basis: def2-mTZVPP
   Stefan Grimme, Andreas Hansen, Sebastian Ehlert, and Jan-Michael Mewes 
   J. Chem. Phys. 154, 064103 (2021). DOI: 10.1063/5.0040021

----- AuxJ basis set information -----
Your calculation utilizes the auxiliary basis: def2/J
   F. Weigend, Phys. Chem. Chem. Phys. 8, 1057 (2006).

================================================================================
                                        WARNINGS
                       Please study these warnings very carefully!
================================================================================

WARNING: Old DensityContainer found on disk!
         Will remove this file - 
         If you want to keep old densities, please start your calculation with a different basename. 



WARNING: SCAN, rSCAN, or r2SCAN functional requested.
  ===> : libXC variant has now been activated.



================================================================================
                                       INPUT FILE
================================================================================
NAME = xtb_opt.inp
|  1> ! r2scan-3c def2/J RI DEFGRID2 scfconv7 ENGRAD tightSCF miniprint
|  2> %cpcm
|  3>     smd true
|  4>     smdsolvent "water"
|  5> end
|  6> * xyzfile 0 1 xtb_opt.xyz
|  7> 
|  8>                          ****END OF INPUT****
================================================================================

                     *******************************
                     * Energy+Gradient Calculation *
                     *******************************

---------------------------------
CARTESIAN COORDINATES (ANGSTROEM)
---------------------------------
  C      2.358549   -1.284455    0.278308
  C      2.381065    0.026353   -0.501073
  C      1.318431    1.026671   -0.008772
  C     -0.063507    0.534153   -0.225384
  C     -1.004832    0.413954    0.728033
  C     -2.350756   -0.068375    0.448284
  O     -2.766769   -0.420779   -0.656270
  H      2.500425   -1.104263    1.350122
  H      1.403831   -1.806964    0.151938
  H      3.154657   -1.955967   -0.058603
  H      2.223426   -0.168301   -1.568757
  H      3.363782    0.500712   -0.405583
  H      1.434634    1.959014   -0.580526
  H      1.478262    1.261998    1.049447
  H     -0.320556    0.246339   -1.246280
  H     -0.788362    0.682422    1.759680
  H     -3.028965   -0.107668    1.322810

----------------------------
CARTESIAN COORDINATES (A.U.)
----------------------------
  NO LB      ZA    FRAG     MASS         X           Y           Z
   0 C     6.0000    0    12.011    4.457012   -2.427268    0.525925
   1 C     6.0000    0    12.011    4.499560    0.049799   -0.946890
   2 C     6.0000    0    12.011    2.491474    1.940126   -0.016576
   3 C     6.0000    0    12.011   -0.120010    1.009402   -0.425914
   4 C     6.0000    0    12.011   -1.898857    0.782259    1.375783
   5 C     6.0000    0    12.011   -4.442286   -0.129211    0.847135
   6 O     8.0000    0    15.999   -5.228436   -0.795157   -1.240171
   7 H     1.0000    0     1.008    4.725118   -2.086754    2.551361
   8 H     1.0000    0     1.008    2.652857   -3.414668    0.287121
   9 H     1.0000    0     1.008    5.961438   -3.696241   -0.110744
  10 H     1.0000    0     1.008    4.201667   -0.318042   -2.964522
  11 H     1.0000    0     1.008    6.356627    0.946208   -0.766441
  12 H     1.0000    0     1.008    2.711066    3.702000   -1.097035
  13 H     1.0000    0     1.008    2.793510    2.384831    1.983168
  14 H     1.0000    0     1.008   -0.605763    0.465512   -2.355129
  15 H     1.0000    0     1.008   -1.489788    1.289590    3.325313
  16 H     1.0000    0     1.008   -5.723915   -0.203463    2.499749

------------------------------------------------------------------------------
                   ___                                                        
                  /   \      - P O W E R E D   B Y -                         
                 /     \                                                     
                 |  |  |   _    _      __       _____    __    __             
                 |  |  |  | |  | |    /  \     |  _  \  |  |  /  |          
                  \  \/   | |  | |   /    \    | | | |  |  | /  /          
                 / \  \   | |__| |  /  /\  \   | |_| |  |  |/  /          
                |  |  |   |  __  | /  /__\  \  |    /   |      \           
                |  |  |   | |  | | |   __   |  |    \   |  |\   \          
                \     /   | |  | | |  |  |  |  | |\  \  |  | \   \       
                 \___/    |_|  |_| |__|  |__|  |_| \__\ |__|  \__/        
                                                                              
                      - O R C A' S   B I G   F R I E N D -                    
                                      &                                       
                       - I N T E G R A L  F E E D E R -                       
                                                                              
 v1 FN, 2020, v2 2021, v3 2022-2024                                           
------------------------------------------------------------------------------


----------------------
SHARK INTEGRAL PACKAGE
----------------------

Number of atoms                             ...     17
Number of basis functions                   ...    188
Number of shells                            ...     94
Maximum angular momentum                    ...      2
Integral batch strategy                     ... SHARK/LIBINT Hybrid
RI-J (if used) integral strategy            ... SPLIT-RIJ (Revised 2003 algorithm where possible)
Printlevel                                  ...      1
Contraction scheme used                     ... SEGMENTED contraction
Prescreening option                         ... SCHWARTZ
   Thresh                                   ... 3.000e-11
   Tcut                                     ... 1.000e-12
   Tpresel                                  ... 1.000e-12 
Coulomb Range Separation                    ... NOT USED
Exchange Range Separation                   ... NOT USED
Multipole approximations                    ... NOT USED
Finite Nucleus Model                        ... NOT USED
CABS basis                                  ... NOT available
Auxiliary Coulomb fitting basis             ... AVAILABLE
   # of basis functions in Aux-J            ...    453
   # of shells in Aux-J                     ...    155
   Maximum angular momentum in Aux-J        ...      4
Auxiliary J/K fitting basis                 ... NOT available
Auxiliary Correlation fitting basis         ... NOT available
Auxiliary 'external' fitting basis          ... NOT available

Checking pre-screening integrals            ... done (  0.0 sec) Dimension = 94
Check shell pair data                       ... done (  0.0 sec)
Shell pair information
Shell pair cut-off parameter TPreSel        ...   1.0e-12
Total number of shell pairs                 ...      4465
Shell pairs after pre-screening             ...      4015
Total number of primitive shell pairs       ...     15937
Primitive shell pairs kept                  ...     10406
          la=0 lb=0:   1369 shell pairs
          la=1 lb=0:   1540 shell pairs
          la=1 lb=1:    457 shell pairs
          la=2 lb=0:    392 shell pairs
          la=2 lb=1:    223 shell pairs
          la=2 lb=2:     34 shell pairs

Calculating one electron integrals          ... done (  0.0 sec)
Calculating RI/J V-Matrix + Cholesky decomp.... done (  0.0 sec)
Calculating Nuclear repulsion               ... done (  0.0 sec) ENN=    280.661214872740 Eh

Diagonalization of the overlap matrix:
Smallest eigenvalue                        ... 1.891e-04
Time for diagonalization                   ...    0.003 sec
Threshold for overlap eigenvalues          ... 1.000e-07
Number of eigenvalues below threshold      ... 0
Time for construction of square roots      ...    0.013 sec
Total time needed                          ...    0.018 sec

-------------------
DFT GRID GENERATION
-------------------

General Integration Accuracy     IntAcc      ... 4.388
Radial Grid Type                 RadialGrid  ... OptM3 with GC (2021)
Angular Grid (max. ang.)         AngularGrid ... 4 (Lebedev-302)
Angular grid pruning method      GridPruning ... 4 (adaptive)
Weight generation scheme         WeightScheme... mBecke (2022)
Basis function cutoff            BFCut       ... 1.0000e-11
Integration weight cutoff        WCut        ... 1.0000e-14
Partially contracted basis set               ... off
Rotationally invariant grid construction     ... off
Angular grids for H and He will be reduced by one unit
Diffuse basis detected: some atoms will have their outermost
                        angular grid increased by 1.

Total number of grid points                  ...    74703
Total number of batches                      ...     1176
Average number of points per batch           ...       63
Average number of grid points per atom       ...     4394
Initializing property integral containers    ... done (  0.0 sec)

SHARK setup successfully completed in   0.7 seconds

Maximum memory used throughout the entire STARTUP-calculation: 33.9 MB
Occupation numbers will be reassigned to an Aufbau configuration
             **** ENERGY FILE WAS UPDATED (xtb_opt.en.tmp) ****
Finished Guess after   0.1 sec
Maximum memory used throughout the entire GUESS-calculation: 13.2 MB
--------------------
CPCM SOLVATION MODEL
--------------------
CPCM parameters:
  Epsilon                                         ...      78.3550
  Refrac                                          ...       1.3328
  Rsolv                                           ...       1.3000
  Surface type                                    ... GAUSSIAN VDW
  Discretization scheme                           ... Constant charge density
    Threshold for H atoms                         ...       5.0000 (charges/Ang^2)
    Threshold for non-H atoms                     ...       5.0000 (charges/Ang^2)
  Epsilon function type                           ...         CPCM
Solvent:                                          ... WATER
SMD-CDS solvent descriptors:
  Soln                                            ...       1.3328
  Soln25                                          ...       1.3323
  Sola                                            ...       0.0000
  Solb                                            ...       0.0000
  Solg                                            ...       0.0000
  Solc                                            ...       0.0000
  Solh                                            ...       0.0000
Radii:
  Scheme                                          ... Element-dependent radii
  Radius for C  used is    3.4960 Bohr (=   1.8500 Ang.)
  Radius for O  used is    2.8724 Bohr (=   1.5200 Ang.)
  Radius for H  used is    2.2677 Bohr (=   1.2000 Ang.)
Calculating surface                               ...        done! (  0.0s)
Cavity surface points                             ...         1327
Cavity Volume                                     ...     791.6630
Cavity Surface-area                               ...     528.5906
Calculating surface distance matrix               ...        done! (  0.0s)
Performing Cholesky decomposition & store         ...        done! (  0.0s)
Overall time for CPCM initialization              ...                 0.1s

----------------------------------------D-I-I-S--------------------------------------------
Iteration    Energy (Eh)           Delta-E    RMSDP     MaxDP     DIISErr   Damp  Time(sec)
-------------------------------------------------------------------------------------------
               ***  Starting incremental Fock matrix formation  ***
                              *** Initializing SOSCF ***
---------------------------------------S-O-S-C-F--------------------------------------
Iteration    Energy (Eh)           Delta-E    RMSDP     MaxDP     MaxGrad    Time(sec)
--------------------------------------------------------------------------------------
    1    -309.7858713055041449     0.00e+00  1.90e-06  8.12e-05  1.13e-05     1.7
               *** Restarting incremental Fock matrix formation ***
    2    -309.7858713028217039     2.68e-09  4.28e-06  2.27e-04  2.76e-05     1.7
    3    -309.7858712535253858     4.93e-08  3.46e-06  1.89e-04  7.68e-05     1.3
                 **** Energy Check signals convergence ****

               *****************************************************
               *                     SUCCESS                       *
               *           SCF CONVERGED AFTER   3 CYCLES          *
               *****************************************************


SMD CDS free energy correction energy :                 4.61169     Kcal/mol
Total Energy after SMD CDS correction =              -309.778522056 Eh
             **** ENERGY FILE WAS UPDATED (xtb_opt.en.tmp) ****

----------------
TOTAL SCF ENERGY
----------------

Total Energy       :       -309.77852205611578 Eh           -8429.50213 eV

Components:
Nuclear Repulsion  :        280.66121487273955 Eh            7637.17992 eV
Electronic Energy  :       -590.42918569496760 Eh          -16066.39494 eV
One Electron Energy:       -974.17125212888322 Eh          -26508.54744 eV
Two Electron Energy:        383.74206643391568 Eh           10442.15250 eV
CPCM Dielectric    :         -0.01790043129732 Eh              -0.48710 eV
SMD CDS (Gcds)     :          0.00734919740958 Eh               0.19998 eV

Virial components:
Potential Energy   :       -618.10033421857520 Eh          -16819.36517 eV
Kinetic Energy     :        308.32181216245942 Eh            8389.86304 eV
Virial Ratio       :          2.00472464106071

DFT components:
N(Alpha)           :       26.999994006059 electrons
N(Beta)            :       26.999994006059 electrons
N(Total)           :       53.999988012118 electrons
E(X)               :      -43.009008154765 Eh       
E(C)               :       -1.698248629930 Eh       
E(XC)              :      -44.707256784696 Eh       

CPCM Solvation Model Properties:
Surface-charge          :         -0.04612827289321
Corrected charge        :          0.00000000000000
Outlying charge corr.   :          0.00016804267974 Eh               0.00457 eV
Free-energy (cav+disp)  :          0.00734919740958 Eh               0.19998 eV

---------------
SCF CONVERGENCE
---------------

  Last Energy change         ...   -4.9296e-08  Tolerance :   1.0000e-07
  Last MAX-Density change    ...    1.8941e-04  Tolerance :   1.0000e-07
  Last RMS-Density change    ...    3.4624e-06  Tolerance :   5.0000e-09
  Last DIIS Error            ...    5.3517e-05  Tolerance :   1.0000e-07
  Last Orbital Gradient      ...    7.6814e-05  Tolerance :   1.0000e-04
  Last Orbital Rotation      ...    8.1124e-05  Tolerance :   1.0000e-04


----------------
ORBITAL ENERGIES
----------------

  NO   OCC          E(Eh)            E(eV) 
   0   2.0000     -18.949180      -515.6334 
   1   2.0000     -10.119608      -275.3685 
   2   2.0000     -10.061104      -273.7766 
   3   2.0000     -10.035972      -273.0927 
   4   2.0000     -10.034047      -273.0403 
   5   2.0000     -10.028473      -272.8886 
   6   2.0000     -10.013300      -272.4757 
   7   2.0000      -1.005371       -27.3575 
   8   2.0000      -0.786697       -21.4071 
   9   2.0000      -0.732988       -19.9456 
  10   2.0000      -0.666114       -18.1259 
  11   2.0000      -0.601073       -16.3560 
  12   2.0000      -0.544700       -14.8220 
  13   2.0000      -0.507474       -13.8091 
  14   2.0000      -0.456369       -12.4184 
  15   2.0000      -0.432691       -11.7741 
  16   2.0000      -0.414504       -11.2792 
  17   2.0000      -0.406524       -11.0621 
  18   2.0000      -0.372568       -10.1381 
  19   2.0000      -0.368469       -10.0266 
  20   2.0000      -0.364107        -9.9078 
  21   2.0000      -0.330189        -8.9849 
  22   2.0000      -0.317239        -8.6325 
  23   2.0000      -0.304482        -8.2854 
  24   2.0000      -0.296281        -8.0622 
  25   2.0000      -0.249857        -6.7989 
  26   2.0000      -0.230923        -6.2837 
  27   0.0000      -0.099151        -2.6980 
  28   0.0000       0.035279         0.9600 
  29   0.0000       0.090745         2.4693 
  30   0.0000       0.108835         2.9615 
  31   0.0000       0.121225         3.2987 
  32   0.0000       0.129698         3.5292 
  33   0.0000       0.138562         3.7705 
  34   0.0000       0.148977         4.0539 
  35   0.0000       0.155735         4.2378 
  36   0.0000       0.168654         4.5893 
  37   0.0000       0.171908         4.6779 
*Only the first 10 virtual orbitals were printed.
Total SCF time: 0 days 0 hours 0 min 5 sec 
Finished LeanSCF after   6.5 sec

Maximum memory used throughout the entire LEANSCF-calculation: 24.9 MB


-------------------------------------------------------------------------------
                          DFT DISPERSION CORRECTION                            
                                                                               
                                DFTD4 V3.4.0                                   
-------------------------------------------------------------------------------
-------------------------   ----------------
Dispersion correction           -0.004283979
-------------------------   ----------------

------------------   -----------------
gCP correction             0.006716312
------------------   -----------------

-------------------------   --------------------
FINAL SINGLE POINT ENERGY      -309.776089722677
-------------------------   --------------------

------------------------------------------------------------------------------
                         ORCA SCF GRADIENT CALCULATION
------------------------------------------------------------------------------

Nuc. rep. gradient        (SHARK) ... done (  0.0 sec)
HCore & Overlap gradient  (SHARK) ... done (  0.2 sec)
Split-RIJ-J gradient      (SHARK) ... done ( 32.2 sec)
XC gradient                       ... done (  4.2 sec)
CPCM gradient                     ... done (  1.2 sec)
SMD gradient                      ... done (  0.0 sec)
Dispersion correction             ... done (  0.0 sec)

-------------------
DISPERSION GRADIENT
-------------------

   1   C   :    0.000067797   -0.000058387    0.000009617
   2   C   :    0.000065001    0.000000185   -0.000023538
   3   C   :    0.000041471    0.000046353   -0.000003920
   4   C   :   -0.000023410    0.000031167   -0.000014841
   5   C   :   -0.000078995    0.000022910    0.000031853
   6   C   :   -0.000091318   -0.000005855    0.000016944
   7   O   :   -0.000074115   -0.000017426   -0.000021371
   8   H   :    0.000032305   -0.000024549    0.000013249
   9   H   :    0.000031284   -0.000034362    0.000000660
  10   H   :    0.000023778   -0.000026237    0.000001099
  11   H   :    0.000024597   -0.000003025   -0.000017207
  12   H   :    0.000026911    0.000002258   -0.000005451
  13   H   :    0.000014260    0.000029953   -0.000011245
  14   H   :    0.000014821    0.000021340    0.000007772
  15   H   :   -0.000019628    0.000008083   -0.000018903
  16   H   :   -0.000027065    0.000012561    0.000027303
  17   H   :   -0.000027693   -0.000004968    0.000007978

Difference to translation invariance:
           :    0.0000000000    0.0000000000    0.0000000000

Difference to rotation invariance:
           :   -0.0000000000    0.0000000000    0.0000000000

Norm of the Dispersion gradient    ...    0.0002310005
RMS gradient                       ...    0.0000323465
MAX gradient                       ...    0.0000913178
gCP correction                   ... done

------------------
CARTESIAN GRADIENT
------------------

   1   C   :    0.000014668   -0.000118004   -0.000043080
   2   C   :   -0.000003233    0.000173713   -0.000016559
   3   C   :    0.000030150   -0.000107187   -0.000029412
   4   C   :    0.000078806    0.000128167   -0.000180026
   5   C   :   -0.000094317   -0.000028728    0.000084112
   6   C   :    0.000102385   -0.000017259   -0.000015594
   7   O   :   -0.000087604   -0.000031264   -0.000193962
   8   H   :    0.000027557    0.000028225    0.000102230
   9   H   :    0.000001710   -0.000004820   -0.000021825
  10   H   :    0.000086807   -0.000064695   -0.000018085
  11   H   :    0.000039687   -0.000000277    0.000002968
  12   H   :   -0.000005102   -0.000004354    0.000029177
  13   H   :   -0.000072156    0.000021278   -0.000005051
  14   H   :   -0.000020132   -0.000023641    0.000020757
  15   H   :   -0.000029193   -0.000075662   -0.000032510
  16   H   :    0.000024673   -0.000018793    0.000142761
  17   H   :   -0.000094708    0.000143301    0.000174098

Difference to translation invariance:
           :   -0.0000000000    0.0000000000    0.0000000000

Difference to rotation invariance:
           :    0.0000151490   -0.0000324823   -0.0001864095

Norm of the Cartesian gradient     ...    0.0005583619
RMS gradient                       ...    0.0000781863
MAX gradient                       ...    0.0001939617

-------
TIMINGS
-------

Total SCF gradient time     ....       37.848 sec

Densities                   ....       0.000 sec  (  0.0%)
One electron gradient       ....       0.169 sec  (  0.4%)
RI-J Coulomb gradient       ....      32.187 sec  ( 85.0%)
XC gradient                 ....       4.215 sec  ( 11.1%)
CPCM gradient               ....       1.214 sec  (  3.2%)
   A-Matrix (El+Nuc)        ....       0.069 sec  (  0.2%)
   Potential                ....       1.145 sec  (  3.0%)
SMD gradient                ....       0.004 sec  (  0.0%)

Maximum memory used throughout the entire SCFGRAD-calculation: 33.3 MB

------------------------------------------------------------------------------
                              ORCA PROPERTY CALCULATIONS
------------------------------------------------------------------------------

GBWName                                 ... xtb_opt.gbw
Number of atoms                         ...     17
Number of basis functions               ...    188
Max core memory                         ...   1024 MB

Electric properties:
Dipole moment                           ... YES
Quadrupole moment                       ...  NO
Static polarizability (Dipole/Dipole)   ...  NO
Static polarizability (Dipole/Quad.)    ...  NO
Static polarizability (Quad./Quad.)     ...  NO
Static polarizability (Velocity)        ...  NO

Atomic electric properties:
Dipole moment                           ...  NO
Quadrupole moment                       ...  NO
Static polarizability                   ...  NO

Choice of electric origin               ... Center of mass
Position of electric origin             ...    -0.020344     0.010745    -0.001359

General magnetic properties:
Magnetizability                         ...  NO

EPR properties:
g-Tensor (aka g-matrix)                 ...  NO
Zero-Field splitting spin-orbit         ...  NO
Zero-field splitting spin-spin          ...  NO
Hyperfine couplings                     ...  NO (   0 nuclei)
Quadrupole couplings                    ...  NO (   0 nuclei)
Contact density                         ...  NO (   0 nuclei)

NMR properties:
Chemical shifts                         ...  NO (   0 nuclei)
Spin-rotation constants                 ...  NO (   0 nuclei)
Spin-spin couplings                     ...  NO (   0 nuclei,    0 pairs)

Choice of magnetic origin               ... GIAO
Position of magnetic origin             ...     0.000000     0.000000     0.000000

Properties with geometric perturbations:
SCF Hessian                             ...  NO
IR spectrum                             ...  NO
VCD spectrum                            ...  NO
X-ray spectroscopy properties:
SCF XES/XAS/RIXS spectra                ...  NO


-------------
DIPOLE MOMENT
-------------

Method             : SCF
Type of density    : Electron Density
Multiplicity       :   1
Irrep              :   0
Energy             :  -309.7785220561157757 Eh
Relativity type    : 
Basis              : AO
                                X                 Y                 Z
Electronic contribution:     -9.136327637       1.195368826      -0.713633705
Nuclear contribution   :     10.775281895      -0.521871680       1.661606978
                        -----------------------------------------
Total Dipole Moment    :      1.638954259       0.673497146       0.947973274
                        -----------------------------------------
Magnitude (a.u.)       :      2.009582742
Magnitude (Debye)      :      5.107953394



--------------------
Rotational spectrum 
--------------------
 
Rotational constants in cm-1:             0.191947             0.038430             0.036537 
Rotational constants in MHz :          5754.439365          1152.110309          1095.356898 

Dipole components along the rotational axes: 
x,y,z [a.u.] :     1.607178     0.756956    -0.939372 
x,y,z [Debye]:     4.085121     1.924029    -2.387695 

 

Dipole moment calculation done in   0.0 sec 

Maximum memory used throughout the entire PROP-calculation: 11.7 MB

--------------------------------
SUGGESTED CITATIONS FOR THIS RUN
--------------------------------

Below you find a list of papers that are relevant to this ORCA run
We neither can nor want to force you to cite these papers, but we appreciate if you do
You receive ORCA, which is the product of decades of hard work by many enthusiastic individuals, for free
The only thing we kindly ask in return is that you cite our papers,
We deeply appreciate it, if you show your appreciation for ORCA by not just citing the generic ORCA reference.

Please note that relegating all ORCA citations to the supporting information does *not* help us.
SI sections are not indexed - citations you put there will not count into any citation statistics
But we need these citations in order to attract the funding resources that allow us to do what we are doing

Therefore, if you are a happy ORCA user, please consider citing a few of the papers listed below in the main body of your paper

In addition to the list printed below, the program has created the file xtb_opt.bibtex that contains the list in bibtex format
You can import this file easily into all common literature databanks and citation aid programs


List of essential papers. We consider these as the minimum necessary citations

  1. Neese,F.
     Software update: the ORCA program system, version 5.0
     WIRES Comput. Molec. Sci., 2022 12(1)e1606
     doi.org/10.1002/wcms.1606
  2. Grimme,S.; Hansen,A.; Ehlert,S.; Mewes,J.
     r2SCAN-3c: A 'Swiss army knife' composite electronic-structure method
     J. Chem. Phys., 2021 154 064103
     doi.org/10.1063/5.0040021

List of papers to cite with high priority. The work reported in these papers was absolutely
necessary for this run to complete.
Our perspective: the developers of density functionals and basis sets usually get cited in chemistry papers
Good! But without the algorithms to do something with them, the functionals or basis sets would not do anything.
Hence, in our opinion, the algorithm design and method developments papers are equally worthy of getting cited

  1. Neese,F.
     An improvement of the resolution of the identity approximation for the formation of the Coulomb matrix
     J. Comp. Chem., 2003 24(14)1740-1747
     doi.org/10.1002/jcc.10318
  2. Garcia-Rates,M.; Neese,F.
     Effect of the Solute Cavity on the Solvation Energy and its Derivatives within the Framework of the Gaussian Charge Scheme
     J. Comput. Chem., 2020 41 922-939
     doi.org/10.1002/jcc.26139
  3. Neese,F.
     The SHARK Integral Generation and Digestion System
     J. Comp. Chem., 2022  1-16
     doi.org/10.1002/jcc.26942
  4. Lehtola,S.; Steigemann,C.; Oliveira,M.; Marques,M.
     Recent developments in Libxc - A comprehensive library of functionals for density functional theory
     Software X, 2018 7 
     doi.org/10.1016/j.softx.2017.11.002
  5. Caldeweyher,E.; Bannwarth,C.; Grimme,S.
     Extension of the D3 dispersion coefficient model
     J. Chem. Phys., 2017 147 034112
     doi.org/10.1063/1.4993215
  6. Caldeweyher,E.; Ehlert,S.; Hansen,A.; Neugebauer,H.; Spicher,S.; Bannwarth,C.; Grimme,S.
     A generally applicable atomic-charge dependent London dispersion correction
     J. Chem. Phys., 2019 150 154122
     doi.org/10.1063/1.5090222
  7. Caldeweyher,E.; Mewes,J.; Ehlert,S.; Grimme,S.
     Extension and evaluation of the D4 London-dispersion model for periodic systems
     Phys. Chem. Chem. Phys., 2020 22(16)8499-8512
     doi.org/10.1039/D0CP00502A
  8. Wittmann,L.; Gordiy,I.; Friede,M.; Helmich-Paris,B.; Grimme,S.; Hansen,A.; Bursch,M.
     Extension of the D3 and D4 London Dispersion Corrections to the full Actinides Series
     Phys. Chem. Chem. Phys., 2024 26(32)21379-21394
     doi.org/https://doi.org/10.1039/D4CP01514B 

List of suggested additional citations. These are papers that are important in the 'surrounding' of 
of this run, or papers that preceded the highly important papers. If you like your results we are grateful for a citation.

  1. Neese,F.
     The ORCA program system
     WIRES Comput. Molec. Sci., 2012 2(1)73-78
     doi.org/10.1002/wcms.81
  2. Neese,F.
     Software update: the ORCA program system, version 4.0
     WIRES Comput. Molec. Sci., 2018 8(1)1-6
     doi.org/10.1002/wcms.1327
  3. Neese,F.; Wennmohs,F.; Becker,U.; Riplinger,C.
     The ORCA quantum chemistry program package
     J. Chem. Phys., 2020 152 Art. No. L224108
     doi.org/10.1063/5.0004608

List of optional additional citations

  1. Neese,F.
     Approximate second-order SCF convergence for spin unrestricted wavefunctions
     Chem. Phys. Lett., 2000 325(1-3)93-98
     doi.org/10.1016/s0009-2614(00)00662-x

Timings for individual modules:

Sum of individual times          ...       45.753 sec (=   0.763 min)
Startup calculation              ...        0.739 sec (=   0.012 min)   1.6 %
SCF iterations                   ...        6.640 sec (=   0.111 min)  14.5 %
Property calculations            ...        0.111 sec (=   0.002 min)   0.2 %
SCF Gradient evaluation          ...       38.263 sec (=   0.638 min)  83.6 %
                             ****ORCA TERMINATED NORMALLY****
TOTAL RUN TIME: 0 days 0 hours 0 minutes 46 seconds 720 msec
  ------------------------------------------------------------------------
          * successful ORCA run, taking over control again...

         :::::::::::::::::::::::::::::::::::::::::::::::::::::
         ::                  ORCA SUMMARY                   ::
         :::::::::::::::::::::::::::::::::::::::::::::::::::::
         :: total energy            -309.776089722677 Eh    ::
         :: gradient norm              0.000558361928 Eh/a0 ::
         :: HOMO-LUMO gap              0.000000000000 eV    ::
         :::::::::::::::::::::::::::::::::::::::::::::::::::::

           -------------------------------------------------
          |                Property Printout                |
           -------------------------------------------------
           -------------------------------------------------
          |                Geometry Summary                 |
           -------------------------------------------------

      molecular mass/u    :       98.1432278
   center of mass at/Å    :       -0.0107914       0.0056830      -0.0007246
  moments of inertia/u·Å² :        0.8782193E+02   0.4386496E+03   0.4613768E+03
rotational constants/cm⁻¹ :        0.1919524E+00   0.3843075E-01   0.3653766E-01

 * 13 selected distances

     #   Z          #   Z                                           value/Å
     1   6 C        2   6 C                                       1.5251747 (max)
     3   6 C        4   6 C                                       1.4829860
     4   6 C        5   6 C                                       1.3451936
     6   6 C        7   8 O                                       1.2317856
     1   6 C        8   1 H                                       1.0960769
     1   6 C        9   1 H                                       1.0956603
     1   6 C       10   1 H                                       1.0946344
     2   6 C       11   1 H                                       1.0966725
     2   6 C       12   1 H                                       1.0953848
     3   6 C       13   1 H                                       1.0998502
     3   6 C       14   1 H                                       1.0957887
     4   6 C       15   1 H                                       1.0913939
     5   6 C       16   1 H                                       1.0877641 (min)

 * 3 distinct bonds (by element types)

   Z      Z             #   av. dist./Å        max./Å        min./Å
   1 H    6 C           9     1.0948029     1.0998502     1.0877641
   6 C    6 C           3     1.4511181     1.5251747     1.3451936
   6 C    8 O           1     1.2317856     1.2317856     1.2317856


optimized geometry written to: xtbopt.coord


           -------------------------------------------------
          | TOTAL ENERGY             -309.776089722677 Eh   |
          | GRADIENT NORM               0.000558361928 Eh/α |
           -------------------------------------------------

------------------------------------------------------------------------
 * finished run on 2025/04/11 at 14:15:25.790     
------------------------------------------------------------------------
 total:
 * wall-time:     0 d,  0 h,  7 min, 21.200 sec
 *  cpu-time:     0 d,  0 h,  0 min,  9.325 sec
 * ratio c/w:     0.021 speedup
 SCF:
 * wall-time:     0 d,  0 h,  0 min, 22.739 sec
 *  cpu-time:     0 d,  0 h,  0 min,  0.967 sec
 * ratio c/w:     0.043 speedup
 ANC optimizer:
 * wall-time:     0 d,  0 h,  6 min, 57.975 sec
 *  cpu-time:     0 d,  0 h,  0 min,  6.661 sec
 * ratio c/w:     0.016 speedup

