      -----------------------------------------------------------      
     |                   =====================                   |     
     |                           x T B                           |     
     |                   =====================                   |     
     |                         S. Grimme                         |     
     |          Mulliken Center for Theoretical Chemistry        |     
     |                    University of Bonn                     |     
      -----------------------------------------------------------      

   * xtb version 6.7.1 (edcfbbe) compiled by 'albert@albert-system' on 2024-07-22

   xtb is free software: you can redistribute it and/or modify it under
   the terms of the GNU Lesser General Public License as published by
   the Free Software Foundation, either version 3 of the License, or
   (at your option) any later version.
   
   xtb is distributed in the hope that it will be useful,
   but WITHOUT ANY WARRANTY; without even the implied warranty of
   MERCHANTABILITY or FITNESS FOR A PARTICULAR PURPOSE.  See the
   GNU Lesser General Public License for more details.
   
   Cite this work as:
   * C. Bannwarth, E. Caldeweyher, S. Ehlert, A. Hansen, P. Pracht,
     J. Seibert, S. Spicher, S. Grimme, WIREs Comput. Mol. Sci., 2020, 11,
     e01493. DOI: 10.1002/wcms.1493
   
   for GFN2-xTB:
   * C. Bannwarth, S. Ehlert and S. Grimme., J. Chem. Theory Comput., 2019,
     15, 1652-1671. DOI: 10.1021/acs.jctc.8b01176
   for GFN1-xTB:
   * S. Grimme, C. Bannwarth, P. Shushkov, J. Chem. Theory Comput., 2017,
     13, 1989-2009. DOI: 10.1021/acs.jctc.7b00118
   for GFN0-xTB:
   * P. Pracht, E. Caldeweyher, S. Ehlert, S. Grimme, ChemRxiv, 2019, preprint.
     DOI: 10.26434/chemrxiv.8326202.v1
   for GFN-FF:
   * S. Spicher and S. Grimme, Angew. Chem. Int. Ed., 2020, 59, 15665-15673.
     DOI: 10.1002/anie.202004239
   
   for ALPB and GBSA implicit solvation:
   * S. Ehlert, M. Stahn, S. Spicher, S. Grimme, J. Chem. Theory Comput.,
     2021, 17, 4250-4261. DOI: 10.1021/acs.jctc.1c00471
   
   for ddCOSMO and CPCM-X implicit solvation:
   * M. Stahn, S. Ehlert, S. Grimme, J. Phys. Chem. A,
     2023, XX, XXXX-XXXX. DOI: 10.1021/acs.jpca.3c04382
   
   for DFT-D4:
   * E. Caldeweyher, C. Bannwarth and S. Grimme, J. Chem. Phys., 2017,
     147, 034112. DOI: 10.1063/1.4993215
   * E. Caldeweyher, S. Ehlert, A. Hansen, H. Neugebauer, S. Spicher,
     C. Bannwarth and S. Grimme, J. Chem. Phys., 2019, 150, 154122.
     DOI: 10.1063/1.5090222
   * E. Caldeweyher, J.-M. Mewes, S. Ehlert and S. Grimme, Phys. Chem. Chem. Phys.
     2020, 22, 8499-8512. DOI: 10.1039/D0CP00502A
   
   for sTDA-xTB:
   * S. Grimme and C. Bannwarth, J. Chem. Phys., 2016, 145, 054103.
     DOI: 10.1063/1.4959605
   
   in the mass-spec context:
   * V. Asgeirsson, C. Bauer and S. Grimme, Chem. Sci., 2017, 8, 4879.
     DOI: 10.1039/c7sc00601b
   * J. Koopman and S. Grimme, ACS Omega 2019, 4, 12, 15120-15133.
     DOI: 10.1021/acsomega.9b02011
   
   for metadynamics refer to:
   * S. Grimme, J. Chem. Theory Comput., 2019, 155, 2847-2862
     DOI: 10.1021/acs.jctc.9b00143
   
   for SPH calculations refer to:
   * S. Spicher and S. Grimme, J. Chem. Theory Comput., 2021, 17, 1701-1714
     DOI: 10.1021/acs.jctc.0c01306
   
   for ONIOM refer to:
   * C. Plett, A. Katbashev, S. Ehlert, S. Grimme, M. Bursch,
     Phys. Chem. Chem. Phys., 2023, 25, 17860-17868. DOI: 10.1039/D3CP02178E
   
   for DIPRO refer to:
   * J. Kohn, N. Gildemeister, S. Grimme, D. Fazzi, A. Hansen,
     J. Chem. Phys., 2023, just accepted.
   
   for PTB refer to:
   * S. Grimme, M. Mueller, A. Hansen, J. Chem. Phys., 2023, 158, 124111.
     DOI: 10.1063/5.0137838
   
   with help from (in alphabetical order)
   P. Atkinson, C. Bannwarth, F. Bohle, G. Brandenburg, E. Caldeweyher
   M. Checinski, S. Dohm, S. Ehlert, S. Ehrlich, I. Gerasimov, C. Hölzer
   A. Katbashev, J. Kohn, J. Koopman, C. Lavigne, S. Lehtola, F. März, M. Müller,
   F. Musil, H. Neugebauer, J. Pisarek, C. Plett, P. Pracht, F. Pultar,
   J. Seibert, P. Shushkov, S. Spicher, M. Stahn, M. Steiner, T. Strunk,
   J. Stückrath, T. Rose, and J. Unsleber
   
 * started run on 2025/04/11 at 14:13:37.457     
   ID    Z sym.   atoms
    1    6 C      1-7
    2    1 H      8-23

           -------------------------------------------------
          |                Calculation Setup                |
           -------------------------------------------------

          program call               : /software/projects/pawsey0265/mwang1/xtb/bin/xtb gas.coord --gfn2 --sp --chrg 0 --norestart --parallel 1
          hostname                   : nid001220
          coordinate file            : gas.coord
          omp threads                :                     1


           -------------------------------------------------
          |                 G F N 2 - x T B                 |
           -------------------------------------------------

        Reference                      10.1021/acs.jctc.8b01176
      * Hamiltonian:
        H0-scaling (s, p, d)           1.850000    2.230000    2.230000
        zeta-weighting                 0.500000
      * Dispersion:
        s8                             2.700000
        a1                             0.520000
        a2                             5.000000
        s9                             5.000000
      * Repulsion:
        kExp                           1.500000    1.000000
        rExp                           1.000000
      * Coulomb:
        alpha                          2.000000
        third order                    shell-resolved
        anisotropic                    true
        a3                             3.000000
        a5                             4.000000
        cn-shift                       1.200000
        cn-exp                         4.000000
        max-rad                        5.000000


          ...................................................
          :                      SETUP                      :
          :.................................................:
          :  # basis functions                  44          :
          :  # atomic orbitals                  44          :
          :  # shells                           30          :
          :  # electrons                        44          :
          :  max. iterations                   250          :
          :  Hamiltonian                  GFN2-xTB          :
          :  restarted?                      false          :
          :  GBSA solvation                  false          :
          :  PC potential                    false          :
          :  electronic temp.          300.0000000     K    :
          :  accuracy                    1.0000000          :
          :  -> integral cutoff          0.2500000E+02      :
          :  -> integral neglect         0.1000000E-07      :
          :  -> SCF convergence          0.1000000E-05 Eh   :
          :  -> wf. convergence          0.1000000E-03 e    :
          :  Broyden damping             0.4000000          :
          :  net charge                          0          :
          :  unpaired electrons                  0          :
          ...................................................

 iter      E             dE          RMSdq      gap      omega  full diag
   1    -23.4492166 -0.234492E+02  0.250E+00   13.33       0.0  T
   2    -23.5093732 -0.601566E-01  0.135E+00   13.08       1.0  T
   3    -23.5102527 -0.879519E-03  0.704E-01   13.05       1.0  T
   4    -23.5103935 -0.140787E-03  0.125E-01   13.08       1.0  T
   5    -23.5104893 -0.958570E-04  0.566E-02   13.07       1.0  T
   6    -23.5104895 -0.142476E-06  0.410E-03   13.07       5.1  T
   7    -23.5104896 -0.169289E-06  0.117E-03   13.07      17.8  T
   8    -23.5104896 -0.213210E-08  0.309E-04   13.07      67.5  T
   9    -23.5104896 -0.263345E-09  0.108E-04   13.07     192.4  T

   *** convergence criteria satisfied after 9 iterations ***

         #    Occupation            Energy/Eh            Energy/eV
      -------------------------------------------------------------
         1        2.0000           -0.6233502             -16.9622
       ...           ...                  ...                  ...
        16        2.0000           -0.4480771             -12.1928
        17        2.0000           -0.4420746             -12.0295
        18        2.0000           -0.4327690             -11.7762
        19        2.0000           -0.4286916             -11.6653
        20        2.0000           -0.4199003             -11.4261
        21        2.0000           -0.4164079             -11.3310
        22        2.0000           -0.4099203             -11.1545 (HOMO)
        23                          0.0704003               1.9157 (LUMO)
        24                          0.0869053               2.3648
        25                          0.1075983               2.9279
        26                          0.1146405               3.1195
        27                          0.1280594               3.4847
       ...                                ...                  ...
        44                          0.3152767               8.5791
      -------------------------------------------------------------
                  HL-Gap            0.4803206 Eh           13.0702 eV
             Fermi-level           -0.1697600 Eh           -4.6194 eV

 SCC (total)                   0 d,  0 h,  0 min,  0.048 sec
 SCC setup                      ...        0 min,  0.000 sec (  0.625%)
 Dispersion                     ...        0 min,  0.000 sec (  0.414%)
 classical contributions        ...        0 min,  0.000 sec (  0.113%)
 integral evaluation            ...        0 min,  0.003 sec (  5.745%)
 iterations                     ...        0 min,  0.040 sec ( 83.482%)
 molecular gradient             ...        0 min,  0.004 sec (  9.271%)
 printout                       ...        0 min,  0.000 sec (  0.296%)

         :::::::::::::::::::::::::::::::::::::::::::::::::::::
         ::                     SUMMARY                     ::
         :::::::::::::::::::::::::::::::::::::::::::::::::::::
         :: total energy             -23.158614237630 Eh    ::
         :: gradient norm              0.001127606235 Eh/a0 ::
         :: HOMO-LUMO gap             13.070189942881 eV    ::
         ::.................................................::
         :: SCC energy               -23.510440411369 Eh    ::
         :: -> isotropic ES            0.004726618479 Eh    ::
         :: -> anisotropic ES          0.007900691026 Eh    ::
         :: -> anisotropic XC          0.014410243114 Eh    ::
         :: -> dispersion             -0.013966215259 Eh    ::
         :: repulsion energy           0.351826173739 Eh    ::
         :: add. restraining           0.000000000000 Eh    ::
         :: total charge               0.000000000000 e     ::
         :::::::::::::::::::::::::::::::::::::::::::::::::::::

           -------------------------------------------------
          |                Property Printout                |
           -------------------------------------------------

    * Orbital Energies and Occupations

         #    Occupation            Energy/Eh            Energy/eV
      -------------------------------------------------------------
         1        2.0000           -0.6233502             -16.9622
       ...           ...                  ...                  ...
        10        2.0000           -0.4959181             -13.4946
        11        2.0000           -0.4891761             -13.3112
        12        2.0000           -0.4805959             -13.0777
        13        2.0000           -0.4709866             -12.8162
        14        2.0000           -0.4598896             -12.5142
        15        2.0000           -0.4558842             -12.4052
        16        2.0000           -0.4480771             -12.1928
        17        2.0000           -0.4420746             -12.0295
        18        2.0000           -0.4327690             -11.7762
        19        2.0000           -0.4286916             -11.6653
        20        2.0000           -0.4199003             -11.4261
        21        2.0000           -0.4164079             -11.3310
        22        2.0000           -0.4099203             -11.1545 (HOMO)
        23                          0.0704003               1.9157 (LUMO)
        24                          0.0869053               2.3648
        25                          0.1075983               2.9279
        26                          0.1146405               3.1195
        27                          0.1280594               3.4847
        28                          0.1316058               3.5812
        29                          0.1457804               3.9669
        30                          0.1636892               4.4542
        31                          0.1731975               4.7129
        32                          0.1773148               4.8250
        33                          0.1912357               5.2038
       ...                                ...                  ...
        44                          0.3152767               8.5791
      -------------------------------------------------------------
                  HL-Gap            0.4803206 Eh           13.0702 eV
             Fermi-level           -0.1697600 Eh           -4.6194 eV

     #   Z          covCN         q      C6AA      α(0)
     1   6 C        3.752    -0.102    22.505     6.765
     2   6 C        3.800    -0.053    21.522     6.605
     3   6 C        3.802    -0.059    21.628     6.621
     4   6 C        3.805    -0.063    21.700     6.632
     5   6 C        3.849    -0.010    20.728     6.476
     6   6 C        3.755    -0.105    22.557     6.772
     7   6 C        3.757    -0.106    22.581     6.775
     8   1 H        0.925     0.032     2.562     2.503
     9   1 H        0.925     0.032     2.558     2.501
    10   1 H        0.925     0.032     2.560     2.502
    11   1 H        0.924     0.030     2.588     2.516
    12   1 H        0.924     0.028     2.613     2.528
    13   1 H        0.924     0.032     2.557     2.501
    14   1 H        0.924     0.028     2.608     2.526
    15   1 H        0.924     0.030     2.586     2.515
    16   1 H        0.924     0.028     2.609     2.526
    17   1 H        0.924     0.028     2.619     2.531
    18   1 H        0.925     0.034     2.524     2.484
    19   1 H        0.925     0.033     2.539     2.492
    20   1 H        0.925     0.032     2.564     2.504
    21   1 H        0.925     0.031     2.576     2.510
    22   1 H        0.925     0.034     2.534     2.490
    23   1 H        0.925     0.033     2.544     2.494

 Mol. C6AA /au·bohr⁶  :       3400.266013
 Mol. C8AA /au·bohr⁸  :      70190.317564
 Mol. α(0) /au        :         86.768513


Wiberg/Mayer (AO) data.
largest (>0.10) Wiberg bond orders for each atom

 ---------------------------------------------------------------------------
     #   Z sym  total        # sym  WBO       # sym  WBO       # sym  WBO
 ---------------------------------------------------------------------------
     1   6 C    3.997 --     2 C    1.019    10 H    0.988     9 H    0.988
                             8 H    0.988
     2   6 C    3.998 --     1 C    1.019     3 C    1.009    12 H    0.978
                            11 H    0.977
     3   6 C    3.997 --     2 C    1.009     4 C    1.007    14 H    0.977
                            13 H    0.975
     4   6 C    3.997 --     3 C    1.007     5 C    0.997    16 H    0.976
                            15 H    0.976
     5   6 C    3.996 --     6 C    1.010     7 C    1.008     4 C    0.997
                            17 H    0.967
     6   6 C    3.997 --     5 C    1.010    19 H    0.987    20 H    0.986
                            18 H    0.984
     7   6 C    3.997 --     5 C    1.008    22 H    0.987    21 H    0.987
                            23 H    0.987
     8   1 H    0.999 --     1 C    0.988
     9   1 H    0.999 --     1 C    0.988
    10   1 H    0.999 --     1 C    0.988
    11   1 H    0.999 --     2 C    0.977
    12   1 H    0.999 --     2 C    0.978
    13   1 H    0.999 --     3 C    0.975
    14   1 H    0.999 --     3 C    0.977
    15   1 H    0.999 --     4 C    0.976
    16   1 H    0.999 --     4 C    0.976
    17   1 H    0.999 --     5 C    0.967
    18   1 H    0.999 --     6 C    0.984
    19   1 H    0.999 --     6 C    0.987
    20   1 H    0.999 --     6 C    0.986
    21   1 H    0.999 --     7 C    0.987
    22   1 H    0.999 --     7 C    0.987
    23   1 H    0.999 --     7 C    0.987
 ---------------------------------------------------------------------------

Topologies differ in total number of bonds
Writing topology from bond orders to xtbtopo.mol

molecular dipole:
                 x           y           z       tot (Debye)
 q only:       -0.004       0.014      -0.007
   full:       -0.004       0.009      -0.010       0.036
molecular quadrupole (traceless):
                xx          xy          yy          xz          yz          zz
 q only:        0.051       0.086      -0.026      -0.007      -0.016      -0.025
  q+dip:       -1.111      -0.614       0.345       0.117       0.058       0.766
   full:       -0.497      -0.274       0.148       0.051       0.037       0.349


           -------------------------------------------------
          | TOTAL ENERGY              -23.158614237630 Eh   |
          | GRADIENT NORM               0.001127606235 Eh/α |
          | HOMO-LUMO GAP              13.070189942881 eV   |
           -------------------------------------------------

------------------------------------------------------------------------
 * finished run on 2025/04/11 at 14:13:37.540     
------------------------------------------------------------------------
 total:
 * wall-time:     0 d,  0 h,  0 min,  0.079 sec
 *  cpu-time:     0 d,  0 h,  0 min,  0.035 sec
 * ratio c/w:     0.440 speedup
 SCF:
 * wall-time:     0 d,  0 h,  0 min,  0.048 sec
 *  cpu-time:     0 d,  0 h,  0 min,  0.022 sec
 * ratio c/w:     0.456 speedup

