 Entering Gaussian System
 *********************************************
 Gaussian 98:
 frequency output generated by the xtb code
 *********************************************
                         Standard orientation:
 --------------------------------------------------------------------
  Center     Atomic     Atomic              Coordinates (Angstroms)
  Number     Number      Type              X           Y           Z
 --------------------------------------------------------------------
    1          6             0       -3.928464    0.082814   -0.298507
    2          6             0       -2.700398   -0.250492    0.539952
    3          6             0       -1.407743    0.067244   -0.207297
    4          6             0       -0.174087   -0.259015    0.629233
    5          6             0        1.106712    0.030307   -0.106703
    6          8             0        1.194848    0.378103   -1.264417
    7          8             0        2.167153   -0.147399    0.679094
    8          6             0        3.457379    0.083921    0.106901
    9          1             0       -3.925372   -0.490988   -1.222279
   10          1             0       -4.838852   -0.148676    0.248319
   11          1             0       -3.938958    1.139754   -0.554236
   12          1             0       -2.729826    0.321751    1.469221
   13          1             0       -2.715929   -1.310671    0.799973
   14          1             0       -1.387369    1.125083   -0.477010
   15          1             0       -1.367512   -0.501927   -1.138124
   16          1             0       -0.163877   -1.316411    0.902643
   17          1             0       -0.165468    0.314790    1.557487
   18          1             0        4.168778   -0.106667    0.903961
   19          1             0        3.529375    1.113215   -0.246386
   20          1             0        3.619129   -0.591561   -0.733895
 --------------------------------------------------------------------
     1 basis functions        1 primitive gaussians
     1 alpha electrons        1 beta electrons
 
 Harmonic frequencies (cm**-1), IR intensities (km*mol⁻¹),
 Raman scattering activities (A**4/amu), Raman depolarization ratios,
 reduced masses (AMU), force constants (mDyne/A) and normal coordinates:
                      1                      2                      3
                        a                      a                      a 
 Frequencies --    15.5117                35.3200                59.4980
 Red. masses --     8.1963                 3.1542                 7.8058
 Frc consts  --     0.0000                 0.0000                 0.0000
 IR Inten    --     0.5135                 0.4906                 0.0535
 Raman Activ --     0.0000                 0.0000                 0.0000
 Depolar     --     0.0000                 0.0000                 0.0000
 Atom AN      X      Y      Z        X      Y      Z        X      Y      Z
   1   6    -0.00  -0.28  -0.11    -0.00  -0.08  -0.03     0.00  -0.22  -0.09
   2   6    -0.00   0.15   0.06    -0.00   0.01   0.01    -0.00  -0.24  -0.10
   3   6    -0.00  -0.13  -0.06    -0.00  -0.01  -0.01    -0.01   0.43   0.18
   4   6    -0.00   0.27   0.10    -0.00   0.06   0.02    -0.00   0.34   0.14
   5   6    -0.00   0.15   0.05    -0.00   0.06   0.02    -0.00   0.09   0.04
   6   8    -0.03   0.40   0.13    -0.02   0.29   0.09    -0.02  -0.15  -0.03
   7   8     0.02  -0.22  -0.06     0.01  -0.15  -0.05     0.01   0.09   0.02
   8   6     0.02  -0.28  -0.10     0.01  -0.14  -0.04     0.02  -0.28  -0.12
   9   1     0.01  -0.21   0.04     0.01  -0.04   0.00     0.08   0.06  -0.10
  10   1    -0.00  -0.02  -0.01    -0.00  -0.02  -0.00     0.00  -0.22  -0.09
  11   1    -0.01  -0.12  -0.17    -0.01  -0.03  -0.03    -0.08  -0.03   0.12
  12   1    -0.01   0.17  -0.06    -0.01   0.02  -0.01    -0.08  -0.19   0.04
  13   1     0.01   0.08   0.16     0.01   0.01   0.02     0.08  -0.10  -0.16
  14   1    -0.01  -0.07  -0.15    -0.00  -0.01  -0.02    -0.07   0.16   0.19
  15   1     0.01  -0.16   0.05     0.00  -0.02   0.01     0.07   0.25  -0.02
  16   1     0.03   0.11   0.15     0.01   0.02   0.02    -0.04   0.10   0.04
  17   1    -0.03   0.18  -0.03    -0.01   0.03  -0.00     0.03   0.10   0.04
  18   1     0.02  -0.28  -0.09    -0.02   0.46   0.13     0.01  -0.12  -0.05
  19   1     0.09  -0.03   0.15    -0.17  -0.19  -0.49     0.07  -0.09  -0.05
  20   1    -0.09   0.05  -0.15     0.21  -0.40   0.32    -0.07  -0.11  -0.03
                      4                      5                      6
                        a                      a                      a 
 Frequencies --   101.2864               106.9579               181.8460
 Red. masses --    10.2519                 7.2147                10.2229
 Frc consts  --     0.0000                 0.0000                 0.0000
 IR Inten    --     1.7173                 0.3243                11.3323
 Raman Activ --     0.0000                 0.0000                 0.0000
 Depolar     --     0.0000                 0.0000                 0.0000
 Atom AN      X      Y      Z        X      Y      Z        X      Y      Z
   1   6     0.20   0.10  -0.40     0.02   0.35   0.08     0.02   0.02  -0.02
   2   6    -0.07   0.06  -0.02    -0.01  -0.34  -0.15    -0.01  -0.01   0.02
   3   6     0.10  -0.04   0.25     0.02  -0.40  -0.13     0.00  -0.11  -0.00
   4   6     0.04  -0.17   0.30     0.00   0.23   0.14     0.01  -0.28  -0.09
   5   6    -0.05  -0.09   0.18    -0.01   0.09   0.07    -0.01   0.19   0.06
   6   8    -0.32  -0.05   0.20    -0.05   0.01   0.05    -0.01   0.11   0.04
   7   8     0.14  -0.04  -0.05     0.03   0.10   0.03    -0.03   0.59   0.17
   8   6    -0.05   0.17  -0.35     0.00  -0.06  -0.09     0.01  -0.37  -0.12
   9   1     0.12   0.01  -0.10    -0.03   0.25  -0.07    -0.04  -0.07   0.04
  10   1     0.00   0.07  -0.19    -0.00   0.07  -0.01    -0.00   0.11   0.02
  11   1     0.11   0.02  -0.14     0.06   0.14   0.19     0.07  -0.01  -0.09
  12   1    -0.08   0.03  -0.02     0.06  -0.19   0.02     0.01   0.01  -0.01
  13   1    -0.06   0.02   0.01    -0.08  -0.12  -0.15    -0.02   0.00   0.02
  14   1     0.07  -0.01   0.09    -0.05  -0.15  -0.16     0.03  -0.02   0.03
  15   1     0.05   0.00   0.06     0.07  -0.22   0.03    -0.03  -0.01  -0.01
  16   1     0.01  -0.05   0.06     0.05   0.11   0.21     0.05  -0.12  -0.18
  17   1     0.02  -0.07   0.10    -0.05   0.22  -0.05    -0.03  -0.22   0.06
  18   1     0.05   0.08  -0.15     0.01  -0.02  -0.04     0.01  -0.17  -0.06
  19   1    -0.09   0.05  -0.10     0.02  -0.03  -0.04     0.17  -0.15  -0.12
  20   1    -0.05   0.06  -0.12    -0.04  -0.04  -0.02    -0.16  -0.20   0.01
                      7                      8                      9
                        a                      a                      a 
 Frequencies --   232.3120               243.0159               302.2417
 Red. masses --     2.3164                10.3201                11.6702
 Frc consts  --     0.0000                 0.0000                 0.0000
 IR Inten    --     0.5001                11.1816                 8.4138
 Raman Activ --     0.0000                 0.0000                 0.0000
 Depolar     --     0.0000                 0.0000                 0.0000
 Atom AN      X      Y      Z        X      Y      Z        X      Y      Z
   1   6    -0.03   0.04   0.03     0.23   0.07  -0.15    -0.25   0.06  -0.15
   2   6     0.01  -0.23  -0.12    -0.07  -0.11   0.21    -0.44  -0.07   0.16
   3   6     0.00   0.13   0.02    -0.05  -0.09   0.28    -0.28  -0.11   0.27
   4   6    -0.01   0.11   0.04     0.10   0.02   0.05     0.04   0.03  -0.05
   5   6     0.01  -0.01   0.02    -0.06   0.08  -0.26     0.15   0.02  -0.04
   6   8     0.02  -0.03   0.02    -0.27   0.08  -0.32     0.54   0.02  -0.03
   7   8     0.02  -0.08  -0.00    -0.13   0.05  -0.25     0.18  -0.01   0.01
   8   6    -0.01   0.05  -0.02     0.16  -0.09   0.37     0.11   0.05  -0.12
   9   1    -0.33  -0.32   0.22     0.11  -0.01  -0.03    -0.02   0.02  -0.04
  10   1    -0.00   0.51   0.22    -0.00   0.10  -0.12    -0.12   0.04  -0.11
  11   1     0.30  -0.08  -0.37     0.17   0.01  -0.08    -0.02   0.02  -0.04
  12   1     0.00  -0.15   0.02    -0.06  -0.04   0.06    -0.17  -0.02   0.04
  13   1     0.01  -0.09  -0.13    -0.06  -0.04   0.04    -0.17  -0.02   0.04
  14   1    -0.04   0.06   0.09    -0.04  -0.03   0.08    -0.11  -0.03   0.07
  15   1     0.04   0.11  -0.04    -0.02  -0.02   0.08    -0.11  -0.03   0.07
  16   1    -0.02   0.03   0.03     0.07   0.01   0.03     0.05   0.01  -0.01
  17   1     0.00   0.04   0.00     0.09   0.03   0.00     0.05   0.01  -0.01
  18   1     0.01   0.02  -0.01    -0.08  -0.06   0.21     0.06   0.02  -0.06
  19   1    -0.03   0.02   0.00     0.14  -0.02   0.13     0.00   0.01  -0.04
  20   1     0.01   0.02  -0.01     0.15  -0.03   0.13     0.01   0.02  -0.04
                     10                     11                     12
                        a                      a                      a 
 Frequencies --   329.6700               475.4187               567.6096
 Red. masses --    10.8356                 9.9796                 9.0567
 Frc consts  --     0.0000                 0.0000                 0.0000
 IR Inten    --    10.0757                 1.2148                13.4145
 Raman Activ --     0.0000                 0.0000                 0.0000
 Depolar     --     0.0000                 0.0000                 0.0000
 Atom AN      X      Y      Z        X      Y      Z        X      Y      Z
   1   6    -0.43  -0.01   0.02     0.26  -0.00   0.01     0.02  -0.01   0.00
   2   6    -0.16   0.10  -0.25     0.00  -0.10   0.24    -0.00   0.01   0.02
   3   6     0.04   0.00  -0.03    -0.34   0.09  -0.26    -0.04   0.06  -0.01
   4   6     0.03  -0.07   0.13    -0.30   0.10  -0.27    -0.05  -0.14  -0.05
   5   6     0.09  -0.03   0.08     0.01  -0.00   0.19     0.01  -0.66  -0.18
   6   8    -0.35  -0.03   0.06    -0.18  -0.09   0.18     0.01   0.27   0.10
   7   8     0.33   0.07  -0.15     0.26  -0.02   0.01     0.01   0.28   0.06
   8   6     0.46  -0.01   0.10     0.30   0.03  -0.04     0.04  -0.01  -0.01
   9   1    -0.20  -0.01   0.01     0.16   0.00  -0.00     0.02  -0.01   0.00
  10   1    -0.05  -0.05   0.11    -0.01   0.05  -0.11    -0.00  -0.00  -0.01
  11   1    -0.20  -0.00   0.01     0.16  -0.00  -0.00     0.01  -0.00  -0.01
  12   1    -0.04   0.03  -0.07     0.03  -0.02   0.06    -0.00  -0.01   0.02
  13   1    -0.05   0.03  -0.06     0.02  -0.03   0.06     0.01  -0.00  -0.01
  14   1     0.05   0.00  -0.01    -0.17   0.03  -0.07     0.02   0.04   0.07
  15   1     0.05   0.00  -0.01    -0.17   0.02  -0.07    -0.05   0.08  -0.04
  16   1    -0.00  -0.02   0.02    -0.14   0.02  -0.12    -0.19   0.06   0.35
  17   1    -0.01  -0.03   0.04    -0.18  -0.02  -0.05     0.12   0.28  -0.21
  18   1     0.06  -0.03   0.09     0.07   0.01   0.00     0.01  -0.04  -0.01
  19   1     0.19  -0.00   0.05     0.08   0.01  -0.00     0.08  -0.01  -0.03
  20   1     0.18  -0.01   0.05     0.10   0.01  -0.01    -0.04  -0.03   0.01
                     13                     14                     15
                        a                      a                      a 
 Frequencies --   677.5920               766.0822               819.8726
 Red. masses --    12.3183                 2.4307                 3.5790
 Frc consts  --     0.0000                 0.0000                 0.0000
 IR Inten    --    10.3222                30.4345                 3.4556
 Raman Activ --     0.0000                 0.0000                 0.0000
 Depolar     --     0.0000                 0.0000                 0.0000
 Atom AN      X      Y      Z        X      Y      Z        X      Y      Z
   1   6    -0.09   0.01  -0.04    -0.00   0.01   0.00     0.00   0.07   0.03
   2   6    -0.08  -0.03   0.06    -0.00   0.12   0.05     0.00   0.22   0.08
   3   6     0.00  -0.00   0.01    -0.00   0.18   0.07     0.00  -0.07  -0.03
   4   6     0.36   0.12  -0.34     0.00   0.13   0.05    -0.01  -0.24  -0.09
   5   6     0.33  -0.02  -0.06     0.01  -0.21  -0.07    -0.02   0.28   0.08
   6   8    -0.43   0.03  -0.12    -0.00   0.06   0.01    -0.00  -0.08  -0.02
   7   8     0.14  -0.11   0.46    -0.00   0.05   0.01     0.00  -0.06  -0.01
   8   6    -0.14  -0.03   0.07    -0.00   0.00   0.00     0.01  -0.00  -0.00
   9   1    -0.01   0.00  -0.01     0.09  -0.10   0.06     0.21  -0.18   0.13
  10   1    -0.04   0.01  -0.03    -0.00  -0.04  -0.02     0.00  -0.11  -0.04
  11   1    -0.01   0.00  -0.01    -0.08  -0.03  -0.11    -0.21  -0.04  -0.21
  12   1    -0.04  -0.01   0.02    -0.06  -0.30   0.21     0.07  -0.29   0.23
  13   1    -0.04  -0.01   0.02     0.07  -0.06  -0.35    -0.06  -0.04  -0.37
  14   1    -0.04   0.00   0.01     0.03  -0.08  -0.45     0.18   0.01   0.12
  15   1    -0.05   0.01  -0.01    -0.03  -0.37   0.27    -0.18   0.08  -0.08
  16   1     0.12   0.04  -0.06    -0.14  -0.03  -0.23     0.14   0.02   0.28
  17   1     0.13   0.05  -0.10     0.13  -0.18   0.14    -0.14   0.20  -0.19
  18   1     0.12   0.04  -0.12     0.00  -0.00  -0.00     0.00   0.01  -0.00
  19   1    -0.14  -0.01  -0.01     0.01  -0.00  -0.00    -0.01   0.00   0.00
  20   1    -0.15  -0.00  -0.01    -0.01  -0.00   0.00     0.01   0.00  -0.00
                     16                     17                     18
                        a                      a                      a 
 Frequencies --   914.3433               933.7598               945.8885
 Red. masses --    10.8493                 3.4209                 6.1773
 Frc consts  --     0.0000                 0.0000                 0.0000
 IR Inten    --    22.3908                11.3144                10.8966
 Raman Activ --     0.0000                 0.0000                 0.0000
 Depolar     --     0.0000                 0.0000                 0.0000
 Atom AN      X      Y      Z        X      Y      Z        X      Y      Z
   1   6     0.17  -0.02   0.01     0.03   0.17   0.07    -0.31  -0.04   0.11
   2   6     0.05   0.06  -0.15     0.01  -0.01  -0.03    -0.09  -0.09   0.20
   3   6    -0.13  -0.02   0.12    -0.02  -0.22  -0.06     0.18   0.12  -0.31
   4   6    -0.34  -0.12   0.23    -0.04   0.25   0.12    -0.05  -0.10   0.28
   5   6    -0.04   0.11  -0.23     0.01  -0.19  -0.08     0.06   0.04  -0.09
   6   8     0.00   0.11  -0.40     0.00   0.06  -0.03     0.02   0.05  -0.18
   7   8     0.02  -0.12   0.40    -0.00   0.02   0.04     0.02  -0.02   0.08
   8   6     0.30   0.01   0.01     0.03   0.00   0.00     0.02  -0.01   0.04
   9   1    -0.08   0.01  -0.00     0.25  -0.18   0.15     0.25   0.02   0.01
  10   1     0.13  -0.04   0.14     0.03  -0.15  -0.02    -0.37   0.15  -0.39
  11   1    -0.02   0.00   0.04    -0.27  -0.02  -0.23     0.22  -0.02  -0.02
  12   1    -0.04   0.02  -0.04     0.32   0.01  -0.00     0.14  -0.02   0.06
  13   1     0.02   0.02  -0.03    -0.34   0.00  -0.01     0.11  -0.02   0.06
  14   1     0.01  -0.01   0.01    -0.25   0.01   0.21     0.13   0.03  -0.07
  15   1    -0.02  -0.04   0.05     0.24   0.15  -0.13     0.16   0.04  -0.08
  16   1    -0.11  -0.03   0.08    -0.03  -0.00  -0.20    -0.06  -0.03   0.06
  17   1    -0.10  -0.01   0.05     0.01  -0.14   0.15    -0.06  -0.03   0.07
  18   1     0.29   0.07  -0.18     0.03   0.00  -0.02     0.08   0.02  -0.06
  19   1    -0.09   0.00  -0.04    -0.01   0.00  -0.00    -0.05  -0.00  -0.01
  20   1    -0.09   0.01  -0.04    -0.01   0.00  -0.00    -0.05   0.00  -0.01
                     19                     20                     21
                        a                      a                      a 
 Frequencies --  1003.3184              1072.4912              1079.6775
 Red. masses --    12.0863                 3.9526                 8.8353
 Frc consts  --     0.0000                 0.0000                 0.0000
 IR Inten    --    13.7149                 7.2469                 1.5888
 Raman Activ --     0.0000                 0.0000                 0.0000
 Depolar     --     0.0000                 0.0000                 0.0000
 Atom AN      X      Y      Z        X      Y      Z        X      Y      Z
   1   6     0.14  -0.02   0.04    -0.02  -0.07  -0.04     0.26  -0.13   0.31
   2   6    -0.06   0.03  -0.07     0.01   0.12   0.06    -0.33   0.14  -0.33
   3   6    -0.18   0.03  -0.08     0.03  -0.15  -0.03    -0.34   0.06  -0.19
   4   6    -0.10  -0.10   0.25    -0.04   0.28   0.10     0.26  -0.05   0.18
   5   6     0.37   0.03  -0.01     0.04  -0.33  -0.10    -0.07  -0.03  -0.01
   6   8    -0.02   0.04  -0.15     0.00   0.07  -0.00     0.00  -0.01   0.06
   7   8     0.47   0.08  -0.20    -0.03   0.05   0.01    -0.10  -0.01   0.03
   8   6    -0.51  -0.08   0.20     0.01  -0.00  -0.00     0.07   0.01  -0.04
   9   1    -0.01  -0.01   0.01    -0.08   0.05  -0.05     0.19  -0.02   0.07
  10   1     0.08  -0.03   0.07    -0.00   0.04   0.01    -0.01   0.02  -0.03
  11   1    -0.00  -0.00   0.02     0.07   0.00   0.07     0.20  -0.03   0.08
  12   1    -0.03   0.01  -0.02    -0.14  -0.07   0.07    -0.04   0.04  -0.09
  13   1    -0.03   0.01  -0.02     0.14   0.00  -0.09    -0.03   0.03  -0.10
  14   1    -0.05   0.01  -0.02     0.23  -0.00   0.14    -0.01   0.02  -0.05
  15   1    -0.06   0.01  -0.02    -0.21   0.09  -0.09    -0.04   0.03  -0.06
  16   1    -0.13  -0.03   0.06     0.46   0.02  -0.16     0.31  -0.01   0.04
  17   1    -0.15  -0.02   0.07    -0.51  -0.09   0.12     0.25  -0.03   0.06
  18   1    -0.12  -0.02   0.04     0.01   0.00  -0.00    -0.00   0.00   0.01
  19   1    -0.06  -0.03   0.03    -0.01   0.00   0.00     0.01   0.01   0.00
  20   1    -0.07  -0.00   0.04     0.00   0.01  -0.01     0.02   0.00  -0.01
                     22                     23                     24
                        a                      a                      a 
 Frequencies --  1107.8313              1112.7718              1124.9848
 Red. masses --     7.6639                 3.8265                 9.7145
 Frc consts  --     0.0000                 0.0000                 0.0000
 IR Inten    --    30.7264                 1.5052                75.0860
 Raman Activ --     0.0000                 0.0000                 0.0000
 Depolar     --     0.0000                 0.0000                 0.0000
 Atom AN      X      Y      Z        X      Y      Z        X      Y      Z
   1   6    -0.22   0.09  -0.22    -0.01   0.00  -0.01     0.09   0.08  -0.19
   2   6     0.44  -0.02   0.06     0.02  -0.00   0.01    -0.10  -0.13   0.31
   3   6    -0.41   0.01  -0.06    -0.03   0.00  -0.01    -0.00   0.16  -0.39
   4   6     0.15  -0.06   0.19     0.02   0.01   0.02     0.24  -0.11   0.29
   5   6    -0.20  -0.01  -0.04     0.00   0.00   0.00     0.27   0.01   0.04
   6   8     0.03  -0.00   0.02     0.00  -0.01  -0.00    -0.01   0.00  -0.02
   7   8     0.11   0.02  -0.01    -0.00  -0.22  -0.07    -0.36  -0.01  -0.02
   8   6    -0.03  -0.04   0.07    -0.01   0.41   0.12     0.15   0.02  -0.08
   9   1    -0.10   0.03  -0.06    -0.01   0.00  -0.00    -0.19  -0.01  -0.02
  10   1    -0.04   0.02  -0.04     0.00  -0.00   0.00     0.18  -0.07   0.18
  11   1    -0.09   0.02  -0.06    -0.01   0.00  -0.00    -0.19   0.02  -0.01
  12   1     0.27  -0.01   0.02     0.01  -0.00   0.00    -0.14  -0.03   0.07
  13   1     0.28  -0.01   0.01     0.01  -0.00  -0.00    -0.14  -0.03   0.07
  14   1    -0.20   0.01   0.00    -0.01   0.00  -0.00    -0.10   0.04  -0.10
  15   1    -0.21  -0.00  -0.01    -0.02   0.00  -0.00    -0.10   0.04  -0.10
  16   1     0.24  -0.02   0.06     0.03  -0.00  -0.00    -0.05  -0.03   0.07
  17   1     0.22  -0.03   0.06    -0.01  -0.01   0.01    -0.06  -0.02   0.07
  18   1     0.07   0.03  -0.04     0.02  -0.24  -0.07    -0.00   0.00   0.01
  19   1    -0.06  -0.01   0.01     0.50  -0.06  -0.31    -0.02   0.01  -0.00
  20   1    -0.01   0.02  -0.01    -0.49  -0.26   0.22     0.00   0.00  -0.02
                     25                     26                     27
                        a                      a                      a 
 Frequencies --  1135.2414              1156.7897              1199.7818
 Red. masses --     7.4730                 9.6706                 5.2741
 Frc consts  --     0.0000                 0.0000                 0.0000
 IR Inten    --   118.3888               245.9705                 0.3877
 Raman Activ --     0.0000                 0.0000                 0.0000
 Depolar     --     0.0000                 0.0000                 0.0000
 Atom AN      X      Y      Z        X      Y      Z        X      Y      Z
   1   6     0.08   0.00  -0.02     0.06   0.02  -0.08     0.00   0.25   0.10
   2   6    -0.16  -0.05   0.13    -0.12  -0.07   0.20    -0.00  -0.37  -0.14
   3   6     0.17   0.05  -0.14     0.12   0.07  -0.20     0.00   0.34   0.13
   4   6     0.05   0.03  -0.06    -0.03   0.00   0.04    -0.02  -0.12  -0.05
   5   6    -0.39  -0.02  -0.02    -0.44   0.01  -0.13    -0.01  -0.07  -0.02
   6   8     0.05  -0.03   0.11     0.02   0.04  -0.12     0.00   0.01   0.00
   7   8     0.20   0.09  -0.26     0.39  -0.08   0.33     0.01   0.01   0.00
   8   6    -0.01  -0.11   0.37    -0.16   0.05  -0.17    -0.00  -0.00   0.00
   9   1    -0.06  -0.01   0.00    -0.09  -0.01  -0.01     0.19  -0.13   0.14
  10   1     0.07  -0.03   0.07     0.09  -0.03   0.09     0.01  -0.11  -0.04
  11   1    -0.05   0.00   0.02    -0.08   0.01   0.01    -0.20   0.00  -0.19
  12   1    -0.14  -0.01   0.03    -0.10  -0.02   0.05    -0.03   0.15  -0.18
  13   1    -0.13  -0.01   0.02    -0.09  -0.02   0.03     0.02  -0.02   0.24
  14   1     0.07   0.01  -0.03     0.09   0.02  -0.03     0.02   0.02  -0.22
  15   1     0.05   0.02  -0.04     0.07   0.03  -0.06    -0.00  -0.14   0.17
  16   1     0.08   0.01  -0.02     0.15  -0.00   0.01     0.36  -0.01   0.08
  17   1     0.08   0.00  -0.01     0.14  -0.02   0.02    -0.31   0.05  -0.06
  18   1     0.42   0.09  -0.26    -0.27  -0.06   0.15     0.00   0.00  -0.00
  19   1    -0.24  -0.05  -0.05     0.22   0.03   0.05     0.00  -0.00   0.00
  20   1    -0.25   0.05  -0.03     0.21  -0.04   0.04     0.00   0.00  -0.00
                     28                     29                     30
                        a                      a                      a 
 Frequencies --  1252.9648              1257.1426              1275.7327
 Red. masses --     4.0040                 3.8154                 1.7735
 Frc consts  --     0.0000                 0.0000                 0.0000
 IR Inten    --    43.3736                35.2733                 0.2671
 Raman Activ --     0.0000                 0.0000                 0.0000
 Depolar     --     0.0000                 0.0000                 0.0000
 Atom AN      X      Y      Z        X      Y      Z        X      Y      Z
   1   6    -0.04   0.11   0.15     0.03   0.19  -0.02    -0.00   0.13   0.06
   2   6     0.11  -0.10  -0.17    -0.11  -0.18   0.04     0.01   0.11   0.04
   3   6     0.13  -0.12  -0.02    -0.13  -0.13  -0.07     0.01  -0.16  -0.07
   4   6     0.28   0.11   0.09    -0.25   0.14   0.01     0.01  -0.07  -0.03
   5   6    -0.20   0.03  -0.03     0.19   0.03   0.05    -0.01   0.00  -0.00
   6   8     0.03   0.01  -0.02    -0.02  -0.01   0.02     0.00   0.00  -0.00
   7   8     0.04  -0.02   0.05    -0.05   0.01  -0.05     0.00  -0.00   0.00
   8   6    -0.01   0.00  -0.01     0.01   0.00   0.01    -0.00  -0.00  -0.00
   9   1     0.15  -0.05   0.08     0.05  -0.09   0.08     0.09  -0.05   0.07
  10   1    -0.07  -0.04  -0.10     0.07  -0.10   0.04    -0.00  -0.02  -0.01
  11   1    -0.04  -0.01  -0.11    -0.15   0.02  -0.10    -0.08   0.01  -0.08
  12   1    -0.31   0.06  -0.11    -0.07   0.04  -0.05    -0.53  -0.04   0.03
  13   1     0.04  -0.00   0.07     0.35  -0.03   0.11     0.51   0.01  -0.05
  14   1     0.00  -0.01   0.07     0.57  -0.01   0.10    -0.43  -0.01   0.06
  15   1    -0.59   0.04  -0.07    -0.01   0.05  -0.07     0.40   0.04  -0.05
  16   1    -0.42   0.01  -0.04    -0.01   0.01  -0.09     0.03  -0.01   0.03
  17   1    -0.06  -0.05   0.07     0.43  -0.03   0.04    -0.05   0.01  -0.03
  18   1     0.01   0.00  -0.01    -0.01  -0.00   0.01     0.00   0.00  -0.00
  19   1     0.03   0.00   0.00    -0.03  -0.00  -0.01     0.00  -0.00   0.00
  20   1     0.03  -0.00   0.00    -0.03  -0.00  -0.00     0.00   0.00   0.00
                     31                     32                     33
                        a                      a                      a 
 Frequencies --  1324.1706              1367.7170              1373.8795
 Red. masses --     4.9986                 5.3040                 2.7268
 Frc consts  --     0.0000                 0.0000                 0.0000
 IR Inten    --    51.3395                 2.7596                22.4257
 Raman Activ --     0.0000                 0.0000                 0.0000
 Depolar     --     0.0000                 0.0000                 0.0000
 Atom AN      X      Y      Z        X      Y      Z        X      Y      Z
   1   6    -0.05  -0.04   0.11    -0.04  -0.02   0.06    -0.01  -0.00   0.01
   2   6     0.33   0.01  -0.02     0.38  -0.02   0.05     0.05  -0.00   0.01
   3   6     0.17   0.02  -0.07    -0.43   0.01  -0.02    -0.08   0.00   0.00
   4   6    -0.40  -0.02   0.06     0.20   0.02  -0.06     0.08   0.01  -0.03
   5   6     0.18  -0.00   0.03    -0.04  -0.00   0.00    -0.10  -0.01   0.01
   6   8    -0.02  -0.00   0.00     0.01  -0.00   0.00     0.01   0.01  -0.04
   7   8    -0.02   0.01  -0.03    -0.03  -0.00   0.01     0.14   0.01  -0.01
   8   6     0.02   0.00  -0.00    -0.06  -0.01   0.01     0.31   0.03  -0.05
   9   1     0.00   0.05  -0.02    -0.02   0.06  -0.03     0.00   0.01  -0.00
  10   1    -0.12   0.05  -0.13    -0.07   0.03  -0.08    -0.01   0.00  -0.01
  11   1     0.00  -0.02  -0.05    -0.01  -0.02  -0.06     0.00  -0.00  -0.01
  12   1    -0.39   0.00  -0.02    -0.32   0.04  -0.03    -0.04   0.01  -0.01
  13   1    -0.38   0.01  -0.02    -0.32  -0.01  -0.05    -0.04  -0.00  -0.01
  14   1    -0.17   0.02   0.02     0.38  -0.00   0.01     0.07  -0.00  -0.00
  15   1    -0.18  -0.03  -0.01     0.38   0.00   0.01     0.07   0.00   0.00
  16   1     0.32  -0.02  -0.05    -0.13   0.03   0.09    -0.05   0.01   0.04
  17   1     0.35   0.05  -0.02    -0.13  -0.08   0.05    -0.06  -0.04   0.02
  18   1    -0.04  -0.01   0.03     0.08   0.03  -0.07    -0.40  -0.13   0.36
  19   1    -0.05   0.00  -0.00     0.10  -0.01  -0.00    -0.51   0.05   0.02
  20   1    -0.05  -0.01  -0.00     0.10   0.02   0.00    -0.50  -0.10  -0.02
                     34                     35                     36
                        a                      a                      a 
 Frequencies --  1412.4178              1424.5475              1425.5241
 Red. masses --     3.2082                 1.5140                 2.0799
 Frc consts  --     0.0000                 0.0000                 0.0000
 IR Inten    --     0.7061                12.3075                23.2385
 Raman Activ --     0.0000                 0.0000                 0.0000
 Depolar     --     0.0000                 0.0000                 0.0000
 Atom AN      X      Y      Z        X      Y      Z        X      Y      Z
   1   6    -0.37   0.08  -0.21     0.00  -0.00   0.00    -0.00   0.00  -0.01
   2   6     0.10   0.00  -0.01     0.00  -0.00  -0.00    -0.04  -0.00   0.01
   3   6    -0.01   0.01  -0.02    -0.01   0.00   0.00     0.10   0.01  -0.01
   4   6    -0.01  -0.01   0.01     0.01  -0.01   0.02    -0.09   0.10  -0.25
   5   6     0.00   0.00   0.00    -0.00   0.00  -0.00     0.04  -0.00   0.03
   6   8     0.00   0.00  -0.00     0.00  -0.00   0.00    -0.00   0.01  -0.03
   7   8     0.00  -0.00  -0.00    -0.00   0.04   0.01    -0.02   0.01  -0.02
   8   6    -0.00  -0.00  -0.00    -0.01   0.20   0.06    -0.01   0.01   0.01
   9   1     0.46  -0.19   0.11    -0.00   0.00  -0.00     0.01  -0.01   0.01
  10   1     0.26  -0.16   0.40    -0.00   0.00  -0.00     0.01  -0.00   0.01
  11   1     0.46   0.07   0.22    -0.00  -0.00  -0.00     0.01   0.00   0.02
  12   1    -0.10  -0.05   0.03    -0.00  -0.00   0.00     0.02   0.02  -0.01
  13   1    -0.10   0.01   0.06    -0.00   0.00   0.00     0.02  -0.01  -0.02
  14   1     0.00   0.00  -0.00     0.01  -0.00  -0.00    -0.07   0.00   0.00
  15   1     0.00  -0.00  -0.00     0.01  -0.00   0.00    -0.07  -0.01  -0.00
  16   1     0.02  -0.00  -0.01    -0.01  -0.01  -0.05     0.04   0.18   0.64
  17   1     0.02   0.01  -0.00    -0.00   0.05  -0.03     0.05  -0.57   0.34
  18   1     0.00   0.00  -0.00     0.04  -0.69  -0.20     0.02  -0.05  -0.03
  19   1     0.00   0.00   0.00    -0.40  -0.04  -0.23    -0.02  -0.01  -0.02
  20   1     0.00  -0.00   0.00     0.41  -0.12   0.19     0.05  -0.00   0.01
                     37                     38                     39
                        a                      a                      a 
 Frequencies --  1449.9097              1490.9080              1496.9730
 Red. masses --     1.6006                 1.9237                 1.8847
 Frc consts  --     0.0000                 0.0000                 0.0000
 IR Inten    --     2.5486                 1.1904                 0.6940
 Raman Activ --     0.0000                 0.0000                 0.0000
 Depolar     --     0.0000                 0.0000                 0.0000
 Atom AN      X      Y      Z        X      Y      Z        X      Y      Z
   1   6    -0.00   0.00  -0.00    -0.02   0.02  -0.04     0.03   0.02  -0.03
   2   6    -0.00  -0.00   0.00    -0.00  -0.10   0.25     0.04   0.03  -0.06
   3   6    -0.00   0.00  -0.00     0.03  -0.03   0.07    -0.01  -0.10   0.24
   4   6     0.01  -0.00   0.00    -0.02  -0.00   0.01    -0.02  -0.01   0.01
   5   6    -0.01  -0.01   0.02     0.00  -0.00   0.01     0.01  -0.00   0.01
   6   8    -0.01   0.01  -0.03     0.00   0.00  -0.01     0.00   0.00  -0.01
   7   8    -0.01  -0.02   0.06    -0.00  -0.00  -0.00     0.00   0.00   0.00
   8   6     0.03  -0.06   0.20    -0.00   0.00  -0.00    -0.00   0.00   0.00
   9   1     0.00  -0.00   0.00     0.01  -0.11   0.07    -0.06  -0.12   0.07
  10   1     0.00  -0.00   0.00    -0.01   0.00  -0.01    -0.05   0.00  -0.08
  11   1     0.00   0.00   0.00     0.02   0.03   0.12    -0.03   0.03   0.13
  12   1    -0.00   0.00  -0.00     0.02   0.56  -0.34    -0.03  -0.14   0.09
  13   1     0.00  -0.00  -0.00     0.02  -0.16  -0.63    -0.03   0.04   0.16
  14   1    -0.00   0.00  -0.00    -0.02  -0.04  -0.13     0.01  -0.16  -0.61
  15   1    -0.00   0.00  -0.00    -0.02   0.12  -0.07     0.00   0.55  -0.33
  16   1     0.00  -0.00  -0.00     0.01  -0.01  -0.02     0.02   0.00   0.01
  17   1     0.00   0.00  -0.00     0.01   0.02  -0.01     0.02  -0.01   0.01
  18   1    -0.16  -0.05   0.16     0.00   0.00  -0.00     0.00  -0.00  -0.00
  19   1     0.08  -0.22  -0.63     0.00   0.00   0.00     0.00  -0.00  -0.00
  20   1     0.04   0.53  -0.41     0.00  -0.00   0.00     0.00   0.00   0.00
                     40                     41                     42
                        a                      a                      a 
 Frequencies --  1497.7856              1502.7370              1705.6785
 Red. masses --     1.5243                 1.6097                13.3131
 Frc consts  --     0.0000                 0.0000                 0.0000
 IR Inten    --     1.6029                 0.6328               648.3935
 Raman Activ --     0.0000                 0.0000                 0.0000
 Depolar     --     0.0000                 0.0000                 0.0000
 Atom AN      X      Y      Z        X      Y      Z        X      Y      Z
   1   6    -0.00   0.19   0.08     0.11   0.07  -0.16    -0.00  -0.00   0.00
   2   6    -0.00   0.04   0.02     0.05   0.03  -0.06    -0.00   0.00  -0.01
   3   6     0.00   0.00  -0.01    -0.02   0.02  -0.06    -0.00   0.00   0.00
   4   6     0.00  -0.00  -0.00     0.01   0.00  -0.00     0.05   0.01  -0.05
   5   6    -0.00   0.00  -0.00    -0.00   0.00  -0.01    -0.11  -0.23   0.75
   6   8    -0.00  -0.00   0.00    -0.00  -0.00   0.01     0.05   0.17  -0.56
   7   8    -0.00   0.00  -0.00    -0.00   0.00  -0.00    -0.02   0.01  -0.05
   8   6     0.00   0.00  -0.00     0.00  -0.00   0.00    -0.01  -0.00   0.00
   9   1    -0.44  -0.12   0.08    -0.14  -0.52   0.31    -0.00  -0.00   0.00
  10   1     0.01  -0.66  -0.27    -0.16   0.10  -0.25    -0.00   0.00  -0.00
  11   1     0.45  -0.02  -0.15    -0.15   0.15   0.58    -0.00   0.00   0.00
  12   1     0.02  -0.00   0.02    -0.03  -0.06   0.03     0.00  -0.00   0.00
  13   1    -0.02   0.01  -0.02    -0.03   0.02   0.06     0.00   0.00   0.00
  14   1    -0.02   0.01   0.02     0.01   0.04   0.18    -0.01   0.00   0.01
  15   1     0.02  -0.02   0.01     0.01  -0.15   0.10    -0.01  -0.01   0.01
  16   1     0.00  -0.00   0.00    -0.01  -0.00  -0.01     0.04  -0.01  -0.03
  17   1    -0.00   0.00  -0.00    -0.01   0.01  -0.00     0.04   0.03  -0.02
  18   1    -0.00  -0.00   0.00    -0.00   0.00   0.00     0.03   0.01  -0.02
  19   1    -0.00   0.00   0.00    -0.00  -0.00  -0.00     0.01   0.00   0.02
  20   1    -0.00  -0.00   0.00    -0.00   0.00  -0.00     0.01  -0.01   0.02
                     43                     44                     45
                        a                      a                      a 
 Frequencies --  2963.7608              2967.8399              2979.0726
 Red. masses --     1.8993                 1.9562                 1.9673
 Frc consts  --     0.0000                 0.0000                 0.0000
 IR Inten    --     6.2741                13.6709               112.0556
 Raman Activ --     0.0000                 0.0000                 0.0000
 Depolar     --     0.0000                 0.0000                 0.0000
 Atom AN      X      Y      Z        X      Y      Z        X      Y      Z
   1   6     0.00  -0.01  -0.00     0.00   0.01   0.01    -0.00   0.01   0.01
   2   6    -0.00   0.14   0.06     0.00  -0.21  -0.08     0.00  -0.10  -0.07
   3   6     0.00  -0.14  -0.05    -0.00   0.02   0.01     0.00  -0.23  -0.09
   4   6    -0.00   0.19   0.03    -0.00   0.19   0.03     0.00  -0.10   0.03
   5   6     0.00   0.01   0.00     0.00   0.01  -0.00    -0.00  -0.00   0.00
   6   8    -0.00  -0.00   0.00    -0.00  -0.00   0.00     0.00   0.00  -0.00
   7   8     0.00  -0.00  -0.00    -0.00  -0.00  -0.00     0.00   0.00  -0.00
   8   6    -0.00  -0.00   0.00    -0.00  -0.00   0.00     0.00   0.01  -0.00
   9   1     0.00   0.02   0.03    -0.00  -0.02  -0.04     0.00  -0.02  -0.03
  10   1    -0.00  -0.00  -0.00    -0.00   0.00   0.00     0.01   0.00  -0.00
  11   1    -0.00   0.03  -0.01     0.00  -0.05   0.01    -0.00  -0.03   0.01
  12   1     0.01  -0.19  -0.32    -0.01   0.25   0.42    -0.01   0.18   0.29
  13   1    -0.01  -0.34   0.09     0.01   0.50  -0.13     0.00   0.17  -0.05
  14   1     0.01   0.36  -0.10    -0.00  -0.03   0.01     0.01   0.54  -0.15
  15   1    -0.01   0.16   0.29     0.00  -0.03  -0.06    -0.02   0.27   0.47
  16   1     0.00  -0.54   0.15    -0.00  -0.56   0.15     0.00   0.38  -0.09
  17   1    -0.00  -0.14  -0.27     0.00  -0.13  -0.24    -0.00  -0.04  -0.04
  18   1     0.00  -0.00   0.00     0.00  -0.00   0.00    -0.00   0.00  -0.00
  19   1     0.00   0.00  -0.00     0.00   0.01  -0.00    -0.00  -0.02   0.01
  20   1    -0.00   0.00   0.00    -0.00   0.00   0.00     0.00  -0.00  -0.00
                     46                     47                     48
                        a                      a                      a 
 Frequencies --  2983.1873              2986.1532              2986.4732
 Red. masses --     1.5209                 1.5470                 1.9430
 Frc consts  --     0.0000                 0.0000                 0.0000
 IR Inten    --    38.8130                13.5547                23.0368
 Raman Activ --     0.0000                 0.0000                 0.0000
 Depolar     --     0.0000                 0.0000                 0.0000
 Atom AN      X      Y      Z        X      Y      Z        X      Y      Z
   1   6     0.01   0.01  -0.01     0.00  -0.00  -0.00     0.00  -0.00  -0.00
   2   6    -0.01  -0.09   0.16    -0.00  -0.02   0.07    -0.00  -0.00   0.01
   3   6    -0.00  -0.05  -0.02     0.00   0.06  -0.05     0.00   0.02  -0.01
   4   6    -0.00  -0.03  -0.09    -0.00   0.02   0.18    -0.00   0.01   0.04
   5   6     0.00  -0.00  -0.00    -0.00  -0.00   0.01    -0.00  -0.00   0.00
   6   8    -0.00  -0.00   0.00     0.00   0.00  -0.00     0.00   0.00  -0.00
   7   8    -0.00   0.00   0.00    -0.00  -0.00  -0.00    -0.00   0.00   0.00
   8   6    -0.00   0.00   0.00     0.01  -0.06  -0.02    -0.01   0.28   0.08
   9   1     0.00   0.01   0.02     0.00   0.00   0.00     0.00   0.00   0.00
  10   1    -0.05  -0.01   0.03    -0.02  -0.01   0.01    -0.00  -0.00   0.00
  11   1     0.00  -0.04   0.01     0.00   0.00  -0.00     0.00   0.00  -0.00
  12   1     0.02  -0.33  -0.47     0.01  -0.15  -0.22     0.00  -0.03  -0.05
  13   1     0.01   0.66  -0.13     0.00   0.22  -0.04     0.00   0.04  -0.01
  14   1    -0.00   0.09  -0.02    -0.00  -0.33   0.07    -0.00  -0.08   0.02
  15   1    -0.01   0.07   0.12    -0.00   0.10   0.14    -0.00   0.02   0.02
  16   1    -0.00  -0.09   0.01    -0.00   0.32  -0.05    -0.00   0.06  -0.01
  17   1    -0.00   0.19   0.30    -0.00  -0.40  -0.61    -0.00  -0.09  -0.14
  18   1     0.00  -0.00   0.00    -0.00  -0.01  -0.01    -0.00   0.04   0.01
  19   1     0.00   0.01  -0.00     0.01   0.11  -0.04    -0.04  -0.62   0.23
  20   1     0.00  -0.02  -0.02    -0.02   0.10   0.13     0.09  -0.39  -0.52
                     49                     50                     51
                        a                      a                      a 
 Frequencies --  2994.9006              2996.3487              3029.0220
 Red. masses --     1.5069                 1.3967                 1.9534
 Frc consts  --     0.0000                 0.0000                 0.0000
 IR Inten    --    58.5844                40.8959                86.2845
 Raman Activ --     0.0000                 0.0000                 0.0000
 Depolar     --     0.0000                 0.0000                 0.0000
 Atom AN      X      Y      Z        X      Y      Z        X      Y      Z
   1   6    -0.01  -0.01   0.02    -0.00  -0.00   0.01    -0.00   0.27   0.11
   2   6     0.00   0.01  -0.04     0.00   0.00  -0.01    -0.00   0.03   0.01
   3   6     0.01   0.05  -0.18     0.00   0.02  -0.06    -0.00   0.00   0.00
   4   6    -0.00   0.00  -0.07    -0.00   0.00  -0.03     0.00   0.00   0.00
   5   6     0.00   0.00  -0.00    -0.00   0.00  -0.01     0.00   0.00   0.00
   6   8     0.00  -0.00   0.00    -0.00  -0.00   0.00    -0.00  -0.00  -0.00
   7   8    -0.00  -0.00   0.00     0.01   0.00  -0.01    -0.00  -0.00  -0.00
   8   6    -0.01  -0.02   0.05     0.04   0.05  -0.16    -0.00   0.00  -0.00
   9   1     0.00  -0.02  -0.03     0.00  -0.01  -0.01     0.01  -0.34  -0.58
  10   1     0.03   0.01  -0.02     0.01   0.00  -0.01    -0.01   0.04   0.02
  11   1    -0.00   0.03  -0.01    -0.00   0.01  -0.00    -0.01  -0.65   0.18
  12   1    -0.00   0.07   0.11    -0.00   0.02   0.03     0.00  -0.03  -0.05
  13   1    -0.00  -0.11   0.02    -0.00  -0.03   0.00    -0.00  -0.06   0.01
  14   1    -0.01  -0.55   0.11    -0.00  -0.17   0.03    -0.00  -0.01   0.00
  15   1    -0.02   0.37   0.54    -0.01   0.12   0.18     0.00  -0.00  -0.01
  16   1    -0.00  -0.14   0.02    -0.00  -0.07   0.01     0.00  -0.00   0.00
  17   1    -0.00   0.14   0.20    -0.00   0.07   0.10    -0.00  -0.00  -0.00
  18   1     0.02  -0.01   0.03    -0.06   0.02  -0.09     0.00   0.00   0.00
  19   1     0.01   0.21  -0.06    -0.04  -0.62   0.19     0.00  -0.00   0.00
  20   1     0.03  -0.14  -0.16    -0.09   0.43   0.49    -0.00  -0.00  -0.00
                     52                     53                     54
                        a                      a                      a 
 Frequencies --  3033.1272              3041.9546              3057.1943
 Red. masses --     1.8996                 1.2919                 1.8029
 Frc consts  --     0.0000                 0.0000                 0.0000
 IR Inten    --    83.5866                42.8599                 2.6772
 Raman Activ --     0.0000                 0.0000                 0.0000
 Depolar     --     0.0000                 0.0000                 0.0000
 Atom AN      X      Y      Z        X      Y      Z        X      Y      Z
   1   6     0.14   0.09  -0.23    -0.16   0.01  -0.02     0.00   0.00  -0.00
   2   6     0.00   0.01  -0.02    -0.01  -0.00   0.00     0.00   0.00  -0.00
   3   6     0.00   0.00  -0.01     0.00   0.00  -0.00     0.00   0.00  -0.00
   4   6     0.00   0.00  -0.00    -0.00  -0.00   0.00     0.00  -0.00   0.00
   5   6    -0.00   0.00  -0.00     0.00   0.00  -0.00     0.00   0.00  -0.00
   6   8     0.00  -0.00   0.00    -0.00  -0.00   0.00     0.00  -0.00   0.00
   7   8     0.00   0.00   0.00    -0.00   0.00  -0.00    -0.01   0.00  -0.00
   8   6     0.00   0.00   0.00    -0.00   0.00  -0.00    -0.16   0.05  -0.21
   9   1     0.01   0.31   0.43    -0.03   0.24   0.38     0.00   0.00   0.00
  10   1    -0.51  -0.13   0.30     0.62   0.17  -0.40    -0.00  -0.00   0.00
  11   1     0.02  -0.51   0.09    -0.02  -0.44   0.10     0.00   0.00  -0.00
  12   1    -0.00   0.03   0.05    -0.00  -0.01  -0.01    -0.00   0.00   0.00
  13   1    -0.00  -0.06   0.01    -0.00   0.01  -0.00    -0.00  -0.00   0.00
  14   1    -0.00  -0.04   0.01    -0.00  -0.01   0.00     0.00  -0.00   0.00
  15   1    -0.00   0.02   0.03    -0.00   0.01   0.01     0.00   0.00   0.00
  16   1     0.00  -0.00   0.00     0.00   0.00  -0.00     0.00   0.00  -0.00
  17   1     0.00   0.00   0.00     0.00  -0.00  -0.00    -0.00   0.00  -0.00
  18   1    -0.00   0.00  -0.00     0.00  -0.00   0.00     0.63  -0.17   0.71
  19   1    -0.00  -0.00   0.00    -0.00  -0.00   0.00    -0.02  -0.06  -0.01
  20   1    -0.00   0.00   0.00    -0.00   0.00   0.00    -0.03   0.05   0.03
