! r2scan-3c def2/J RI DEFGRID2 scfconv6 printgap
%output
    printlevel normal
end
* xyz 0 1
C 2.7577635757 -0.9675657975 -0.115763293
C 2.3155941087 0.3049628546 0.5982525609
C 1.3945477193 1.1850462074 -0.2493242233
C 0.0798670495 0.5243859515 -0.6753036327
C -0.7870943355 0.1589828931 0.5165755472
Cl -2.3838711022 -0.4623279112 -0.0349570938
H 1.9183306143 -1.637047988 -0.2828904211
H 3.4955975521 -1.4966093872 0.4824976449
H 3.2050605063 -0.7277097149 -1.0776666684
H 1.8224076133 0.0454240062 1.5359598498
H 3.2013583472 0.8926356584 0.8491803452
H 1.9289045213 1.479518067 -1.1544371943
H 1.1663121719 2.0935061732 0.3116753373
H 0.2821230632 -0.3686786187 -1.266688141
H -0.4694029624 1.2231356833 -1.3092114766
H -0.350159145 -0.6378934892 1.11409311
H -0.9967647307 1.0266675154 1.1400528794
*
