! pbe def2-sv(p) def2/J RI DEFGRID1 loosescf d4 GCP(DFT/SV(P)) printgap
%output
    printlevel normal
end
* xyz 0 1
C -3.6619675287 -0.4189344364 0.3870458353
C -2.3730854572 0.2137018385 -0.1214386761
C -1.1515538756 -0.6064278728 0.2838679419
C 0.1313485613 -0.0243104783 -0.2481827115
O 0.2131444849 0.9228125002 -1.0007362652
O 1.1858821908 -0.6982755064 0.2030347633
C 2.4962585498 -0.2713996822 -0.206743855
C 3.0235149351 0.8330549781 0.6964370923
H -3.7844560739 -1.4177267553 -0.0243389182
H -3.6488271577 -0.4915124121 1.4716392521
H -4.5178821935 0.1817863288 0.0924644234
H -2.2715732106 1.2252768422 0.2758874734
H -2.399748565 0.2963005733 -1.2095015418
H -1.2311860626 -1.6268611891 -0.0974029905
H -1.0664167617 -0.6729684854 1.3698089443
H 3.1105933058 -1.1694195743 -0.1363194899
H 2.4423919936 0.073040775 -1.2439828389
H 3.0198219397 0.5035545967 1.7318808332
H 4.0375954151 1.0839050561 0.4029949205
H 2.399697014 1.7193053914 0.6035174604
*
