      -----------------------------------------------------------      
     |                   =====================                   |     
     |                           x T B                           |     
     |                   =====================                   |     
     |                         S. Grimme                         |     
     |          Mulliken Center for Theoretical Chemistry        |     
     |                    University of Bonn                     |     
      -----------------------------------------------------------      

   * xtb version 6.7.1 (edcfbbe) compiled by 'albert@albert-system' on 2024-07-22

   xtb is free software: you can redistribute it and/or modify it under
   the terms of the GNU Lesser General Public License as published by
   the Free Software Foundation, either version 3 of the License, or
   (at your option) any later version.
   
   xtb is distributed in the hope that it will be useful,
   but WITHOUT ANY WARRANTY; without even the implied warranty of
   MERCHANTABILITY or FITNESS FOR A PARTICULAR PURPOSE.  See the
   GNU Lesser General Public License for more details.
   
   Cite this work as:
   * C. Bannwarth, E. Caldeweyher, S. Ehlert, A. Hansen, P. Pracht,
     J. Seibert, S. Spicher, S. Grimme, WIREs Comput. Mol. Sci., 2020, 11,
     e01493. DOI: 10.1002/wcms.1493
   
   for GFN2-xTB:
   * C. Bannwarth, S. Ehlert and S. Grimme., J. Chem. Theory Comput., 2019,
     15, 1652-1671. DOI: 10.1021/acs.jctc.8b01176
   for GFN1-xTB:
   * S. Grimme, C. Bannwarth, P. Shushkov, J. Chem. Theory Comput., 2017,
     13, 1989-2009. DOI: 10.1021/acs.jctc.7b00118
   for GFN0-xTB:
   * P. Pracht, E. Caldeweyher, S. Ehlert, S. Grimme, ChemRxiv, 2019, preprint.
     DOI: 10.26434/chemrxiv.8326202.v1
   for GFN-FF:
   * S. Spicher and S. Grimme, Angew. Chem. Int. Ed., 2020, 59, 15665-15673.
     DOI: 10.1002/anie.202004239
   
   for ALPB and GBSA implicit solvation:
   * S. Ehlert, M. Stahn, S. Spicher, S. Grimme, J. Chem. Theory Comput.,
     2021, 17, 4250-4261. DOI: 10.1021/acs.jctc.1c00471
   
   for ddCOSMO and CPCM-X implicit solvation:
   * M. Stahn, S. Ehlert, S. Grimme, J. Phys. Chem. A,
     2023, XX, XXXX-XXXX. DOI: 10.1021/acs.jpca.3c04382
   
   for DFT-D4:
   * E. Caldeweyher, C. Bannwarth and S. Grimme, J. Chem. Phys., 2017,
     147, 034112. DOI: 10.1063/1.4993215
   * E. Caldeweyher, S. Ehlert, A. Hansen, H. Neugebauer, S. Spicher,
     C. Bannwarth and S. Grimme, J. Chem. Phys., 2019, 150, 154122.
     DOI: 10.1063/1.5090222
   * E. Caldeweyher, J.-M. Mewes, S. Ehlert and S. Grimme, Phys. Chem. Chem. Phys.
     2020, 22, 8499-8512. DOI: 10.1039/D0CP00502A
   
   for sTDA-xTB:
   * S. Grimme and C. Bannwarth, J. Chem. Phys., 2016, 145, 054103.
     DOI: 10.1063/1.4959605
   
   in the mass-spec context:
   * V. Asgeirsson, C. Bauer and S. Grimme, Chem. Sci., 2017, 8, 4879.
     DOI: 10.1039/c7sc00601b
   * J. Koopman and S. Grimme, ACS Omega 2019, 4, 12, 15120-15133.
     DOI: 10.1021/acsomega.9b02011
   
   for metadynamics refer to:
   * S. Grimme, J. Chem. Theory Comput., 2019, 155, 2847-2862
     DOI: 10.1021/acs.jctc.9b00143
   
   for SPH calculations refer to:
   * S. Spicher and S. Grimme, J. Chem. Theory Comput., 2021, 17, 1701-1714
     DOI: 10.1021/acs.jctc.0c01306
   
   for ONIOM refer to:
   * C. Plett, A. Katbashev, S. Ehlert, S. Grimme, M. Bursch,
     Phys. Chem. Chem. Phys., 2023, 25, 17860-17868. DOI: 10.1039/D3CP02178E
   
   for DIPRO refer to:
   * J. Kohn, N. Gildemeister, S. Grimme, D. Fazzi, A. Hansen,
     J. Chem. Phys., 2023, just accepted.
   
   for PTB refer to:
   * S. Grimme, M. Mueller, A. Hansen, J. Chem. Phys., 2023, 158, 124111.
     DOI: 10.1063/5.0137838
   
   with help from (in alphabetical order)
   P. Atkinson, C. Bannwarth, F. Bohle, G. Brandenburg, E. Caldeweyher
   M. Checinski, S. Dohm, S. Ehlert, S. Ehrlich, I. Gerasimov, C. Hölzer
   A. Katbashev, J. Kohn, J. Koopman, C. Lavigne, S. Lehtola, F. März, M. Müller,
   F. Musil, H. Neugebauer, J. Pisarek, C. Plett, P. Pracht, F. Pultar,
   J. Seibert, P. Shushkov, S. Spicher, M. Stahn, M. Steiner, T. Strunk,
   J. Stückrath, T. Rose, and J. Unsleber
   
 * started run on 2025/04/11 at 16:09:18.211     
   ID    Z sym.   atoms
    1    6 C      1-5, 7
    2    8 O      6
    3    1 H      8-19

           -------------------------------------------------
          |                Calculation Setup                |
           -------------------------------------------------

          program call               : /srv/scratch/z5358697/.xtb/bin/xtb solv.coord --gfn2 --sp --chrg 0 --norestart --parallel 1 --alpb water reference -I xtb_sp-xcontrol-inp
          hostname                   : k065
          coordinate file            : solv.coord
          omp threads                :                     1


           -------------------------------------------------
          |                 G F N 2 - x T B                 |
           -------------------------------------------------

        Reference                      10.1021/acs.jctc.8b01176
      * Hamiltonian:
        H0-scaling (s, p, d)           1.850000    2.230000    2.230000
        zeta-weighting                 0.500000
      * Dispersion:
        s8                             2.700000
        a1                             0.520000
        a2                             5.000000
        s9                             5.000000
      * Repulsion:
        kExp                           1.500000    1.000000
        rExp                           1.000000
      * Coulomb:
        alpha                          2.000000
        third order                    shell-resolved
        anisotropic                    true
        a3                             3.000000
        a5                             4.000000
        cn-shift                       1.200000
        cn-exp                         4.000000
        max-rad                        5.000000

      * Solvation model:               ALPB
        Solvent                        water
        Parameter file                 internal GFN2-xTB/ALPB
        Dielectric constant                8.0200E+01
        Reference state                gsolv=reference [X=1]
        Free energy shift                  2.8945E-03 Eh       1.8164E+00 kcal/mol
        Temperature                        2.9815E+02 K
        Density                            1.0000E+00 kg/L
        Solvent mass                       1.8000E+01 g/mol
        Interaction kernel             P16
        Born radius scaling (c1)           1.4744E+00
        Born radii integrator          GBOBC
        Born offset                        0.0000E+00 a0       0.0000E+00 AA
        H-bond correction              true
        Ion screening                  false
        Surface tension                    1.0000E-05 Eh       1.5569E+01 dyn/cm
        Grid points                               974 per atom

          ...................................................
          :                      SETUP                      :
          :.................................................:
          :  # basis functions                  40          :
          :  # atomic orbitals                  40          :
          :  # shells                           26          :
          :  # electrons                        42          :
          :  max. iterations                   250          :
          :  Hamiltonian                  GFN2-xTB          :
          :  restarted?                      false          :
          :  GBSA solvation                   true          :
          :  PC potential                    false          :
          :  electronic temp.          300.0000000     K    :
          :  accuracy                    1.0000000          :
          :  -> integral cutoff          0.2500000E+02      :
          :  -> integral neglect         0.1000000E-07      :
          :  -> SCF convergence          0.1000000E-05 Eh   :
          :  -> wf. convergence          0.1000000E-03 e    :
          :  Broyden damping             0.4000000          :
          :  net charge                          0          :
          :  unpaired electrons                  0          :
          ...................................................

 iter      E             dE          RMSdq      gap      omega  full diag
   1    -23.2716054 -0.232716E+02  0.372E+00    4.61       0.0  T
   2    -23.3344538 -0.628484E-01  0.181E+00    3.68       1.0  T
   3    -23.3378065 -0.335269E-02  0.106E+00    4.07       1.0  T
   4    -23.3397490 -0.194254E-02  0.179E-01    3.85       1.0  T
   5    -23.3400199 -0.270830E-03  0.706E-02    3.91       1.0  T
   6    -23.3400226 -0.275020E-05  0.170E-02    3.90       1.3  T
   7    -23.3400240 -0.144382E-05  0.505E-03    3.90       4.5  T
   8    -23.3400241 -0.338861E-07  0.193E-03    3.90      11.9  T
   9    -23.3400241 -0.694588E-08  0.687E-04    3.90      33.4  T
  10    -23.3400241 -0.104241E-08  0.167E-04    3.90     137.5  T

   *** convergence criteria satisfied after 10 iterations ***

         #    Occupation            Energy/Eh            Energy/eV
      -------------------------------------------------------------
         1        2.0000           -0.7143793             -19.4393
       ...           ...                  ...                  ...
        15        2.0000           -0.4700517             -12.7908
        16        2.0000           -0.4642881             -12.6339
        17        2.0000           -0.4526901             -12.3183
        18        2.0000           -0.4391810             -11.9507
        19        2.0000           -0.4296195             -11.6905
        20        2.0000           -0.4267467             -11.6124
        21        2.0000           -0.3968000             -10.7975 (HOMO)
        22                         -0.2534807              -6.8976 (LUMO)
        23                          0.0775519               2.1103
        24                          0.0992972               2.7020
        25                          0.1129929               3.0747
        26                          0.1275825               3.4717
       ...                                ...                  ...
        40                          0.5975598              16.2604
      -------------------------------------------------------------
                  HL-Gap            0.1433193 Eh            3.8999 eV
             Fermi-level           -0.3251404 Eh           -8.8475 eV

 SCC (total)                   0 d,  0 h,  0 min,  0.019 sec
 SCC setup                      ...        0 min,  0.001 sec (  5.885%)
 Dispersion                     ...        0 min,  0.000 sec (  0.490%)
 classical contributions        ...        0 min,  0.000 sec (  0.104%)
 integral evaluation            ...        0 min,  0.001 sec (  7.054%)
 iterations                     ...        0 min,  0.013 sec ( 65.299%)
 molecular gradient             ...        0 min,  0.004 sec ( 20.457%)
 printout                       ...        0 min,  0.000 sec (  0.645%)

         :::::::::::::::::::::::::::::::::::::::::::::::::::::
         ::                     SUMMARY                     ::
         :::::::::::::::::::::::::::::::::::::::::::::::::::::
         :: total energy             -23.029191875476 Eh    ::
         :: total w/o Gsasa/hb       -23.031427348374 Eh    ::
         :: gradient norm              0.000096112881 Eh/a0 ::
         :: HOMO-LUMO gap              3.899916930572 eV    ::
         ::.................................................::
         :: SCC energy               -23.339992946316 Eh    ::
         :: -> isotropic ES            0.041394923539 Eh    ::
         :: -> anisotropic ES          0.002999932178 Eh    ::
         :: -> anisotropic XC          0.011364735977 Eh    ::
         :: -> dispersion             -0.010830096956 Eh    ::
         :: -> Gsolv                  -0.006215885017 Eh    ::
         ::    -> Gelec               -0.008451357915 Eh    ::
         ::    -> Gsasa                0.001311773722 Eh    ::
         ::    -> Ghb                 -0.001970849985 Eh    ::
         ::    -> Gshift               0.002894549160 Eh    ::
         :: repulsion energy           0.310801070840 Eh    ::
         :: add. restraining           0.000000000000 Eh    ::
         :: total charge               0.000000000000 e     ::
         :::::::::::::::::::::::::::::::::::::::::::::::::::::

           -------------------------------------------------
          |                Property Printout                |
           -------------------------------------------------

    * Orbital Energies and Occupations

         #    Occupation            Energy/Eh            Energy/eV
      -------------------------------------------------------------
         1        2.0000           -0.7143793             -19.4393
       ...           ...                  ...                  ...
         9        2.0000           -0.5332800             -14.5113
        10        2.0000           -0.5257696             -14.3069
        11        2.0000           -0.5051916             -13.7470
        12        2.0000           -0.4950602             -13.4713
        13        2.0000           -0.4823152             -13.1245
        14        2.0000           -0.4730932             -12.8735
        15        2.0000           -0.4700517             -12.7908
        16        2.0000           -0.4642881             -12.6339
        17        2.0000           -0.4526901             -12.3183
        18        2.0000           -0.4391810             -11.9507
        19        2.0000           -0.4296195             -11.6905
        20        2.0000           -0.4267467             -11.6124
        21        2.0000           -0.3968000             -10.7975 (HOMO)
        22                         -0.2534807              -6.8976 (LUMO)
        23                          0.0775519               2.1103
        24                          0.0992972               2.7020
        25                          0.1129929               3.0747
        26                          0.1275825               3.4717
        27                          0.1378658               3.7515
        28                          0.1432304               3.8975
        29                          0.1620559               4.4098
        30                          0.1792738               4.8783
        31                          0.1931662               5.2563
        32                          0.1996609               5.4331
       ...                                ...                  ...
        40                          0.5975598              16.2604
      -------------------------------------------------------------
                  HL-Gap            0.1433193 Eh            3.8999 eV
             Fermi-level           -0.3251404 Eh           -8.8475 eV

     #   Z          covCN         q      C6AA      α(0)
     1   6 C        3.752    -0.115    22.762     6.804
     2   6 C        3.800    -0.059    21.637     6.623
     3   6 C        3.805    -0.051    21.494     6.600
     4   6 C        3.804    -0.094    22.285     6.721
     5   6 C        2.814     0.251    22.795     7.822
     6   8 O        0.857    -0.446    22.615     6.376
     7   6 C        3.754    -0.159    23.643     6.933
     8   1 H        0.925     0.040     2.449     2.447
     9   1 H        0.925     0.042     2.418     2.432
    10   1 H        0.925     0.042     2.421     2.433
    11   1 H        0.924     0.039     2.457     2.452
    12   1 H        0.924     0.037     2.484     2.464
    13   1 H        0.924     0.043     2.403     2.424
    14   1 H        0.924     0.034     2.529     2.487
    15   1 H        0.925     0.070     2.083     2.257
    16   1 H        0.924     0.063     2.169     2.303
    17   1 H        0.925     0.099     1.797     2.096
    18   1 H        0.925     0.072     2.060     2.245
    19   1 H        0.925     0.091     1.874     2.141

 Mol. C6AA /au·bohr⁶  :       2609.098690
 Mol. C8AA /au·bohr⁸  :      55865.371851
 Mol. α(0) /au        :         76.059484


Wiberg/Mayer (AO) data.
largest (>0.10) Wiberg bond orders for each atom

 ---------------------------------------------------------------------------
     #   Z sym  total        # sym  WBO       # sym  WBO       # sym  WBO
 ---------------------------------------------------------------------------
     1   6 C    3.996 --     2 C    1.020    10 H    0.987     8 H    0.987
                             9 H    0.985
     2   6 C    3.996 --     1 C    1.020     3 C    1.004    12 H    0.978
                            11 H    0.976
     3   6 C    3.993 --     2 C    1.004    14 H    0.978    13 H    0.976
                             4 C    0.971
     4   6 C    3.994 --     5 C    0.997     3 C    0.971    16 H    0.967
                            15 H    0.967
     5   6 C    3.895 --     6 O    1.803     7 C    1.024     4 C    0.997
     6   8 O    2.008 --     5 C    1.803
     7   6 C    3.991 --     5 C    1.024    18 H    0.981    19 H    0.958
                            17 H    0.944
     8   1 H    0.998 --     1 C    0.987
     9   1 H    0.998 --     1 C    0.985
    10   1 H    0.998 --     1 C    0.987
    11   1 H    0.998 --     2 C    0.976
    12   1 H    0.999 --     2 C    0.978
    13   1 H    0.998 --     3 C    0.976
    14   1 H    0.999 --     3 C    0.978
    15   1 H    0.995 --     4 C    0.967
    16   1 H    0.996 --     4 C    0.967
    17   1 H    0.990 --     7 C    0.944
    18   1 H    0.995 --     7 C    0.981
    19   1 H    0.992 --     7 C    0.958
 ---------------------------------------------------------------------------

Topologies differ in total number of bonds
Writing topology from bond orders to xtbtopo.mol

molecular dipole:
                 x           y           z       tot (Debye)
 q only:        0.855       1.384       0.136
   full:        0.876       1.439       0.137       4.296
molecular quadrupole (traceless):
                xx          xy          yy          xz          yz          zz
 q only:       -2.020      -8.157      -0.204      -1.317      -0.427       2.224
  q+dip:       -2.997      -9.219      -0.303      -1.387      -0.173       3.300
   full:       -2.939      -9.244      -0.730      -1.013      -0.618       3.669


           -------------------------------------------------
          | TOTAL ENERGY              -23.029191875476 Eh   |
          | GRADIENT NORM               0.000096112881 Eh/α |
          | HOMO-LUMO GAP               3.899916930572 eV   |
           -------------------------------------------------

------------------------------------------------------------------------
 * finished run on 2025/04/11 at 16:09:18.267     
------------------------------------------------------------------------
 total:
 * wall-time:     0 d,  0 h,  0 min,  0.055 sec
 *  cpu-time:     0 d,  0 h,  0 min,  0.022 sec
 * ratio c/w:     0.396 speedup
 SCF:
 * wall-time:     0 d,  0 h,  0 min,  0.019 sec
 *  cpu-time:     0 d,  0 h,  0 min,  0.012 sec
 * ratio c/w:     0.630 speedup

