      -----------------------------------------------------------      
     |                   =====================                   |     
     |                           x T B                           |     
     |                   =====================                   |     
     |                         S. Grimme                         |     
     |          Mulliken Center for Theoretical Chemistry        |     
     |                    University of Bonn                     |     
      -----------------------------------------------------------      

   * xtb version 6.7.1 (edcfbbe) compiled by 'albert@albert-system' on 2024-07-22

   xtb is free software: you can redistribute it and/or modify it under
   the terms of the GNU Lesser General Public License as published by
   the Free Software Foundation, either version 3 of the License, or
   (at your option) any later version.
   
   xtb is distributed in the hope that it will be useful,
   but WITHOUT ANY WARRANTY; without even the implied warranty of
   MERCHANTABILITY or FITNESS FOR A PARTICULAR PURPOSE.  See the
   GNU Lesser General Public License for more details.
   
   Cite this work as:
   * C. Bannwarth, E. Caldeweyher, S. Ehlert, A. Hansen, P. Pracht,
     J. Seibert, S. Spicher, S. Grimme, WIREs Comput. Mol. Sci., 2020, 11,
     e01493. DOI: 10.1002/wcms.1493
   
   for GFN2-xTB:
   * C. Bannwarth, S. Ehlert and S. Grimme., J. Chem. Theory Comput., 2019,
     15, 1652-1671. DOI: 10.1021/acs.jctc.8b01176
   for GFN1-xTB:
   * S. Grimme, C. Bannwarth, P. Shushkov, J. Chem. Theory Comput., 2017,
     13, 1989-2009. DOI: 10.1021/acs.jctc.7b00118
   for GFN0-xTB:
   * P. Pracht, E. Caldeweyher, S. Ehlert, S. Grimme, ChemRxiv, 2019, preprint.
     DOI: 10.26434/chemrxiv.8326202.v1
   for GFN-FF:
   * S. Spicher and S. Grimme, Angew. Chem. Int. Ed., 2020, 59, 15665-15673.
     DOI: 10.1002/anie.202004239
   
   for ALPB and GBSA implicit solvation:
   * S. Ehlert, M. Stahn, S. Spicher, S. Grimme, J. Chem. Theory Comput.,
     2021, 17, 4250-4261. DOI: 10.1021/acs.jctc.1c00471
   
   for ddCOSMO and CPCM-X implicit solvation:
   * M. Stahn, S. Ehlert, S. Grimme, J. Phys. Chem. A,
     2023, XX, XXXX-XXXX. DOI: 10.1021/acs.jpca.3c04382
   
   for DFT-D4:
   * E. Caldeweyher, C. Bannwarth and S. Grimme, J. Chem. Phys., 2017,
     147, 034112. DOI: 10.1063/1.4993215
   * E. Caldeweyher, S. Ehlert, A. Hansen, H. Neugebauer, S. Spicher,
     C. Bannwarth and S. Grimme, J. Chem. Phys., 2019, 150, 154122.
     DOI: 10.1063/1.5090222
   * E. Caldeweyher, J.-M. Mewes, S. Ehlert and S. Grimme, Phys. Chem. Chem. Phys.
     2020, 22, 8499-8512. DOI: 10.1039/D0CP00502A
   
   for sTDA-xTB:
   * S. Grimme and C. Bannwarth, J. Chem. Phys., 2016, 145, 054103.
     DOI: 10.1063/1.4959605
   
   in the mass-spec context:
   * V. Asgeirsson, C. Bauer and S. Grimme, Chem. Sci., 2017, 8, 4879.
     DOI: 10.1039/c7sc00601b
   * J. Koopman and S. Grimme, ACS Omega 2019, 4, 12, 15120-15133.
     DOI: 10.1021/acsomega.9b02011
   
   for metadynamics refer to:
   * S. Grimme, J. Chem. Theory Comput., 2019, 155, 2847-2862
     DOI: 10.1021/acs.jctc.9b00143
   
   for SPH calculations refer to:
   * S. Spicher and S. Grimme, J. Chem. Theory Comput., 2021, 17, 1701-1714
     DOI: 10.1021/acs.jctc.0c01306
   
   for ONIOM refer to:
   * C. Plett, A. Katbashev, S. Ehlert, S. Grimme, M. Bursch,
     Phys. Chem. Chem. Phys., 2023, 25, 17860-17868. DOI: 10.1039/D3CP02178E
   
   for DIPRO refer to:
   * J. Kohn, N. Gildemeister, S. Grimme, D. Fazzi, A. Hansen,
     J. Chem. Phys., 2023, just accepted.
   
   for PTB refer to:
   * S. Grimme, M. Mueller, A. Hansen, J. Chem. Phys., 2023, 158, 124111.
     DOI: 10.1063/5.0137838
   
   with help from (in alphabetical order)
   P. Atkinson, C. Bannwarth, F. Bohle, G. Brandenburg, E. Caldeweyher
   M. Checinski, S. Dohm, S. Ehlert, S. Ehrlich, I. Gerasimov, C. Hölzer
   A. Katbashev, J. Kohn, J. Koopman, C. Lavigne, S. Lehtola, F. März, M. Müller,
   F. Musil, H. Neugebauer, J. Pisarek, C. Plett, P. Pracht, F. Pultar,
   J. Seibert, P. Shushkov, S. Spicher, M. Stahn, M. Steiner, T. Strunk,
   J. Stückrath, T. Rose, and J. Unsleber
   
 * started run on 2025/04/11 at 16:09:17.837     
   ID    Z sym.   atoms
    1    6 C      1-5, 7
    2    8 O      6
    3    1 H      8-19

           -------------------------------------------------
          |                Calculation Setup                |
           -------------------------------------------------

          program call               : /srv/scratch/z5358697/.xtb/bin/xtb solv.coord --gfn2 --sp --chrg 0 --norestart --parallel 1 --alpb water reference -I xtb_sp-xcontrol-inp
          hostname                   : k065
          coordinate file            : solv.coord
          omp threads                :                     1


           -------------------------------------------------
          |                 G F N 2 - x T B                 |
           -------------------------------------------------

        Reference                      10.1021/acs.jctc.8b01176
      * Hamiltonian:
        H0-scaling (s, p, d)           1.850000    2.230000    2.230000
        zeta-weighting                 0.500000
      * Dispersion:
        s8                             2.700000
        a1                             0.520000
        a2                             5.000000
        s9                             5.000000
      * Repulsion:
        kExp                           1.500000    1.000000
        rExp                           1.000000
      * Coulomb:
        alpha                          2.000000
        third order                    shell-resolved
        anisotropic                    true
        a3                             3.000000
        a5                             4.000000
        cn-shift                       1.200000
        cn-exp                         4.000000
        max-rad                        5.000000

      * Solvation model:               ALPB
        Solvent                        water
        Parameter file                 internal GFN2-xTB/ALPB
        Dielectric constant                8.0200E+01
        Reference state                gsolv=reference [X=1]
        Free energy shift                  2.8945E-03 Eh       1.8164E+00 kcal/mol
        Temperature                        2.9815E+02 K
        Density                            1.0000E+00 kg/L
        Solvent mass                       1.8000E+01 g/mol
        Interaction kernel             P16
        Born radius scaling (c1)           1.4744E+00
        Born radii integrator          GBOBC
        Born offset                        0.0000E+00 a0       0.0000E+00 AA
        H-bond correction              true
        Ion screening                  false
        Surface tension                    1.0000E-05 Eh       1.5569E+01 dyn/cm
        Grid points                               974 per atom

          ...................................................
          :                      SETUP                      :
          :.................................................:
          :  # basis functions                  40          :
          :  # atomic orbitals                  40          :
          :  # shells                           26          :
          :  # electrons                        42          :
          :  max. iterations                   250          :
          :  Hamiltonian                  GFN2-xTB          :
          :  restarted?                      false          :
          :  GBSA solvation                   true          :
          :  PC potential                    false          :
          :  electronic temp.          300.0000000     K    :
          :  accuracy                    1.0000000          :
          :  -> integral cutoff          0.2500000E+02      :
          :  -> integral neglect         0.1000000E-07      :
          :  -> SCF convergence          0.1000000E-05 Eh   :
          :  -> wf. convergence          0.1000000E-03 e    :
          :  Broyden damping             0.4000000          :
          :  net charge                          0          :
          :  unpaired electrons                  0          :
          ...................................................

 iter      E             dE          RMSdq      gap      omega  full diag
   1    -23.2713656 -0.232714E+02  0.362E+00    4.62       0.0  T
   2    -23.3346479 -0.632823E-01  0.176E+00    3.69       1.0  T
   3    -23.3381038 -0.345581E-02  0.103E+00    4.09       1.0  T
   4    -23.3399246 -0.182083E-02  0.181E-01    3.86       1.0  T
   5    -23.3402057 -0.281119E-03  0.701E-02    3.92       1.0  T
   6    -23.3402085 -0.276716E-05  0.204E-02    3.91       1.1  T
   7    -23.3402099 -0.140932E-05  0.527E-03    3.91       4.4  T
   8    -23.3402099 -0.453579E-07  0.236E-03    3.91       9.7  T
   9    -23.3402099 -0.935704E-08  0.675E-04    3.91      34.0  T
  10    -23.3402099 -0.114003E-08  0.229E-04    3.91     100.0  T

   *** convergence criteria satisfied after 10 iterations ***

         #    Occupation            Energy/Eh            Energy/eV
      -------------------------------------------------------------
         1        2.0000           -0.7148450             -19.4519
       ...           ...                  ...                  ...
        15        2.0000           -0.4692759             -12.7696
        16        2.0000           -0.4625835             -12.5875
        17        2.0000           -0.4444491             -12.0941
        18        2.0000           -0.4420755             -12.0295
        19        2.0000           -0.4372074             -11.8970
        20        2.0000           -0.4235800             -11.5262
        21        2.0000           -0.3975100             -10.8168 (HOMO)
        22                         -0.2537590              -6.9051 (LUMO)
        23                          0.0649009               1.7660
        24                          0.1001957               2.7265
        25                          0.1163460               3.1659
        26                          0.1236170               3.3638
       ...                                ...                  ...
        40                          0.5898731              16.0513
      -------------------------------------------------------------
                  HL-Gap            0.1437510 Eh            3.9117 eV
             Fermi-level           -0.3256345 Eh           -8.8610 eV

 SCC (total)                   0 d,  0 h,  0 min,  0.034 sec
 SCC setup                      ...        0 min,  0.001 sec (  3.935%)
 Dispersion                     ...        0 min,  0.000 sec (  0.285%)
 classical contributions        ...        0 min,  0.000 sec (  0.067%)
 integral evaluation            ...        0 min,  0.001 sec (  3.930%)
 iterations                     ...        0 min,  0.027 sec ( 77.887%)
 molecular gradient             ...        0 min,  0.005 sec ( 13.343%)
 printout                       ...        0 min,  0.000 sec (  0.502%)

         :::::::::::::::::::::::::::::::::::::::::::::::::::::
         ::                     SUMMARY                     ::
         :::::::::::::::::::::::::::::::::::::::::::::::::::::
         :: total energy             -23.029567663250 Eh    ::
         :: total w/o Gsasa/hb       -23.031849118239 Eh    ::
         :: gradient norm              0.000022532403 Eh/a0 ::
         :: HOMO-LUMO gap              3.911665000242 eV    ::
         ::.................................................::
         :: SCC energy               -23.340194300885 Eh    ::
         :: -> isotropic ES            0.041644836687 Eh    ::
         :: -> anisotropic ES          0.002897344849 Eh    ::
         :: -> anisotropic XC          0.011438673536 Eh    ::
         :: -> dispersion             -0.010525484641 Eh    ::
         :: -> Gsolv                  -0.006251590323 Eh    ::
         ::    -> Gelec               -0.008533045313 Eh    ::
         ::    -> Gsasa                0.001430230139 Eh    ::
         ::    -> Ghb                 -0.002043324310 Eh    ::
         ::    -> Gshift               0.002894549160 Eh    ::
         :: repulsion energy           0.310626637636 Eh    ::
         :: add. restraining           0.000000000000 Eh    ::
         :: total charge              -0.000000000000 e     ::
         :::::::::::::::::::::::::::::::::::::::::::::::::::::

           -------------------------------------------------
          |                Property Printout                |
           -------------------------------------------------

    * Orbital Energies and Occupations

         #    Occupation            Energy/Eh            Energy/eV
      -------------------------------------------------------------
         1        2.0000           -0.7148450             -19.4519
       ...           ...                  ...                  ...
         9        2.0000           -0.5315843             -14.4651
        10        2.0000           -0.5240192             -14.2593
        11        2.0000           -0.5125621             -13.9475
        12        2.0000           -0.4905701             -13.3491
        13        2.0000           -0.4797447             -13.0545
        14        2.0000           -0.4744710             -12.9110
        15        2.0000           -0.4692759             -12.7696
        16        2.0000           -0.4625835             -12.5875
        17        2.0000           -0.4444491             -12.0941
        18        2.0000           -0.4420755             -12.0295
        19        2.0000           -0.4372074             -11.8970
        20        2.0000           -0.4235800             -11.5262
        21        2.0000           -0.3975100             -10.8168 (HOMO)
        22                         -0.2537590              -6.9051 (LUMO)
        23                          0.0649009               1.7660
        24                          0.1001957               2.7265
        25                          0.1163460               3.1659
        26                          0.1236170               3.3638
        27                          0.1494135               4.0657
        28                          0.1555954               4.2340
        29                          0.1761863               4.7943
        30                          0.1846132               5.0236
        31                          0.1883648               5.1257
        32                          0.1965922               5.3495
       ...                                ...                  ...
        40                          0.5898731              16.0513
      -------------------------------------------------------------
                  HL-Gap            0.1437510 Eh            3.9117 eV
             Fermi-level           -0.3256345 Eh           -8.8610 eV

     #   Z          covCN         q      C6AA      α(0)
     1   6 C        3.752    -0.114    22.747     6.801
     2   6 C        3.801    -0.059    21.641     6.623
     3   6 C        3.803    -0.061    21.679     6.629
     4   6 C        3.804    -0.094    22.283     6.720
     5   6 C        2.811     0.251    22.793     7.822
     6   8 O        0.857    -0.447    22.634     6.379
     7   6 C        3.754    -0.159    23.634     6.932
     8   1 H        0.925     0.041     2.431     2.438
     9   1 H        0.925     0.038     2.477     2.461
    10   1 H        0.925     0.041     2.441     2.443
    11   1 H        0.924     0.034     2.530     2.487
    12   1 H        0.924     0.039     2.469     2.457
    13   1 H        0.925     0.053     2.280     2.361
    14   1 H        0.924     0.038     2.476     2.461
    15   1 H        0.924     0.079     1.989     2.206
    16   1 H        0.924     0.058     2.227     2.333
    17   1 H        0.925     0.075     2.034     2.230
    18   1 H        0.925     0.099     1.790     2.092
    19   1 H        0.925     0.089     1.893     2.151

 Mol. C6AA /au·bohr⁶  :       2607.283959
 Mol. C8AA /au·bohr⁸  :      55852.976787
 Mol. α(0) /au        :         76.028327


Wiberg/Mayer (AO) data.
largest (>0.10) Wiberg bond orders for each atom

 ---------------------------------------------------------------------------
     #   Z sym  total        # sym  WBO       # sym  WBO       # sym  WBO
 ---------------------------------------------------------------------------
     1   6 C    3.995 --     2 C    1.019     9 H    0.988     8 H    0.987
                            10 H    0.987
     2   6 C    3.997 --     1 C    1.019     3 C    1.007    11 H    0.978
                            12 H    0.978
     3   6 C    3.993 --     2 C    1.007     4 C    0.988    14 H    0.978
                            13 H    0.975
     4   6 C    3.994 --     5 C    1.000     3 C    0.988    16 H    0.973
                            15 H    0.941
     5   6 C    3.895 --     6 O    1.803     7 C    1.022     4 C    1.000
     6   8 O    2.006 --     5 C    1.803
     7   6 C    3.990 --     5 C    1.022    17 H    0.979    19 H    0.965
                            18 H    0.941
     8   1 H    0.998 --     1 C    0.987
     9   1 H    0.999 --     1 C    0.988
    10   1 H    0.998 --     1 C    0.987
    11   1 H    0.999 --     2 C    0.978
    12   1 H    0.999 --     2 C    0.978
    13   1 H    0.997 --     3 C    0.975
    14   1 H    0.999 --     3 C    0.978
    15   1 H    0.994 --     4 C    0.941
    16   1 H    0.997 --     4 C    0.973
    17   1 H    0.994 --     7 C    0.979
    18   1 H    0.990 --     7 C    0.941
    19   1 H    0.992 --     7 C    0.965
 ---------------------------------------------------------------------------

Topologies differ in total number of bonds
Writing topology from bond orders to xtbtopo.mol

molecular dipole:
                 x           y           z       tot (Debye)
 q only:        1.012       1.250       0.435
   full:        1.055       1.295       0.437       4.388
molecular quadrupole (traceless):
                xx          xy          yy          xz          yz          zz
 q only:       -4.240      -7.569       0.295      -3.392      -0.330       3.944
  q+dip:       -5.919      -8.767       1.389      -4.132      -1.046       4.530
   full:       -5.604      -8.874       0.753      -3.567      -1.332       4.850


           -------------------------------------------------
          | TOTAL ENERGY              -23.029567663250 Eh   |
          | GRADIENT NORM               0.000022532403 Eh/α |
          | HOMO-LUMO GAP               3.911665000242 eV   |
           -------------------------------------------------

------------------------------------------------------------------------
 * finished run on 2025/04/11 at 16:09:17.924     
------------------------------------------------------------------------
 total:
 * wall-time:     0 d,  0 h,  0 min,  0.087 sec
 *  cpu-time:     0 d,  0 h,  0 min,  0.023 sec
 * ratio c/w:     0.267 speedup
 SCF:
 * wall-time:     0 d,  0 h,  0 min,  0.034 sec
 *  cpu-time:     0 d,  0 h,  0 min,  0.014 sec
 * ratio c/w:     0.395 speedup

