! pbe def2-sv(p) def2/J RI DEFGRID1 loosescf d4 GCP(DFT/SV(P)) printgap
%output
    printlevel normal
end
* xyz 0 1
C -3.3172326672 -1.0859708603 0.1030629281
C -1.8733977931 -0.7183742069 0.4196972535
C -1.3541313033 0.3651704876 -0.5376797776
C 0.0636493056 0.7080813053 -0.1692261684
O 0.3856160415 1.5900978435 0.6001706591
O 0.9297685792 -0.0975704073 -0.7702216474
C 2.3269660188 0.045943566 -0.4647924695
C 2.7064945362 -0.7710769632 0.7608755161
H -3.3994139362 -1.4643821023 -0.912462192
H -3.666136012 -1.8538106733 0.7879942765
H -3.9622647748 -0.2166884752 0.2013439293
H -1.2394861179 -1.6025596338 0.3316956681
H -1.8009539746 -0.3497598024 1.4451425539
H -1.9667523007 1.2616291982 -0.4468792341
H -1.3775171418 -0.0074343766 -1.5608105914
H 2.8421026081 -0.3123939379 -1.356447734
H 2.5405283984 1.1066918323 -0.3016743772
H 3.7746352942 -0.6870383722 0.932130599
H 2.1782278193 -0.397233558 1.6351791989
H 2.4480811429 -1.8157490517 0.6102359503
*
