! r2scan-3c def2/J RI DEFGRID2 scfconv6 printgap
%output
    printlevel normal
end
* xyz 0 1
C -3.8301766721 0.3208396193 0.3904489742
C -2.6691765043 -0.5879942083 0.0047841937
C -1.3357398706 0.1527609554 0.0656999716
C -0.1627314551 -0.7612133377 -0.307417507
C 1.1209480367 0.024701624 -0.3365963876
O 1.3318982776 0.9845941129 -1.0484093113
O 2.0034813802 -0.445205267 0.5368258691
C 3.2731655698 0.2070692556 0.6386709419
H -3.8854588655 1.173458045 -0.2824699398
H -4.7709535312 -0.2208731338 0.3383461964
H -3.7026431118 0.6933019919 1.4042104066
H -2.6369070808 -1.4437978127 0.6815866522
H -2.8252998591 -0.9670496514 -1.0068387268
H -1.1818028539 0.5428171256 1.074169302
H -1.3503009809 1.0016056269 -0.6213878137
H -0.3313013851 -1.1681187909 -1.3059850574
H -0.0607682952 -1.5773953241 0.4063867583
H 3.9516610401 -0.2031166961 -0.1094105026
H 3.6372330092 0.0009572295 1.6407567222
H 3.1556472514 1.2784578392 0.4723061991
*
