! r2scan-3c def2/J RI DEFGRID2 scfconv6 printgap
%output
    printlevel normal
end
%cpcm
    smd true
    smdsolvent "water"
end
* xyz 0 1
C -4.7339416139 -0.8644266358 0.1786938321
C -4.0947378683 -2.094097702 0.1013361473
C -2.7172728441 -2.1530601479 0.0003088035
C -1.954133376 -0.9874869639 -0.0252248827
C -2.6002749232 0.2513063224 0.053178031
C -3.9895481884 0.2996584571 0.1547568292
C -1.8318050194 1.5024765966 0.030561551
O -2.3874357261 2.5979727719 0.0958149875
C -0.3681753728 1.381740922 -0.0737481155
C 0.3595544234 2.5592040387 -0.0804483287
C 1.7495935477 2.5294151033 -0.1625974474
C 2.4094349154 1.3334480161 -0.2515007892
C 1.7057233937 0.104003775 -0.2677832143
C 0.2807965473 0.126841024 -0.1629486997
C -0.4861781283 -1.0987222758 -0.1363804817
O 0.027079077 -2.2306932609 -0.1988119637
N 2.3618390533 -1.057622569 -0.3899048411
C 3.7889403208 -1.216162166 -0.5070359013
C 4.5583985846 -0.8856894302 0.7993343235
O 5.3880019704 0.2476050707 0.6744523706
H -5.8085516609 -0.8154654668 0.2573706401
H -4.6712472491 -3.0056546919 0.1196740937
H -2.2011716008 -3.0997185461 -0.061112981
H -4.4596892021 1.2701910487 0.2136189147
H -0.1774042404 3.4928698718 -0.0112519345
H 2.3055884591 3.4536606535 -0.1505745699
H 3.4859467406 1.32440941 -0.2841474657
H 1.782210281 -1.8913860848 -0.3289516055
H 4.1652224923 -0.5667315596 -1.3039115181
H 3.9690615279 -2.2512231512 -0.7927102573
H 5.1447466365 -1.7507875456 1.1230985105
H 3.842940046 -0.6427029309 1.5884026825
H 6.1639565383 0.0237211709 0.1426110758
*
