! pbe def2-sv(p) def2/J RI DEFGRID1 loosescf d4 GCP(DFT/SV(P)) printgap
%output
    printlevel normal
end
* xyz 0 1
C -4.6501069499 -0.9545463644 0.186555533
C -3.9746330129 -2.159215479 0.0474813324
C -2.5973986489 -2.1709766152 -0.0719158767
C -1.8708993426 -0.9820139753 -0.0568722386
C -2.5536039527 0.2314318871 0.0833362457
C -3.9421122217 0.2321182321 0.2051035372
C -1.8238249727 1.5050317754 0.1058930916
O -2.4083930924 2.578058899 0.2439980823
C -0.360468899 1.4361254999 -0.0499094347
C 0.3255192208 2.6381358263 -0.0471630134
C 1.7117703038 2.6586566077 -0.1790329466
C 2.4067355863 1.489040958 -0.3277578385
C 1.7471303694 0.2352113232 -0.3588762193
C 0.3258492211 0.2071323704 -0.1991500458
C -0.4017709936 -1.0430551916 -0.1869344647
O 0.1464615064 -2.156619999 -0.2770169472
N 2.4311725672 -0.9032956415 -0.5345966469
C 3.8446534867 -1.0480668158 -0.7719358511
C 4.6510075458 -1.2555494956 0.5249435257
O 4.716276049 -0.1020950071 1.3329291346
H -5.7245500509 -0.94256603 0.2802669113
H -4.5227165839 -3.0881852716 0.032456292
H -2.0538414914 -3.097899264 -0.1800014144
H -4.4409446191 1.1839389339 0.3130089289
H -0.2396827267 3.5500679783 0.0687234511
H 2.2373123764 3.6002257447 -0.1567768906
H 3.4813588249 1.5202186601 -0.3982990364
H 1.8729463968 -1.7536813399 -0.4872420849
H 4.2341817567 -0.1774968352 -1.3012719422
H 3.9885633817 -1.9290516528 -1.3988632612
H 5.6847611601 -1.486278134 0.260238204
H 4.2328177015 -2.0988206114 1.0862741768
H 3.8540990719 0.0545211721 1.7396323486
*
