      -----------------------------------------------------------      
     |                   =====================                   |     
     |                           x T B                           |     
     |                   =====================                   |     
     |                         S. Grimme                         |     
     |          Mulliken Center for Theoretical Chemistry        |     
     |                    University of Bonn                     |     
      -----------------------------------------------------------      

   * xtb version 6.7.1 (edcfbbe) compiled by 'albert@albert-system' on 2024-07-22

   xtb is free software: you can redistribute it and/or modify it under
   the terms of the GNU Lesser General Public License as published by
   the Free Software Foundation, either version 3 of the License, or
   (at your option) any later version.
   
   xtb is distributed in the hope that it will be useful,
   but WITHOUT ANY WARRANTY; without even the implied warranty of
   MERCHANTABILITY or FITNESS FOR A PARTICULAR PURPOSE.  See the
   GNU Lesser General Public License for more details.
   
   Cite this work as:
   * C. Bannwarth, E. Caldeweyher, S. Ehlert, A. Hansen, P. Pracht,
     J. Seibert, S. Spicher, S. Grimme, WIREs Comput. Mol. Sci., 2020, 11,
     e01493. DOI: 10.1002/wcms.1493
   
   for GFN2-xTB:
   * C. Bannwarth, S. Ehlert and S. Grimme., J. Chem. Theory Comput., 2019,
     15, 1652-1671. DOI: 10.1021/acs.jctc.8b01176
   for GFN1-xTB:
   * S. Grimme, C. Bannwarth, P. Shushkov, J. Chem. Theory Comput., 2017,
     13, 1989-2009. DOI: 10.1021/acs.jctc.7b00118
   for GFN0-xTB:
   * P. Pracht, E. Caldeweyher, S. Ehlert, S. Grimme, ChemRxiv, 2019, preprint.
     DOI: 10.26434/chemrxiv.8326202.v1
   for GFN-FF:
   * S. Spicher and S. Grimme, Angew. Chem. Int. Ed., 2020, 59, 15665-15673.
     DOI: 10.1002/anie.202004239
   
   for ALPB and GBSA implicit solvation:
   * S. Ehlert, M. Stahn, S. Spicher, S. Grimme, J. Chem. Theory Comput.,
     2021, 17, 4250-4261. DOI: 10.1021/acs.jctc.1c00471
   
   for ddCOSMO and CPCM-X implicit solvation:
   * M. Stahn, S. Ehlert, S. Grimme, J. Phys. Chem. A,
     2023, XX, XXXX-XXXX. DOI: 10.1021/acs.jpca.3c04382
   
   for DFT-D4:
   * E. Caldeweyher, C. Bannwarth and S. Grimme, J. Chem. Phys., 2017,
     147, 034112. DOI: 10.1063/1.4993215
   * E. Caldeweyher, S. Ehlert, A. Hansen, H. Neugebauer, S. Spicher,
     C. Bannwarth and S. Grimme, J. Chem. Phys., 2019, 150, 154122.
     DOI: 10.1063/1.5090222
   * E. Caldeweyher, J.-M. Mewes, S. Ehlert and S. Grimme, Phys. Chem. Chem. Phys.
     2020, 22, 8499-8512. DOI: 10.1039/D0CP00502A
   
   for sTDA-xTB:
   * S. Grimme and C. Bannwarth, J. Chem. Phys., 2016, 145, 054103.
     DOI: 10.1063/1.4959605
   
   in the mass-spec context:
   * V. Asgeirsson, C. Bauer and S. Grimme, Chem. Sci., 2017, 8, 4879.
     DOI: 10.1039/c7sc00601b
   * J. Koopman and S. Grimme, ACS Omega 2019, 4, 12, 15120-15133.
     DOI: 10.1021/acsomega.9b02011
   
   for metadynamics refer to:
   * S. Grimme, J. Chem. Theory Comput., 2019, 155, 2847-2862
     DOI: 10.1021/acs.jctc.9b00143
   
   for SPH calculations refer to:
   * S. Spicher and S. Grimme, J. Chem. Theory Comput., 2021, 17, 1701-1714
     DOI: 10.1021/acs.jctc.0c01306
   
   for ONIOM refer to:
   * C. Plett, A. Katbashev, S. Ehlert, S. Grimme, M. Bursch,
     Phys. Chem. Chem. Phys., 2023, 25, 17860-17868. DOI: 10.1039/D3CP02178E
   
   for DIPRO refer to:
   * J. Kohn, N. Gildemeister, S. Grimme, D. Fazzi, A. Hansen,
     J. Chem. Phys., 2023, just accepted.
   
   for PTB refer to:
   * S. Grimme, M. Mueller, A. Hansen, J. Chem. Phys., 2023, 158, 124111.
     DOI: 10.1063/5.0137838
   
   with help from (in alphabetical order)
   P. Atkinson, C. Bannwarth, F. Bohle, G. Brandenburg, E. Caldeweyher
   M. Checinski, S. Dohm, S. Ehlert, S. Ehrlich, I. Gerasimov, C. Hölzer
   A. Katbashev, J. Kohn, J. Koopman, C. Lavigne, S. Lehtola, F. März, M. Müller,
   F. Musil, H. Neugebauer, J. Pisarek, C. Plett, P. Pracht, F. Pultar,
   J. Seibert, P. Shushkov, S. Spicher, M. Stahn, M. Steiner, T. Strunk,
   J. Stückrath, T. Rose, and J. Unsleber
   
 * started run on 2025/04/11 at 14:49:22.881     
   ID    Z sym.   atoms
    1    6 C      1-6
    2    8 O      7
    3    1 H      8-17

           -------------------------------------------------
          |                Calculation Setup                |
           -------------------------------------------------

          program call               : /software/projects/pawsey0265/mwang1/xtb/bin/xtb xtb_opt.coord --opt normal --orca -I xtb_opt-xcontrol-inp
          hostname                   : nid001788
          coordinate file            : xtb_opt.coord
          omp threads                :                    56

           -------------------------------------------------
          |                   Orca driver                   |
           -------------------------------------------------
orca executable           : /software/projects/pawsey0265/mwang1/orca_avx2/orca
orca input file           : xtb_opt.inp
orca input line           : 
orca parallel             : true
orca number of threads    : 56
                         * ORCA takes the control...
  ------------------------------------------------------------------------

                                 *****************
                                 * O   R   C   A *
                                 *****************

                                            #,                                       
                                            ###                                      
                                            ####                                     
                                            #####                                    
                                            ######                                   
                                           ########,                                 
                                     ,,################,,,,,                         
                               ,,#################################,,                 
                          ,,##########################################,,             
                       ,#########################################, ''#####,          
                    ,#############################################,,   '####,        
                  ,##################################################,,,,####,       
                ,###########''''           ''''###############################       
              ,#####''   ,,,,##########,,,,          '''####'''          '####       
            ,##' ,,,,###########################,,,                        '##       
           ' ,,###''''                  '''############,,,                           
         ,,##''                                '''############,,,,        ,,,,,,###''
      ,#''                                            '''#######################'''  
     '                                                          ''''####''''         
             ,#######,   #######,   ,#######,      ##                                
            ,#'     '#,  ##    ##  ,#'     '#,    #''#        ,####,   ,####,        
            ##       ##  ##   ,#'  ##            #'  '#       #'       #'  '#        
            ##       ##  #######   ##           ,######,      #####,   #    #        
            '#,     ,#'  ##    ##  '#,     ,#' ,#      #,     #,   #   #,  ,#        
             '#######'   ##     ##  '#######'  #'      '#     '####' # '####'        



                #########################################################
                #                        -***-                          #
                #          Department of theory and spectroscopy        #
                #                                                       #
                #                      Frank Neese                      #
                #                                                       #
                #     Directorship, Architecture, Infrastructure        #
                #                    SHARK, DRIVERS                     #
                #        Core code/Algorithms in most modules           #
                #                                                       #
                #        Max Planck Institute fuer Kohlenforschung      #
                #                Kaiser Wilhelm Platz 1                 #
                #                 D-45470 Muelheim/Ruhr                 #
                #                      Germany                          #
                #                                                       #
                #                  All rights reserved                  #
                #                        -***-                          #
                #########################################################


                         Program Version 6.0.1  -  RELEASE   -


 With contributions from (in alphabetic order):
[Max-Planck-Institut fuer Kohlenforschung]                               
  Daniel Aravena         : Magnetic Suceptibility                        
  Michael Atanasov       : Ab Initio Ligand Field Theory (pilot matlab implementation)
  Alexander A. Auer      : GIAO ZORA, VPT2 properties, NMR spectrum      
  Ute Becker             : All parallelization in ORCA, NUMFREQ, NUMCALC 
  Giovanni Bistoni       : ED, misc. LED, open-shell LED, HFLD           
  Martin Brehm           : Molecular dynamics                            
  Dmytro Bykov           : pre 5.0 version of the SCF Hessian            
  Marcos Casanova-Páez   : Triplet and SCS-CIS(D). UHF-(DLPNO)-IP/EA/STEOM-CCSD. UHF-CVS-IP/STEOM-CCSD   
  Vijay G. Chilkuri      : MRCI spin determinant printing, contributions to CSF-ICE 
  Pauline Colinet        : FMM embedding                                 
  Dipayan Datta          : RHF DLPNO-CCSD density                        
  Achintya Kumar Dutta   : EOM-CC, STEOM-CC                              
  Nicolas Foglia         : Exact transition moments, OPA infrastructure, MCD improvements    
  Dmitry Ganyushin       : Spin-Orbit,Spin-Spin,Magnetic field MRCI      
  Miquel Garcia-Rates    : C-PCM and meta-GGA Hessian, CCSD/C-PCM, Gaussian charge scheme 
  Tiago L. C. Gouveia    : GS-ROHF, GS-ROCIS                             
  Yang Guo               : DLPNO-NEVPT2, F12-NEVPT2, CIM, IAO-localization        
  Andreas Hansen         : Spin unrestricted coupled pair/coupled cluster methods 
  Ingolf Harden          : AUTO-CI MPn and infrastructure                
  Benjamin Helmich-Paris : MC-RPA, TRAH-(SCF,CASSCF), AVAS, COSX integrals, SCF dyn. polar. 
  Lee Huntington         : MR-EOM, pCC                                   
  Robert Izsak           : Overlap fitted RIJCOSX, COSX-SCS-MP3, EOM     
  Riya Kayal             : Wick's Theorem for AUTO-CI, AUTO-CI UHF-CCSDT 
  Emily Kempfer          : AUTO-CI, RHF CISDT and CCSDT                  
  Christian Kollmar      : KDIIS, OOCD, Brueckner-CCSD(T), CCSD density, CASPT2, CASPT2-K, improved NEVPT2 
  Axel Koslowski         : Symmetry handling                             
  Simone Kossmann        : meta-GGA functionals, TD-DFT gradient, OOMP2, (MP2 Hessian; deprecated post 5.0) 
  Lucas Lang             : DCDCAS                                        
  Marvin Lechner         : AUTO-CI (C++ implementation), FIC-MRCC        
  Spencer Leger          : CASSCF response                               
  Dagmar Lenk            : GEPOL surface, SMD, ORCA-2-JSON               
  Dimitrios Liakos       : Extrapolation schemes; Compound Job, initial MDCI parallelization 
  Dimitrios Manganas     : Further ROCIS development; embedding schemes. LFT, Crystal Embedding 
  Dimitrios Pantazis     : SARC Basis sets                               
  Anastasios Papadopoulos: AUTO-CI, single reference methods and gradients 
  Taras Petrenko         : pre 6.0 DFT Hessian and TD-DFT gradient, (ASA, deprecated), ECA, 1-Electron XAS/XES, NRVS 
  Peter Pinski           : DLPNO-MP2, DLPNO-MP2 Gradient                 
  Christoph Reimann      : Effective Core Potentials                     
  Marius Retegan         : Local ZFS, SOC                                
  Christoph Riplinger    : Optimizer, TS searches, QM/MM, DLPNO-CCSD(T), (RO)-DLPNO pert. Triples 
  Michael Roemelt        : Original ROCIS implementation                 
  Masaaki Saitow         : Open-shell DLPNO-CCSD energy and density      
  Barbara Sandhoefer     : DKH picture change effects                    
  Kantharuban Sivalingam : CASSCF convergence/infrastructure, NEVPT2 and variants, FIC-MRCI 
  Bernardo de Souza      : ESD, SOC TD-DFT                               
  Georgi L. Stoychev     : AutoAux, RI-MP2 NMR, DLPNO-MP2 response, X2C  
  Van Anh Tran           : RI-MP2 g-tensors                              
  Willem Van den Heuvel  : Paramagnetic NMR                              
  Zikuan Wang            : NOTCH, Electric field optimization            
  Frank Wennmohs         : Technical directorship and infrastructure     
  Hang Xu                : AUTO-CI-Response properties                   
                                                                         
[FACCTs GmbH]                                                            
  Markus Bursch, Miquel Garcia-Rates, Christoph Riplinger, Bernardo de Souza, Georgi L. Stoychev 
                                                                 
  APM, Basis sets (HGBS, AHGBS, def-TZVP (Ac-Lr), def2-XVPD (La-Lu)), CI-OPT, improved COSX, DLPNO-Multilevel,           
  DOCKER, DRACO, updates on ESD, GOAT, IRC, LR-CPCM, MBIS, meta-GGA TD-DFT gradient, ML-optimized integration grids, 
  MM, NACMEs, nearIR, NEB, NEB-TS, NL-DFT gradient (VV10), 2- and 3-layer-ONIOM, interface openCOSMO-RS, QMMM,   
  Crystal-QMMM, SF, symmetry and pop. for TD-DFT, r2SCAN hybrids, SOLVATOR                                   
                                                                         
[Other institutions]                                                     
  V. Asgeirsson          : NEB                                           
  Christoph Bannwarth    : sTDA-DFT, sTD-DFT, PBEh-3c, B97-3c, D3        
  Sebastian Ehlert       : rSCAN, r2SCAN, r2SCAN-3c, D4, dhf basis sets  
  Marvin Friede          : D4 for Fr, Ra, Ac-Lr                          
  Lars Goerigk           : TD-DFT with DH, B97 family of functionals     
  Stefan Grimme          : VdW corrections, initial TS optimization, DFT functionals, gCP, sTDA/sTD-DF 
  Waldemar Hujo          : DFT-NL                                        
  H. Jonsson             : NEB                                           
  Holger Kruse           : gCP                                           
  Marcel Mueller         : wB97X-3c, vDZP basis set                      
  Hagen Neugebauer       : wr2SCAN                                       
  Tobias Risthaus        : range-separated hybrid DFT                    
  Lukas Wittmann         : regularized MP2, r2SCAN double-hybrids, wr2SCAN        
                                                                         
We gratefully acknowledge several colleagues who have allowed us to      
interface, adapt or use parts of their codes:                            
  Ed Valeev, F. Pavosevic, A. Kumar             : LibInt (2-el integral package), F12 methods 
  Garnet Chan, S. Sharma, J. Yang, R. Olivares  : DMRG                   
  Ulf Ekstrom                                   : XCFun DFT Library      
  Mihaly Kallay                                 : mrcc  (arbitrary order and MRCC methods)
  Frank Weinhold                                : gennbo (NPA and NBO analysis)           
  Simon Mueller                                 : openCOSMO-RS                            
  Christopher J. Cramer and Donald G. Truhlar   : smd solvation model                     
  S Lehtola, MJT Oliveira, MAL Marques          : LibXC Library                           
  Liviu Ungur et al                             : ANISO software                          


 Your calculation uses the libint2 library for the computation of 2-el integrals
 For citations please refer to: http://libint.valeyev.net

 Your ORCA version has been built with support for libXC version: 6.2.2
 For citations please refer to: https://libxc.gitlab.io

 This ORCA versions uses:
   CBLAS   interface :  Fast vector & matrix operations
   LAPACKE interface :  Fast linear algebra routines
   SCALAPACK package :  Parallel linear algebra routines
   Shared memory     :  Shared parallel matrices
   BLAS/LAPACK       :  OpenBLAS 0.3.27  USE64BITINT DYNAMIC_ARCH NO_AFFINITY Zen SINGLE_THREADED
        Core in use  :  Zen
   Copyright (c) 2011-2014, The OpenBLAS Project




***************************************
The coordinates will be read from file: xtb_opt.xyz
***************************************


Your calculation utilizes the geometrical counterpoise correction gCP
Please cite in your paper:
H.Kruse, S. Grimme J.Chem.Phys., 136, (2012), 154101 
   

Your calculation utilizes the atom-pairwise dispersion correction
based on EEQ partial charges (D4)


Your calculation utilizes the SMD solvation module
Please cite in your paper:
A.V. Marenich, C.J. Cramer, D.G. Truhlar J. Phys. Chem. B, 113, (2009), 6378 

================================================================================

----- Orbital basis set information -----
Your calculation utilizes the basis: def2-mTZVPP
   Stefan Grimme, Andreas Hansen, Sebastian Ehlert, and Jan-Michael Mewes 
   J. Chem. Phys. 154, 064103 (2021). DOI: 10.1063/5.0040021

----- AuxJ basis set information -----
Your calculation utilizes the auxiliary basis: def2/J
   F. Weigend, Phys. Chem. Chem. Phys. 8, 1057 (2006).

================================================================================
                                        WARNINGS
                       Please study these warnings very carefully!
================================================================================

WARNING: Old DensityContainer found on disk!
         Will remove this file - 
         If you want to keep old densities, please start your calculation with a different basename. 



WARNING: SCAN, rSCAN, or r2SCAN functional requested.
  ===> : libXC variant has now been activated.



================================================================================
                                       INPUT FILE
================================================================================
NAME = xtb_opt.inp
|  1> ! r2scan-3c def2/J RI DEFGRID2 scfconv7 ENGRAD tightSCF miniprint
|  2> %cpcm
|  3>     smd true
|  4>     smdsolvent "water"
|  5> end
|  6> * xyzfile 0 1 xtb_opt.xyz
|  7> 
|  8>                          ****END OF INPUT****
================================================================================

                     *******************************
                     * Energy+Gradient Calculation *
                     *******************************

---------------------------------
CARTESIAN COORDINATES (ANGSTROEM)
---------------------------------
  C      2.952679   -1.111074    0.085535
  C      2.475922    0.252697   -0.405895
  C      1.315749    0.844887    0.423741
  C      0.071339    0.043619    0.327184
  C     -1.106117    0.497792   -0.142590
  C     -2.249736   -0.383891   -0.208048
  O     -3.361861   -0.048936   -0.620306
  H      3.236967   -1.067864    1.142996
  H      2.181844   -1.880311   -0.024653
  H      3.827775   -1.439347   -0.483437
  H      2.166470    0.189130   -1.455833
  H      3.305327    0.967334   -0.361801
  H      1.120637    1.875134    0.110250
  H      1.633258    0.866823    1.476435
  H      0.123947   -0.996845    0.653364
  H     -1.232246    1.524860   -0.480936
  H     -2.075950   -1.420429    0.147739

----------------------------
CARTESIAN COORDINATES (A.U.)
----------------------------
  NO LB      ZA    FRAG     MASS         X           Y           Z
   0 C     6.0000    0    12.011    5.579754   -2.099625    0.161637
   1 C     6.0000    0    12.011    4.678814    0.477528   -0.767030
   2 C     6.0000    0    12.011    2.486405    1.596605    0.800755
   3 C     6.0000    0    12.011    0.134811    0.082428    0.618288
   4 C     6.0000    0    12.011   -2.090259    0.940691   -0.269456
   5 C     6.0000    0    12.011   -4.251385   -0.725449   -0.393153
   6 O     8.0000    0    15.999   -6.352996   -0.092476   -1.172209
   7 H     1.0000    0     1.008    6.116980   -2.017971    2.159949
   8 H     1.0000    0     1.008    4.123087   -3.553273   -0.046588
   9 H     1.0000    0     1.008    7.233446   -2.719972   -0.913564
  10 H     1.0000    0     1.008    4.094036    0.357404   -2.751127
  11 H     1.0000    0     1.008    6.246162    1.827996   -0.683705
  12 H     1.0000    0     1.008    2.117697    3.543490    0.208343
  13 H     1.0000    0     1.008    3.086410    1.638057    2.790057
  14 H     1.0000    0     1.008    0.234226   -1.883763    1.234679
  15 H     1.0000    0     1.008   -2.328608    2.881568   -0.908836
  16 H     1.0000    0     1.008   -3.922978   -2.684221    0.279186

------------------------------------------------------------------------------
                   ___                                                        
                  /   \      - P O W E R E D   B Y -                         
                 /     \                                                     
                 |  |  |   _    _      __       _____    __    __             
                 |  |  |  | |  | |    /  \     |  _  \  |  |  /  |          
                  \  \/   | |  | |   /    \    | | | |  |  | /  /          
                 / \  \   | |__| |  /  /\  \   | |_| |  |  |/  /          
                |  |  |   |  __  | /  /__\  \  |    /   |      \           
                |  |  |   | |  | | |   __   |  |    \   |  |\   \          
                \     /   | |  | | |  |  |  |  | |\  \  |  | \   \       
                 \___/    |_|  |_| |__|  |__|  |_| \__\ |__|  \__/        
                                                                              
                      - O R C A' S   B I G   F R I E N D -                    
                                      &                                       
                       - I N T E G R A L  F E E D E R -                       
                                                                              
 v1 FN, 2020, v2 2021, v3 2022-2024                                           
------------------------------------------------------------------------------


----------------------
SHARK INTEGRAL PACKAGE
----------------------

Number of atoms                             ...     17
Number of basis functions                   ...    188
Number of shells                            ...     94
Maximum angular momentum                    ...      2
Integral batch strategy                     ... SHARK/LIBINT Hybrid
RI-J (if used) integral strategy            ... SPLIT-RIJ (Revised 2003 algorithm where possible)
Printlevel                                  ...      1
Contraction scheme used                     ... SEGMENTED contraction
Prescreening option                         ... SCHWARTZ
   Thresh                                   ... 3.000e-11
   Tcut                                     ... 1.000e-12
   Tpresel                                  ... 1.000e-12 
Coulomb Range Separation                    ... NOT USED
Exchange Range Separation                   ... NOT USED
Multipole approximations                    ... NOT USED
Finite Nucleus Model                        ... NOT USED
CABS basis                                  ... NOT available
Auxiliary Coulomb fitting basis             ... AVAILABLE
   # of basis functions in Aux-J            ...    453
   # of shells in Aux-J                     ...    155
   Maximum angular momentum in Aux-J        ...      4
Auxiliary J/K fitting basis                 ... NOT available
Auxiliary Correlation fitting basis         ... NOT available
Auxiliary 'external' fitting basis          ... NOT available

Checking pre-screening integrals            ... done (  0.0 sec) Dimension = 94
Check shell pair data                       ... done (  0.0 sec)
Shell pair information
Shell pair cut-off parameter TPreSel        ...   1.0e-12
Total number of shell pairs                 ...      4465
Shell pairs after pre-screening             ...      3952
Total number of primitive shell pairs       ...     15937
Primitive shell pairs kept                  ...     10242
          la=0 lb=0:   1344 shell pairs
          la=1 lb=0:   1524 shell pairs
          la=1 lb=1:    450 shell pairs
          la=2 lb=0:    382 shell pairs
          la=2 lb=1:    220 shell pairs
          la=2 lb=2:     32 shell pairs

Calculating one electron integrals          ... done (  0.0 sec)
Calculating RI/J V-Matrix + Cholesky decomp.... done (  0.0 sec)
Calculating Nuclear repulsion               ... done (  0.0 sec) ENN=    275.525728793726 Eh

Diagonalization of the overlap matrix:
Smallest eigenvalue                        ... 1.448e-04
Time for diagonalization                   ...    0.004 sec
Threshold for overlap eigenvalues          ... 1.000e-07
Number of eigenvalues below threshold      ... 0
Time for construction of square roots      ...    0.004 sec
Total time needed                          ...    0.009 sec

-------------------
DFT GRID GENERATION
-------------------

General Integration Accuracy     IntAcc      ... 4.388
Radial Grid Type                 RadialGrid  ... OptM3 with GC (2021)
Angular Grid (max. ang.)         AngularGrid ... 4 (Lebedev-302)
Angular grid pruning method      GridPruning ... 4 (adaptive)
Weight generation scheme         WeightScheme... mBecke (2022)
Basis function cutoff            BFCut       ... 1.0000e-11
Integration weight cutoff        WCut        ... 1.0000e-14
Partially contracted basis set               ... off
Rotationally invariant grid construction     ... off
Angular grids for H and He will be reduced by one unit
Diffuse basis detected: some atoms will have their outermost
                        angular grid increased by 1.

Total number of grid points                  ...    74706
Total number of batches                      ...     1176
Average number of points per batch           ...       63
Average number of grid points per atom       ...     4394
Initializing property integral containers    ... done (  0.0 sec)

SHARK setup successfully completed in   0.7 seconds

Maximum memory used throughout the entire STARTUP-calculation: 33.8 MB
Occupation numbers will be reassigned to an Aufbau configuration
             **** ENERGY FILE WAS UPDATED (xtb_opt.en.tmp) ****
Finished Guess after   0.1 sec
Maximum memory used throughout the entire GUESS-calculation: 13.1 MB
--------------------
CPCM SOLVATION MODEL
--------------------
CPCM parameters:
  Epsilon                                         ...      78.3550
  Refrac                                          ...       1.3328
  Rsolv                                           ...       1.3000
  Surface type                                    ... GAUSSIAN VDW
  Discretization scheme                           ... Constant charge density
    Threshold for H atoms                         ...       5.0000 (charges/Ang^2)
    Threshold for non-H atoms                     ...       5.0000 (charges/Ang^2)
  Epsilon function type                           ...         CPCM
Solvent:                                          ... WATER
SMD-CDS solvent descriptors:
  Soln                                            ...       1.3328
  Soln25                                          ...       1.3323
  Sola                                            ...       0.0000
  Solb                                            ...       0.0000
  Solg                                            ...       0.0000
  Solc                                            ...       0.0000
  Solh                                            ...       0.0000
Radii:
  Scheme                                          ... Element-dependent radii
  Radius for C  used is    3.4960 Bohr (=   1.8500 Ang.)
  Radius for O  used is    2.8724 Bohr (=   1.5200 Ang.)
  Radius for H  used is    2.2677 Bohr (=   1.2000 Ang.)
Calculating surface                               ...        done! (  0.0s)
Cavity surface points                             ...         1315
Cavity Volume                                     ...     795.1734
Cavity Surface-area                               ...     531.9807
Calculating surface distance matrix               ...        done! (  0.0s)
Performing Cholesky decomposition & store         ...        done! (  0.0s)
Overall time for CPCM initialization              ...                 0.1s

----------------------------------------D-I-I-S--------------------------------------------
Iteration    Energy (Eh)           Delta-E    RMSDP     MaxDP     DIISErr   Damp  Time(sec)
-------------------------------------------------------------------------------------------
               ***  Starting incremental Fock matrix formation  ***
                              *** Initializing SOSCF ***
---------------------------------------S-O-S-C-F--------------------------------------
Iteration    Energy (Eh)           Delta-E    RMSDP     MaxDP     MaxGrad    Time(sec)
--------------------------------------------------------------------------------------
    1    -309.7896305662125656     0.00e+00  4.52e-06  2.56e-04  2.94e-05     1.7
               *** Restarting incremental Fock matrix formation ***
    2    -309.7896305678445401    -1.63e-09  7.53e-06  4.47e-04  3.59e-05     1.7
    3    -309.7896304807546244     8.71e-08  5.99e-06  3.70e-04  1.05e-04     1.3
                 **** Energy Check signals convergence ****

               *****************************************************
               *                     SUCCESS                       *
               *           SCF CONVERGED AFTER   3 CYCLES          *
               *****************************************************


SMD CDS free energy correction energy :                 4.68340     Kcal/mol
Total Energy after SMD CDS correction =              -309.782167005 Eh
             **** ENERGY FILE WAS UPDATED (xtb_opt.en.tmp) ****

----------------
TOTAL SCF ENERGY
----------------

Total Energy       :       -309.78216700531118 Eh           -8429.60132 eV

Components:
Nuclear Repulsion  :        275.52572879372627 Eh            7497.43624 eV
Electronic Energy  :       -585.29480159549246 Eh          -15926.68125 eV
One Electron Energy:       -963.57567719731423 Eh          -26220.22719 eV
Two Electron Energy:        378.28087560182178 Eh           10293.54594 eV
CPCM Dielectric    :         -0.02055767898840 Eh              -0.55940 eV
SMD CDS (Gcds)     :          0.00746347544343 Eh               0.20309 eV

Virial components:
Potential Energy   :       -618.10437620665812 Eh          -16819.47516 eV
Kinetic Energy     :        308.32220920134688 Eh            8389.87385 eV
Virial Ratio       :          2.00473516911982

DFT components:
N(Alpha)           :       27.000003238285 electrons
N(Beta)            :       27.000003238285 electrons
N(Total)           :       54.000006476570 electrons
E(X)               :      -43.008977370565 Eh       
E(C)               :       -1.698096262852 Eh       
E(XC)              :      -44.707073633417 Eh       

CPCM Solvation Model Properties:
Surface-charge          :         -0.04771382996447
Corrected charge        :          0.00000000000000
Outlying charge corr.   :          0.00017839770283 Eh               0.00485 eV
Free-energy (cav+disp)  :          0.00746347544343 Eh               0.20309 eV

---------------
SCF CONVERGENCE
---------------

  Last Energy change         ...   -8.7090e-08  Tolerance :   1.0000e-07
  Last MAX-Density change    ...    3.6959e-04  Tolerance :   1.0000e-07
  Last RMS-Density change    ...    5.9917e-06  Tolerance :   5.0000e-09
  Last DIIS Error            ...    8.3133e-05  Tolerance :   1.0000e-07
  Last Orbital Gradient      ...    1.0530e-04  Tolerance :   1.0000e-04
  Last Orbital Rotation      ...    1.9996e-04  Tolerance :   1.0000e-04


----------------
ORBITAL ENERGIES
----------------

  NO   OCC          E(Eh)            E(eV) 
   0   2.0000     -18.949274      -515.6360 
   1   2.0000     -10.118559      -275.3400 
   2   2.0000     -10.062793      -273.8225 
   3   2.0000     -10.038923      -273.1730 
   4   2.0000     -10.034364      -273.0489 
   5   2.0000     -10.029606      -272.9195 
   6   2.0000     -10.013698      -272.4866 
   7   2.0000      -1.005071       -27.3494 
   8   2.0000      -0.789889       -21.4940 
   9   2.0000      -0.736908       -20.0523 
  10   2.0000      -0.665440       -18.1075 
  11   2.0000      -0.590936       -16.0802 
  12   2.0000      -0.541538       -14.7360 
  13   2.0000      -0.528162       -14.3720 
  14   2.0000      -0.453867       -12.3504 
  15   2.0000      -0.436177       -11.8690 
  16   2.0000      -0.408922       -11.1273 
  17   2.0000      -0.396189       -10.7808 
  18   2.0000      -0.380500       -10.3539 
  19   2.0000      -0.371322       -10.1042 
  20   2.0000      -0.355647        -9.6777 
  21   2.0000      -0.349273        -9.5042 
  22   2.0000      -0.312317        -8.4986 
  23   2.0000      -0.304122        -8.2756 
  24   2.0000      -0.295627        -8.0444 
  25   2.0000      -0.253605        -6.9010 
  26   2.0000      -0.231295        -6.2939 
  27   0.0000      -0.091513        -2.4902 
  28   0.0000       0.021057         0.5730 
  29   0.0000       0.101505         2.7621 
  30   0.0000       0.112109         3.0506 
  31   0.0000       0.117135         3.1874 
  32   0.0000       0.126952         3.4545 
  33   0.0000       0.137754         3.7485 
  34   0.0000       0.145001         3.9457 
  35   0.0000       0.151307         4.1173 
  36   0.0000       0.157815         4.2944 
  37   0.0000       0.162856         4.4315 
*Only the first 10 virtual orbitals were printed.
Total SCF time: 0 days 0 hours 0 min 5 sec 
Finished LeanSCF after  10.0 sec

Maximum memory used throughout the entire LEANSCF-calculation: 24.5 MB


-------------------------------------------------------------------------------
                          DFT DISPERSION CORRECTION                            
                                                                               
                                DFTD4 V3.4.0                                   
-------------------------------------------------------------------------------
-------------------------   ----------------
Dispersion correction           -0.004185652
-------------------------   ----------------

------------------   -----------------
gCP correction             0.006780700
------------------   -----------------

-------------------------   --------------------
FINAL SINGLE POINT ENERGY      -309.779571957152
-------------------------   --------------------

------------------------------------------------------------------------------
                         ORCA SCF GRADIENT CALCULATION
------------------------------------------------------------------------------

Nuc. rep. gradient        (SHARK) ... done (  0.0 sec)
HCore & Overlap gradient  (SHARK) ... done (  0.2 sec)
Split-RIJ-J gradient      (SHARK) ... done (  1.0 sec)
XC gradient                       ... done (  4.1 sec)
CPCM gradient                     ... done (  1.1 sec)
SMD gradient                      ... done (  0.0 sec)
Dispersion correction             ... done (  0.0 sec)

-------------------
DISPERSION GRADIENT
-------------------

   1   C   :    0.000066128   -0.000042480    0.000001709
   2   C   :    0.000062585    0.000009954   -0.000015549
   3   C   :    0.000032571    0.000041395    0.000018846
   4   C   :   -0.000024589    0.000008582    0.000018404
   5   C   :   -0.000078427    0.000020920   -0.000003194
   6   C   :   -0.000080833   -0.000018276   -0.000006443
   7   O   :   -0.000062391   -0.000005812   -0.000014688
   8   H   :    0.000028598   -0.000016487    0.000006885
   9   H   :    0.000031407   -0.000027111   -0.000002041
  10   H   :    0.000026210   -0.000017741   -0.000006058
  11   H   :    0.000028343    0.000002254   -0.000017454
  12   H   :    0.000025793    0.000008522   -0.000006118
  13   H   :    0.000007439    0.000028428    0.000002919
  14   H   :    0.000012753    0.000015600    0.000018309
  15   H   :   -0.000012411   -0.000009903    0.000011817
  16   H   :   -0.000028539    0.000016376   -0.000005985
  17   H   :   -0.000034637   -0.000014220   -0.000001359

Difference to translation invariance:
           :   -0.0000000000    0.0000000000   -0.0000000000

Difference to rotation invariance:
           :   -0.0000000000   -0.0000000000    0.0000000000

Norm of the Dispersion gradient    ...    0.0002062806
RMS gradient                       ...    0.0000288851
MAX gradient                       ...    0.0000808330
gCP correction                   ... done

------------------
CARTESIAN GRADIENT
------------------

   1   C   :    0.000179964   -0.000281067    0.000056460
   2   C   :    0.000154411    0.000199797   -0.000307953
   3   C   :   -0.000187732    0.000079020    0.000048916
   4   C   :    0.000004662    0.000273001    0.000247805
   5   C   :   -0.000049401    0.000057106    0.000016541
   6   C   :   -0.000495413   -0.000147305   -0.000812343
   7   O   :    0.000261973    0.000333811    0.000215902
   8   H   :    0.000036562    0.000001355    0.000083797
   9   H   :   -0.000012876   -0.000145262    0.000015005
  10   H   :   -0.000143565    0.000153362    0.000086500
  11   H   :   -0.000078631    0.000005465   -0.000040118
  12   H   :    0.000045564    0.000079601    0.000028511
  13   H   :    0.000076295   -0.000049128   -0.000033697
  14   H   :    0.000041288   -0.000040334   -0.000130994
  15   H   :    0.000192694   -0.000463571    0.000184559
  16   H   :   -0.000224144    0.000253643    0.000034025
  17   H   :    0.000198349   -0.000309494    0.000307083

Difference to translation invariance:
           :   -0.0000000000   -0.0000000000   -0.0000000000

Difference to rotation invariance:
           :    0.0001173458    0.0001139660    0.0004110879

Norm of the Cartesian gradient     ...    0.0015402334
RMS gradient                       ...    0.0002156758
MAX gradient                       ...    0.0008123431

-------
TIMINGS
-------

Total SCF gradient time     ....        6.326 sec

Densities                   ....       0.000 sec  (  0.0%)
One electron gradient       ....       0.172 sec  (  2.7%)
RI-J Coulomb gradient       ....       0.976 sec  ( 15.4%)
XC gradient                 ....       4.073 sec  ( 64.4%)
CPCM gradient               ....       1.054 sec  ( 16.7%)
   A-Matrix (El+Nuc)        ....       0.067 sec  (  1.1%)
   Potential                ....       0.987 sec  ( 15.6%)
SMD gradient                ....       0.004 sec  (  0.1%)

Maximum memory used throughout the entire SCFGRAD-calculation: 33.2 MB

------------------------------------------------------------------------------
                              ORCA PROPERTY CALCULATIONS
------------------------------------------------------------------------------

GBWName                                 ... xtb_opt.gbw
Number of atoms                         ...     17
Number of basis functions               ...    188
Max core memory                         ...   1024 MB

Electric properties:
Dipole moment                           ... YES
Quadrupole moment                       ...  NO
Static polarizability (Dipole/Dipole)   ...  NO
Static polarizability (Dipole/Quad.)    ...  NO
Static polarizability (Quad./Quad.)     ...  NO
Static polarizability (Velocity)        ...  NO

Atomic electric properties:
Dipole moment                           ...  NO
Quadrupole moment                       ...  NO
Static polarizability                   ...  NO

Choice of electric origin               ... Center of mass
Position of electric origin             ...     0.041821    -0.008579    -0.158548

General magnetic properties:
Magnetizability                         ...  NO

EPR properties:
g-Tensor (aka g-matrix)                 ...  NO
Zero-Field splitting spin-orbit         ...  NO
Zero-field splitting spin-spin          ...  NO
Hyperfine couplings                     ...  NO (   0 nuclei)
Quadrupole couplings                    ...  NO (   0 nuclei)
Contact density                         ...  NO (   0 nuclei)

NMR properties:
Chemical shifts                         ...  NO (   0 nuclei)
Spin-rotation constants                 ...  NO (   0 nuclei)
Spin-spin couplings                     ...  NO (   0 nuclei,    0 pairs)

Choice of magnetic origin               ... GIAO
Position of magnetic origin             ...     0.000000     0.000000     0.000000

Properties with geometric perturbations:
SCF Hessian                             ...  NO
IR spectrum                             ...  NO
VCD spectrum                            ...  NO
X-ray spectroscopy properties:
SCF XES/XAS/RIXS spectra                ...  NO


-------------
DIPOLE MOMENT
-------------

Method             : SCF
Type of density    : Electron Density
Multiplicity       :   1
Irrep              :   0
Energy             :  -309.7821670053111802 Eh
Relativity type    : 
Basis              : AO
                                X                 Y                 Z
Electronic contribution:    -10.641312782       1.110575033      -0.781596516
Nuclear contribution   :     13.147020006      -1.254171892       1.458550791
                        -----------------------------------------
Total Dipole Moment    :      2.505707224      -0.143596859       0.676954275
                        -----------------------------------------
Magnitude (a.u.)       :      2.599510693
Magnitude (Debye)      :      6.607431080



--------------------
Rotational spectrum 
--------------------
 
Rotational constants in cm-1:             0.275666             0.031807             0.030050 
Rotational constants in MHz :          8264.244891           953.551814           900.871916 

Dipole components along the rotational axes: 
x,y,z [a.u.] :     2.554840     0.007948     0.479775 
x,y,z [Debye]:     6.493888     0.020202     1.219492 

 

Dipole moment calculation done in   1.7 sec 

Maximum memory used throughout the entire PROP-calculation: 11.6 MB

--------------------------------
SUGGESTED CITATIONS FOR THIS RUN
--------------------------------

Below you find a list of papers that are relevant to this ORCA run
We neither can nor want to force you to cite these papers, but we appreciate if you do
You receive ORCA, which is the product of decades of hard work by many enthusiastic individuals, for free
The only thing we kindly ask in return is that you cite our papers,
We deeply appreciate it, if you show your appreciation for ORCA by not just citing the generic ORCA reference.

Please note that relegating all ORCA citations to the supporting information does *not* help us.
SI sections are not indexed - citations you put there will not count into any citation statistics
But we need these citations in order to attract the funding resources that allow us to do what we are doing

Therefore, if you are a happy ORCA user, please consider citing a few of the papers listed below in the main body of your paper

In addition to the list printed below, the program has created the file xtb_opt.bibtex that contains the list in bibtex format
You can import this file easily into all common literature databanks and citation aid programs


List of essential papers. We consider these as the minimum necessary citations

  1. Neese,F.
     Software update: the ORCA program system, version 5.0
     WIRES Comput. Molec. Sci., 2022 12(1)e1606
     doi.org/10.1002/wcms.1606
  2. Grimme,S.; Hansen,A.; Ehlert,S.; Mewes,J.
     r2SCAN-3c: A 'Swiss army knife' composite electronic-structure method
     J. Chem. Phys., 2021 154 064103
     doi.org/10.1063/5.0040021

List of papers to cite with high priority. The work reported in these papers was absolutely
necessary for this run to complete.
Our perspective: the developers of density functionals and basis sets usually get cited in chemistry papers
Good! But without the algorithms to do something with them, the functionals or basis sets would not do anything.
Hence, in our opinion, the algorithm design and method developments papers are equally worthy of getting cited

  1. Neese,F.
     An improvement of the resolution of the identity approximation for the formation of the Coulomb matrix
     J. Comp. Chem., 2003 24(14)1740-1747
     doi.org/10.1002/jcc.10318
  2. Garcia-Rates,M.; Neese,F.
     Effect of the Solute Cavity on the Solvation Energy and its Derivatives within the Framework of the Gaussian Charge Scheme
     J. Comput. Chem., 2020 41 922-939
     doi.org/10.1002/jcc.26139
  3. Neese,F.
     The SHARK Integral Generation and Digestion System
     J. Comp. Chem., 2022  1-16
     doi.org/10.1002/jcc.26942
  4. Lehtola,S.; Steigemann,C.; Oliveira,M.; Marques,M.
     Recent developments in Libxc - A comprehensive library of functionals for density functional theory
     Software X, 2018 7 
     doi.org/10.1016/j.softx.2017.11.002
  5. Caldeweyher,E.; Bannwarth,C.; Grimme,S.
     Extension of the D3 dispersion coefficient model
     J. Chem. Phys., 2017 147 034112
     doi.org/10.1063/1.4993215
  6. Caldeweyher,E.; Ehlert,S.; Hansen,A.; Neugebauer,H.; Spicher,S.; Bannwarth,C.; Grimme,S.
     A generally applicable atomic-charge dependent London dispersion correction
     J. Chem. Phys., 2019 150 154122
     doi.org/10.1063/1.5090222
  7. Caldeweyher,E.; Mewes,J.; Ehlert,S.; Grimme,S.
     Extension and evaluation of the D4 London-dispersion model for periodic systems
     Phys. Chem. Chem. Phys., 2020 22(16)8499-8512
     doi.org/10.1039/D0CP00502A
  8. Wittmann,L.; Gordiy,I.; Friede,M.; Helmich-Paris,B.; Grimme,S.; Hansen,A.; Bursch,M.
     Extension of the D3 and D4 London Dispersion Corrections to the full Actinides Series
     Phys. Chem. Chem. Phys., 2024 26(32)21379-21394
     doi.org/https://doi.org/10.1039/D4CP01514B 

List of suggested additional citations. These are papers that are important in the 'surrounding' of 
of this run, or papers that preceded the highly important papers. If you like your results we are grateful for a citation.

  1. Neese,F.
     The ORCA program system
     WIRES Comput. Molec. Sci., 2012 2(1)73-78
     doi.org/10.1002/wcms.81
  2. Neese,F.
     Software update: the ORCA program system, version 4.0
     WIRES Comput. Molec. Sci., 2018 8(1)1-6
     doi.org/10.1002/wcms.1327
  3. Neese,F.; Wennmohs,F.; Becker,U.; Riplinger,C.
     The ORCA quantum chemistry program package
     J. Chem. Phys., 2020 152 Art. No. L224108
     doi.org/10.1063/5.0004608

List of optional additional citations

  1. Neese,F.
     Approximate second-order SCF convergence for spin unrestricted wavefunctions
     Chem. Phys. Lett., 2000 325(1-3)93-98
     doi.org/10.1016/s0009-2614(00)00662-x

Timings for individual modules:

Sum of individual times          ...       22.027 sec (=   0.367 min)
Startup calculation              ...        0.757 sec (=   0.013 min)   3.4 %
SCF iterations                   ...       10.340 sec (=   0.172 min)  46.9 %
Property calculations            ...        2.161 sec (=   0.036 min)   9.8 %
SCF Gradient evaluation          ...        8.770 sec (=   0.146 min)  39.8 %
                             ****ORCA TERMINATED NORMALLY****
TOTAL RUN TIME: 0 days 0 hours 0 minutes 30 seconds 480 msec
  ------------------------------------------------------------------------
          * successful ORCA run, taking over control again...

         :::::::::::::::::::::::::::::::::::::::::::::::::::::
         ::                  ORCA SUMMARY                   ::
         :::::::::::::::::::::::::::::::::::::::::::::::::::::
         :: total energy            -309.779571957152 Eh    ::
         :: gradient norm              0.001540233420 Eh/a0 ::
         :: HOMO-LUMO gap              0.000000000000 eV    ::
         :::::::::::::::::::::::::::::::::::::::::::::::::::::

      ----------------------------------------------------------- 
     |                       L-ANC optimizer                     |
      ----------------------------------------------------------- 
          low memory version by Sebastian Ehlert

          ...................................................
          :                      SETUP                      :
          :.................................................:
          :   energy convergence        0.5000000E-05 Eh    :
          :   grad. convergence         0.1000000E-02 Eh/a0 :
          :   optimization log               true           :
          :   writing optlog all                1     steps :
          :   Hessian reset                     8     steps :
          :   maximium step len.        1.0000000     a0    :
          :   LBFGS images                      8           :
          ...................................................
 * calculating model hessian...
Using Lindh-Hessian (1995)
 Shifting diagonal of input Hessian by   1.000000000000000E-002
 Lowest  eigenvalues of input Hessian
    0.000000    0.000000    0.000000    0.000000    0.000000    0.000000
    0.012214    0.012910    0.013809    0.018739    0.021729    0.024253
    0.026466    0.031836    0.045714    0.050250    0.052827    0.060510
 Highest eigenvalues
    1.167889    1.252326    1.317142    1.602702    1.804297    2.169544
 

........................................................................
.............................. CYCLE    1 ..............................
........................................................................
                         * ORCA takes the control...
  ------------------------------------------------------------------------

                                 *****************
                                 * O   R   C   A *
                                 *****************

                                            #,                                       
                                            ###                                      
                                            ####                                     
                                            #####                                    
                                            ######                                   
                                           ########,                                 
                                     ,,################,,,,,                         
                               ,,#################################,,                 
                          ,,##########################################,,             
                       ,#########################################, ''#####,          
                    ,#############################################,,   '####,        
                  ,##################################################,,,,####,       
                ,###########''''           ''''###############################       
              ,#####''   ,,,,##########,,,,          '''####'''          '####       
            ,##' ,,,,###########################,,,                        '##       
           ' ,,###''''                  '''############,,,                           
         ,,##''                                '''############,,,,        ,,,,,,###''
      ,#''                                            '''#######################'''  
     '                                                          ''''####''''         
             ,#######,   #######,   ,#######,      ##                                
            ,#'     '#,  ##    ##  ,#'     '#,    #''#        ,####,   ,####,        
            ##       ##  ##   ,#'  ##            #'  '#       #'       #'  '#        
            ##       ##  #######   ##           ,######,      #####,   #    #        
            '#,     ,#'  ##    ##  '#,     ,#' ,#      #,     #,   #   #,  ,#        
             '#######'   ##     ##  '#######'  #'      '#     '####' # '####'        



                #########################################################
                #                        -***-                          #
                #          Department of theory and spectroscopy        #
                #                                                       #
                #                      Frank Neese                      #
                #                                                       #
                #     Directorship, Architecture, Infrastructure        #
                #                    SHARK, DRIVERS                     #
                #        Core code/Algorithms in most modules           #
                #                                                       #
                #        Max Planck Institute fuer Kohlenforschung      #
                #                Kaiser Wilhelm Platz 1                 #
                #                 D-45470 Muelheim/Ruhr                 #
                #                      Germany                          #
                #                                                       #
                #                  All rights reserved                  #
                #                        -***-                          #
                #########################################################


                         Program Version 6.0.1  -  RELEASE   -


 With contributions from (in alphabetic order):
[Max-Planck-Institut fuer Kohlenforschung]                               
  Daniel Aravena         : Magnetic Suceptibility                        
  Michael Atanasov       : Ab Initio Ligand Field Theory (pilot matlab implementation)
  Alexander A. Auer      : GIAO ZORA, VPT2 properties, NMR spectrum      
  Ute Becker             : All parallelization in ORCA, NUMFREQ, NUMCALC 
  Giovanni Bistoni       : ED, misc. LED, open-shell LED, HFLD           
  Martin Brehm           : Molecular dynamics                            
  Dmytro Bykov           : pre 5.0 version of the SCF Hessian            
  Marcos Casanova-Páez   : Triplet and SCS-CIS(D). UHF-(DLPNO)-IP/EA/STEOM-CCSD. UHF-CVS-IP/STEOM-CCSD   
  Vijay G. Chilkuri      : MRCI spin determinant printing, contributions to CSF-ICE 
  Pauline Colinet        : FMM embedding                                 
  Dipayan Datta          : RHF DLPNO-CCSD density                        
  Achintya Kumar Dutta   : EOM-CC, STEOM-CC                              
  Nicolas Foglia         : Exact transition moments, OPA infrastructure, MCD improvements    
  Dmitry Ganyushin       : Spin-Orbit,Spin-Spin,Magnetic field MRCI      
  Miquel Garcia-Rates    : C-PCM and meta-GGA Hessian, CCSD/C-PCM, Gaussian charge scheme 
  Tiago L. C. Gouveia    : GS-ROHF, GS-ROCIS                             
  Yang Guo               : DLPNO-NEVPT2, F12-NEVPT2, CIM, IAO-localization        
  Andreas Hansen         : Spin unrestricted coupled pair/coupled cluster methods 
  Ingolf Harden          : AUTO-CI MPn and infrastructure                
  Benjamin Helmich-Paris : MC-RPA, TRAH-(SCF,CASSCF), AVAS, COSX integrals, SCF dyn. polar. 
  Lee Huntington         : MR-EOM, pCC                                   
  Robert Izsak           : Overlap fitted RIJCOSX, COSX-SCS-MP3, EOM     
  Riya Kayal             : Wick's Theorem for AUTO-CI, AUTO-CI UHF-CCSDT 
  Emily Kempfer          : AUTO-CI, RHF CISDT and CCSDT                  
  Christian Kollmar      : KDIIS, OOCD, Brueckner-CCSD(T), CCSD density, CASPT2, CASPT2-K, improved NEVPT2 
  Axel Koslowski         : Symmetry handling                             
  Simone Kossmann        : meta-GGA functionals, TD-DFT gradient, OOMP2, (MP2 Hessian; deprecated post 5.0) 
  Lucas Lang             : DCDCAS                                        
  Marvin Lechner         : AUTO-CI (C++ implementation), FIC-MRCC        
  Spencer Leger          : CASSCF response                               
  Dagmar Lenk            : GEPOL surface, SMD, ORCA-2-JSON               
  Dimitrios Liakos       : Extrapolation schemes; Compound Job, initial MDCI parallelization 
  Dimitrios Manganas     : Further ROCIS development; embedding schemes. LFT, Crystal Embedding 
  Dimitrios Pantazis     : SARC Basis sets                               
  Anastasios Papadopoulos: AUTO-CI, single reference methods and gradients 
  Taras Petrenko         : pre 6.0 DFT Hessian and TD-DFT gradient, (ASA, deprecated), ECA, 1-Electron XAS/XES, NRVS 
  Peter Pinski           : DLPNO-MP2, DLPNO-MP2 Gradient                 
  Christoph Reimann      : Effective Core Potentials                     
  Marius Retegan         : Local ZFS, SOC                                
  Christoph Riplinger    : Optimizer, TS searches, QM/MM, DLPNO-CCSD(T), (RO)-DLPNO pert. Triples 
  Michael Roemelt        : Original ROCIS implementation                 
  Masaaki Saitow         : Open-shell DLPNO-CCSD energy and density      
  Barbara Sandhoefer     : DKH picture change effects                    
  Kantharuban Sivalingam : CASSCF convergence/infrastructure, NEVPT2 and variants, FIC-MRCI 
  Bernardo de Souza      : ESD, SOC TD-DFT                               
  Georgi L. Stoychev     : AutoAux, RI-MP2 NMR, DLPNO-MP2 response, X2C  
  Van Anh Tran           : RI-MP2 g-tensors                              
  Willem Van den Heuvel  : Paramagnetic NMR                              
  Zikuan Wang            : NOTCH, Electric field optimization            
  Frank Wennmohs         : Technical directorship and infrastructure     
  Hang Xu                : AUTO-CI-Response properties                   
                                                                         
[FACCTs GmbH]                                                            
  Markus Bursch, Miquel Garcia-Rates, Christoph Riplinger, Bernardo de Souza, Georgi L. Stoychev 
                                                                 
  APM, Basis sets (HGBS, AHGBS, def-TZVP (Ac-Lr), def2-XVPD (La-Lu)), CI-OPT, improved COSX, DLPNO-Multilevel,           
  DOCKER, DRACO, updates on ESD, GOAT, IRC, LR-CPCM, MBIS, meta-GGA TD-DFT gradient, ML-optimized integration grids, 
  MM, NACMEs, nearIR, NEB, NEB-TS, NL-DFT gradient (VV10), 2- and 3-layer-ONIOM, interface openCOSMO-RS, QMMM,   
  Crystal-QMMM, SF, symmetry and pop. for TD-DFT, r2SCAN hybrids, SOLVATOR                                   
                                                                         
[Other institutions]                                                     
  V. Asgeirsson          : NEB                                           
  Christoph Bannwarth    : sTDA-DFT, sTD-DFT, PBEh-3c, B97-3c, D3        
  Sebastian Ehlert       : rSCAN, r2SCAN, r2SCAN-3c, D4, dhf basis sets  
  Marvin Friede          : D4 for Fr, Ra, Ac-Lr                          
  Lars Goerigk           : TD-DFT with DH, B97 family of functionals     
  Stefan Grimme          : VdW corrections, initial TS optimization, DFT functionals, gCP, sTDA/sTD-DF 
  Waldemar Hujo          : DFT-NL                                        
  H. Jonsson             : NEB                                           
  Holger Kruse           : gCP                                           
  Marcel Mueller         : wB97X-3c, vDZP basis set                      
  Hagen Neugebauer       : wr2SCAN                                       
  Tobias Risthaus        : range-separated hybrid DFT                    
  Lukas Wittmann         : regularized MP2, r2SCAN double-hybrids, wr2SCAN        
                                                                         
We gratefully acknowledge several colleagues who have allowed us to      
interface, adapt or use parts of their codes:                            
  Ed Valeev, F. Pavosevic, A. Kumar             : LibInt (2-el integral package), F12 methods 
  Garnet Chan, S. Sharma, J. Yang, R. Olivares  : DMRG                   
  Ulf Ekstrom                                   : XCFun DFT Library      
  Mihaly Kallay                                 : mrcc  (arbitrary order and MRCC methods)
  Frank Weinhold                                : gennbo (NPA and NBO analysis)           
  Simon Mueller                                 : openCOSMO-RS                            
  Christopher J. Cramer and Donald G. Truhlar   : smd solvation model                     
  S Lehtola, MJT Oliveira, MAL Marques          : LibXC Library                           
  Liviu Ungur et al                             : ANISO software                          


 Your calculation uses the libint2 library for the computation of 2-el integrals
 For citations please refer to: http://libint.valeyev.net

 Your ORCA version has been built with support for libXC version: 6.2.2
 For citations please refer to: https://libxc.gitlab.io

 This ORCA versions uses:
   CBLAS   interface :  Fast vector & matrix operations
   LAPACKE interface :  Fast linear algebra routines
   SCALAPACK package :  Parallel linear algebra routines
   Shared memory     :  Shared parallel matrices
   BLAS/LAPACK       :  OpenBLAS 0.3.27  USE64BITINT DYNAMIC_ARCH NO_AFFINITY Zen SINGLE_THREADED
        Core in use  :  Zen
   Copyright (c) 2011-2014, The OpenBLAS Project




***************************************
The coordinates will be read from file: xtb_opt.xyz
***************************************


Your calculation utilizes the geometrical counterpoise correction gCP
Please cite in your paper:
H.Kruse, S. Grimme J.Chem.Phys., 136, (2012), 154101 
   

Your calculation utilizes the atom-pairwise dispersion correction
based on EEQ partial charges (D4)


Your calculation utilizes the SMD solvation module
Please cite in your paper:
A.V. Marenich, C.J. Cramer, D.G. Truhlar J. Phys. Chem. B, 113, (2009), 6378 

================================================================================

----- Orbital basis set information -----
Your calculation utilizes the basis: def2-mTZVPP
   Stefan Grimme, Andreas Hansen, Sebastian Ehlert, and Jan-Michael Mewes 
   J. Chem. Phys. 154, 064103 (2021). DOI: 10.1063/5.0040021

----- AuxJ basis set information -----
Your calculation utilizes the auxiliary basis: def2/J
   F. Weigend, Phys. Chem. Chem. Phys. 8, 1057 (2006).

================================================================================
                                        WARNINGS
                       Please study these warnings very carefully!
================================================================================

WARNING: Old DensityContainer found on disk!
         Will remove this file - 
         If you want to keep old densities, please start your calculation with a different basename. 



WARNING: SCAN, rSCAN, or r2SCAN functional requested.
  ===> : libXC variant has now been activated.



================================================================================
                                       INPUT FILE
================================================================================
NAME = xtb_opt.inp
|  1> ! r2scan-3c def2/J RI DEFGRID2 scfconv7 ENGRAD tightSCF miniprint
|  2> %cpcm
|  3>     smd true
|  4>     smdsolvent "water"
|  5> end
|  6> * xyzfile 0 1 xtb_opt.xyz
|  7> 
|  8>                          ****END OF INPUT****
================================================================================

                     *******************************
                     * Energy+Gradient Calculation *
                     *******************************

---------------------------------
CARTESIAN COORDINATES (ANGSTROEM)
---------------------------------
  C      2.952392   -1.110917    0.084569
  C      2.476068    0.253044   -0.404701
  C      1.315892    0.845087    0.424414
  C      0.071853    0.043669    0.325141
  C     -1.105577    0.497917   -0.143479
  C     -2.250862   -0.382000   -0.200000
  O     -3.361647   -0.052067   -0.620549
  H      3.236489   -1.068819    1.141972
  H      2.180307   -1.878525   -0.026138
  H      3.827235   -1.440588   -0.484708
  H      2.167556    0.190284   -1.454876
  H      3.305764    0.967065   -0.360266
  H      1.120232    1.875565    0.111690
  H      1.631608    0.866562    1.477860
  H      0.122458   -0.995395    0.653151
  H     -1.229322    1.522942   -0.487406
  H     -2.074446   -1.420246    0.147071

----------------------------
CARTESIAN COORDINATES (A.U.)
----------------------------
  NO LB      ZA    FRAG     MASS         X           Y           Z
   0 C     6.0000    0    12.011    5.579213   -2.099329    0.159811
   1 C     6.0000    0    12.011    4.679090    0.478183   -0.764774
   2 C     6.0000    0    12.011    2.486675    1.596983    0.802026
   3 C     6.0000    0    12.011    0.135783    0.082523    0.614428
   4 C     6.0000    0    12.011   -2.089239    0.940926   -0.271135
   5 C     6.0000    0    12.011   -4.253512   -0.721875   -0.377945
   6 O     8.0000    0    15.999   -6.352593   -0.098392   -1.172668
   7 H     1.0000    0     1.008    6.116079   -2.019775    2.158013
   8 H     1.0000    0     1.008    4.120184   -3.549897   -0.049394
   9 H     1.0000    0     1.008    7.232427   -2.722317   -0.915966
  10 H     1.0000    0     1.008    4.096088    0.359585   -2.749318
  11 H     1.0000    0     1.008    6.246988    1.827487   -0.680803
  12 H     1.0000    0     1.008    2.116933    3.544303    0.211064
  13 H     1.0000    0     1.008    3.083292    1.637564    2.792751
  14 H     1.0000    0     1.008    0.231412   -1.881024    1.234276
  15 H     1.0000    0     1.008   -2.323083    2.877944   -0.921065
  16 H     1.0000    0     1.008   -3.920135   -2.683875    0.277925

------------------------------------------------------------------------------
                   ___                                                        
                  /   \      - P O W E R E D   B Y -                         
                 /     \                                                     
                 |  |  |   _    _      __       _____    __    __             
                 |  |  |  | |  | |    /  \     |  _  \  |  |  /  |          
                  \  \/   | |  | |   /    \    | | | |  |  | /  /          
                 / \  \   | |__| |  /  /\  \   | |_| |  |  |/  /          
                |  |  |   |  __  | /  /__\  \  |    /   |      \           
                |  |  |   | |  | | |   __   |  |    \   |  |\   \          
                \     /   | |  | | |  |  |  |  | |\  \  |  | \   \       
                 \___/    |_|  |_| |__|  |__|  |_| \__\ |__|  \__/        
                                                                              
                      - O R C A' S   B I G   F R I E N D -                    
                                      &                                       
                       - I N T E G R A L  F E E D E R -                       
                                                                              
 v1 FN, 2020, v2 2021, v3 2022-2024                                           
------------------------------------------------------------------------------


----------------------
SHARK INTEGRAL PACKAGE
----------------------

Number of atoms                             ...     17
Number of basis functions                   ...    188
Number of shells                            ...     94
Maximum angular momentum                    ...      2
Integral batch strategy                     ... SHARK/LIBINT Hybrid
RI-J (if used) integral strategy            ... SPLIT-RIJ (Revised 2003 algorithm where possible)
Printlevel                                  ...      1
Contraction scheme used                     ... SEGMENTED contraction
Prescreening option                         ... SCHWARTZ
   Thresh                                   ... 3.000e-11
   Tcut                                     ... 1.000e-12
   Tpresel                                  ... 1.000e-12 
Coulomb Range Separation                    ... NOT USED
Exchange Range Separation                   ... NOT USED
Multipole approximations                    ... NOT USED
Finite Nucleus Model                        ... NOT USED
CABS basis                                  ... NOT available
Auxiliary Coulomb fitting basis             ... AVAILABLE
   # of basis functions in Aux-J            ...    453
   # of shells in Aux-J                     ...    155
   Maximum angular momentum in Aux-J        ...      4
Auxiliary J/K fitting basis                 ... NOT available
Auxiliary Correlation fitting basis         ... NOT available
Auxiliary 'external' fitting basis          ... NOT available

Checking pre-screening integrals            ... done (  0.0 sec) Dimension = 94
Check shell pair data                       ... done (  0.0 sec)
Shell pair information
Shell pair cut-off parameter TPreSel        ...   1.0e-12
Total number of shell pairs                 ...      4465
Shell pairs after pre-screening             ...      3951
Total number of primitive shell pairs       ...     15937
Primitive shell pairs kept                  ...     10242
          la=0 lb=0:   1344 shell pairs
          la=1 lb=0:   1524 shell pairs
          la=1 lb=1:    451 shell pairs
          la=2 lb=0:    382 shell pairs
          la=2 lb=1:    218 shell pairs
          la=2 lb=2:     32 shell pairs

Calculating one electron integrals          ... done (  0.0 sec)
Calculating RI/J V-Matrix + Cholesky decomp.... done (  0.0 sec)
Calculating Nuclear repulsion               ... done (  0.0 sec) ENN=    275.559338487764 Eh

Diagonalization of the overlap matrix:
Smallest eigenvalue                        ... 1.444e-04
Time for diagonalization                   ...    0.003 sec
Threshold for overlap eigenvalues          ... 1.000e-07
Number of eigenvalues below threshold      ... 0
Time for construction of square roots      ...    0.004 sec
Total time needed                          ...    0.009 sec

-------------------
DFT GRID GENERATION
-------------------

General Integration Accuracy     IntAcc      ... 4.388
Radial Grid Type                 RadialGrid  ... OptM3 with GC (2021)
Angular Grid (max. ang.)         AngularGrid ... 4 (Lebedev-302)
Angular grid pruning method      GridPruning ... 4 (adaptive)
Weight generation scheme         WeightScheme... mBecke (2022)
Basis function cutoff            BFCut       ... 1.0000e-11
Integration weight cutoff        WCut        ... 1.0000e-14
Partially contracted basis set               ... off
Rotationally invariant grid construction     ... off
Angular grids for H and He will be reduced by one unit
Diffuse basis detected: some atoms will have their outermost
                        angular grid increased by 1.

Total number of grid points                  ...    74713
Total number of batches                      ...     1176
Average number of points per batch           ...       63
Average number of grid points per atom       ...     4395
Initializing property integral containers    ... done (  0.0 sec)

SHARK setup successfully completed in   0.7 seconds

Maximum memory used throughout the entire STARTUP-calculation: 33.8 MB
Occupation numbers will be reassigned to an Aufbau configuration
             **** ENERGY FILE WAS UPDATED (xtb_opt.en.tmp) ****
Finished Guess after   0.1 sec
Maximum memory used throughout the entire GUESS-calculation: 13.1 MB
--------------------
CPCM SOLVATION MODEL
--------------------
CPCM parameters:
  Epsilon                                         ...      78.3550
  Refrac                                          ...       1.3328
  Rsolv                                           ...       1.3000
  Surface type                                    ... GAUSSIAN VDW
  Discretization scheme                           ... Constant charge density
    Threshold for H atoms                         ...       5.0000 (charges/Ang^2)
    Threshold for non-H atoms                     ...       5.0000 (charges/Ang^2)
  Epsilon function type                           ...         CPCM
Solvent:                                          ... WATER
SMD-CDS solvent descriptors:
  Soln                                            ...       1.3328
  Soln25                                          ...       1.3323
  Sola                                            ...       0.0000
  Solb                                            ...       0.0000
  Solg                                            ...       0.0000
  Solc                                            ...       0.0000
  Solh                                            ...       0.0000
Radii:
  Scheme                                          ... Element-dependent radii
  Radius for C  used is    3.4960 Bohr (=   1.8500 Ang.)
  Radius for O  used is    2.8724 Bohr (=   1.5200 Ang.)
  Radius for H  used is    2.2677 Bohr (=   1.2000 Ang.)
Calculating surface                               ...        done! (  0.0s)
Cavity surface points                             ...         1312
Cavity Volume                                     ...     795.0401
Cavity Surface-area                               ...     531.9019
Calculating surface distance matrix               ...        done! (  0.0s)
Performing Cholesky decomposition & store         ...        done! (  0.0s)
Overall time for CPCM initialization              ...                 0.1s

----------------------------------------D-I-I-S--------------------------------------------
Iteration    Energy (Eh)           Delta-E    RMSDP     MaxDP     DIISErr   Damp  Time(sec)
-------------------------------------------------------------------------------------------
               ***  Starting incremental Fock matrix formation  ***
    1    -309.7895597390375428     0.00e+00  2.95e-05  5.80e-04  3.51e-03  0.700   1.7
                              *** Initializing SOSCF ***
---------------------------------------S-O-S-C-F--------------------------------------
Iteration    Energy (Eh)           Delta-E    RMSDP     MaxDP     MaxGrad    Time(sec)
--------------------------------------------------------------------------------------
    2    -309.7895757745253036    -1.60e-05  9.47e-05  1.92e-03  2.68e-03     1.3
               *** Restarting incremental Fock matrix formation ***
    3    -309.7896162157564390    -4.04e-05  2.00e-05  5.48e-04  1.02e-04     1.7
    4    -309.7896165955413039    -3.80e-07  1.73e-05  1.08e-03  1.09e-04     1.3
    5    -309.7896165652657032     3.03e-08  1.12e-05  6.64e-04  9.27e-05     1.3
                 **** Energy Check signals convergence ****

               *****************************************************
               *                     SUCCESS                       *
               *           SCF CONVERGED AFTER   5 CYCLES          *
               *****************************************************


SMD CDS free energy correction energy :                 4.68086     Kcal/mol
Total Energy after SMD CDS correction =              -309.782157133 Eh
             **** ENERGY FILE WAS UPDATED (xtb_opt.en.tmp) ****

----------------
TOTAL SCF ENERGY
----------------

Total Energy       :       -309.78215713311641 Eh           -8429.60105 eV

Components:
Nuclear Repulsion  :        275.55933848776425 Eh            7498.35081 eV
Electronic Energy  :       -585.32837846138182 Eh          -15927.59492 eV
One Electron Energy:       -963.63925589231428 Eh          -26221.95725 eV
Two Electron Energy:        378.31087743093241 Eh           10294.36233 eV
CPCM Dielectric    :         -0.02057659164810 Eh              -0.55992 eV
SMD CDS (Gcds)     :          0.00745943214931 Eh               0.20298 eV

Virial components:
Potential Energy   :       -618.10977363370739 Eh          -16819.62203 eV
Kinetic Energy     :        308.32761650059092 Eh            8390.02099 eV
Virial Ratio       :          2.00471751654631

DFT components:
N(Alpha)           :       27.000004751550 electrons
N(Beta)            :       27.000004751550 electrons
N(Total)           :       54.000009503100 electrons
E(X)               :      -43.010103669333 Eh       
E(C)               :       -1.698154906959 Eh       
E(XC)              :      -44.708258576293 Eh       

CPCM Solvation Model Properties:
Surface-charge          :         -0.04771524884576
Corrected charge        :          0.00000000000000
Outlying charge corr.   :          0.00017841893258 Eh               0.00486 eV
Free-energy (cav+disp)  :          0.00745943214931 Eh               0.20298 eV

---------------
SCF CONVERGENCE
---------------

  Last Energy change         ...   -3.0276e-08  Tolerance :   1.0000e-07
  Last MAX-Density change    ...    6.6426e-04  Tolerance :   1.0000e-07
  Last RMS-Density change    ...    1.1156e-05  Tolerance :   5.0000e-09
  Last DIIS Error            ...    2.6773e-03  Tolerance :   1.0000e-07
  Last Orbital Gradient      ...    9.2726e-05  Tolerance :   1.0000e-04
  Last Orbital Rotation      ...    1.5871e-04  Tolerance :   1.0000e-04


----------------
ORBITAL ENERGIES
----------------

  NO   OCC          E(Eh)            E(eV) 
   0   2.0000     -18.949550      -515.6435 
   1   2.0000     -10.118362      -275.3346 
   2   2.0000     -10.062792      -273.8225 
   3   2.0000     -10.038649      -273.1655 
   4   2.0000     -10.034529      -273.0534 
   5   2.0000     -10.029504      -272.9167 
   6   2.0000     -10.013608      -272.4841 
   7   2.0000      -1.004997       -27.3474 
   8   2.0000      -0.790062       -21.4987 
   9   2.0000      -0.737044       -20.0560 
  10   2.0000      -0.665516       -18.1096 
  11   2.0000      -0.590924       -16.0799 
  12   2.0000      -0.541632       -14.7386 
  13   2.0000      -0.528267       -14.3749 
  14   2.0000      -0.453934       -12.3522 
  15   2.0000      -0.436306       -11.8725 
  16   2.0000      -0.408931       -11.1276 
  17   2.0000      -0.396346       -10.7851 
  18   2.0000      -0.380367       -10.3503 
  19   2.0000      -0.371426       -10.1070 
  20   2.0000      -0.355678        -9.6785 
  21   2.0000      -0.349319        -9.5054 
  22   2.0000      -0.312373        -8.5001 
  23   2.0000      -0.304190        -8.2774 
  24   2.0000      -0.295541        -8.0421 
  25   2.0000      -0.253688        -6.9032 
  26   2.0000      -0.231342        -6.2951 
  27   0.0000      -0.091539        -2.4909 
  28   0.0000       0.021105         0.5743 
  29   0.0000       0.101526         2.7627 
  30   0.0000       0.112087         3.0500 
  31   0.0000       0.117207         3.1894 
  32   0.0000       0.127051         3.4572 
  33   0.0000       0.137736         3.7480 
  34   0.0000       0.145159         3.9500 
  35   0.0000       0.151344         4.1183 
  36   0.0000       0.158094         4.3019 
  37   0.0000       0.162796         4.4299 
*Only the first 10 virtual orbitals were printed.
Total SCF time: 0 days 0 hours 0 min 9 sec 
Finished LeanSCF after  18.6 sec

Maximum memory used throughout the entire LEANSCF-calculation: 24.5 MB


-------------------------------------------------------------------------------
                          DFT DISPERSION CORRECTION                            
                                                                               
                                DFTD4 V3.4.0                                   
-------------------------------------------------------------------------------
-------------------------   ----------------
Dispersion correction           -0.004186144
-------------------------   ----------------

------------------   -----------------
gCP correction             0.006784977
------------------   -----------------

-------------------------   --------------------
FINAL SINGLE POINT ENERGY      -309.779558299748
-------------------------   --------------------

------------------------------------------------------------------------------
                         ORCA SCF GRADIENT CALCULATION
------------------------------------------------------------------------------

Nuc. rep. gradient        (SHARK) ... done (  0.0 sec)
HCore & Overlap gradient  (SHARK) ... done (  0.2 sec)
Split-RIJ-J gradient      (SHARK) ... done (  0.9 sec)
XC gradient                       ... done (  3.8 sec)
CPCM gradient                     ... done (  1.1 sec)
SMD gradient                      ... done (  0.0 sec)
Dispersion correction             ... done (  0.0 sec)

-------------------
DISPERSION GRADIENT
-------------------

   1   C   :    0.000066150   -0.000042510    0.000001659
   2   C   :    0.000062576    0.000009950   -0.000015522
   3   C   :    0.000032549    0.000041395    0.000018863
   4   C   :   -0.000024546    0.000008599    0.000018313
   5   C   :   -0.000078413    0.000020925   -0.000003249
   6   C   :   -0.000080824   -0.000018228   -0.000006244
   7   O   :   -0.000062397   -0.000005898   -0.000014710
   8   H   :    0.000028609   -0.000016493    0.000006874
   9   H   :    0.000031420   -0.000027091   -0.000002067
  10   H   :    0.000026201   -0.000017749   -0.000006062
  11   H   :    0.000028332    0.000002247   -0.000017424
  12   H   :    0.000025807    0.000008515   -0.000006087
  13   H   :    0.000007437    0.000028428    0.000002932
  14   H   :    0.000012759    0.000015613    0.000018336
  15   H   :   -0.000012445   -0.000009870    0.000011795
  16   H   :   -0.000028538    0.000016385   -0.000006057
  17   H   :   -0.000034675   -0.000014217   -0.000001350

Difference to translation invariance:
           :    0.0000000000    0.0000000000    0.0000000000

Difference to rotation invariance:
           :   -0.0000000000   -0.0000000000    0.0000000000

Norm of the Dispersion gradient    ...    0.0002062715
RMS gradient                       ...    0.0000288838
MAX gradient                       ...    0.0000808242
gCP correction                   ... done

------------------
CARTESIAN GRADIENT
------------------

   1   C   :    0.000083646   -0.000021506   -0.000055184
   2   C   :   -0.000177796   -0.000139451   -0.000000413
   3   C   :   -0.000149319    0.000229923    0.000449896
   4   C   :    0.000059815   -0.000119821   -0.000437636
   5   C   :    0.000398600   -0.000203162   -0.000511585
   6   C   :   -0.000895934    0.000627119    0.002409263
   7   O   :    0.000270178   -0.000174349   -0.000805797
   8   H   :   -0.000021598    0.000058832   -0.000019328
   9   H   :    0.000028931    0.000045863   -0.000003153
  10   H   :    0.000067731   -0.000030525    0.000002384
  11   H   :    0.000017069   -0.000058045    0.000011619
  12   H   :   -0.000049763   -0.000027755    0.000003686
  13   H   :   -0.000036805   -0.000000656    0.000005869
  14   H   :    0.000110505    0.000054457   -0.000006725
  15   H   :    0.000036736    0.000064129   -0.000094431
  16   H   :   -0.000003097   -0.000064458   -0.000097074
  17   H   :    0.000261100   -0.000240594   -0.000851392

Difference to translation invariance:
           :   -0.0000000000   -0.0000000000   -0.0000000000

Difference to rotation invariance:
           :    0.0001132203    0.0000995447    0.0003941431

Norm of the Cartesian gradient     ...    0.0031111141
RMS gradient                       ...    0.0004356431
MAX gradient                       ...    0.0024092631

-------
TIMINGS
-------

Total SCF gradient time     ....        6.011 sec

Densities                   ....       0.000 sec  (  0.0%)
One electron gradient       ....       0.167 sec  (  2.8%)
RI-J Coulomb gradient       ....       0.930 sec  ( 15.5%)
XC gradient                 ....       3.809 sec  ( 63.4%)
CPCM gradient               ....       1.063 sec  ( 17.7%)
   A-Matrix (El+Nuc)        ....       0.066 sec  (  1.1%)
   Potential                ....       0.996 sec  ( 16.6%)
SMD gradient                ....       0.003 sec  (  0.0%)

Maximum memory used throughout the entire SCFGRAD-calculation: 33.2 MB

------------------------------------------------------------------------------
                              ORCA PROPERTY CALCULATIONS
------------------------------------------------------------------------------

GBWName                                 ... xtb_opt.gbw
Number of atoms                         ...     17
Number of basis functions               ...    188
Max core memory                         ...   1024 MB

Electric properties:
Dipole moment                           ... YES
Quadrupole moment                       ...  NO
Static polarizability (Dipole/Dipole)   ...  NO
Static polarizability (Dipole/Quad.)    ...  NO
Static polarizability (Quad./Quad.)     ...  NO
Static polarizability (Velocity)        ...  NO

Atomic electric properties:
Dipole moment                           ...  NO
Quadrupole moment                       ...  NO
Static polarizability                   ...  NO

Choice of electric origin               ... Center of mass
Position of electric origin             ...     0.041868    -0.008896    -0.157343

General magnetic properties:
Magnetizability                         ...  NO

EPR properties:
g-Tensor (aka g-matrix)                 ...  NO
Zero-Field splitting spin-orbit         ...  NO
Zero-field splitting spin-spin          ...  NO
Hyperfine couplings                     ...  NO (   0 nuclei)
Quadrupole couplings                    ...  NO (   0 nuclei)
Contact density                         ...  NO (   0 nuclei)

NMR properties:
Chemical shifts                         ...  NO (   0 nuclei)
Spin-rotation constants                 ...  NO (   0 nuclei)
Spin-spin couplings                     ...  NO (   0 nuclei,    0 pairs)

Choice of magnetic origin               ... GIAO
Position of magnetic origin             ...     0.000000     0.000000     0.000000

Properties with geometric perturbations:
SCF Hessian                             ...  NO
IR spectrum                             ...  NO
VCD spectrum                            ...  NO
X-ray spectroscopy properties:
SCF XES/XAS/RIXS spectra                ...  NO


-------------
DIPOLE MOMENT
-------------

Method             : SCF
Type of density    : Electron Density
Multiplicity       :   1
Irrep              :   0
Energy             :  -309.7821571331164137 Eh
Relativity type    : 
Basis              : AO
                                X                 Y                 Z
Electronic contribution:    -10.640989064       1.112722591      -0.767060988
Nuclear contribution   :     13.146653209      -1.252304103       1.447142100
                        -----------------------------------------
Total Dipole Moment    :      2.505664145      -0.139581512       0.680081112
                        -----------------------------------------
Magnitude (a.u.)       :      2.600066562
Magnitude (Debye)      :      6.608843986



--------------------
Rotational spectrum 
--------------------
 
Rotational constants in cm-1:             0.275743             0.031810             0.030053 
Rotational constants in MHz :          8266.562285           953.654214           900.965501 

Dipole components along the rotational axes: 
x,y,z [a.u.] :     2.554711     0.004598     0.483504 
x,y,z [Debye]:     6.493559     0.011686     1.228971 

 

Dipole moment calculation done in   2.5 sec 

Maximum memory used throughout the entire PROP-calculation: 11.6 MB

--------------------------------
SUGGESTED CITATIONS FOR THIS RUN
--------------------------------

Below you find a list of papers that are relevant to this ORCA run
We neither can nor want to force you to cite these papers, but we appreciate if you do
You receive ORCA, which is the product of decades of hard work by many enthusiastic individuals, for free
The only thing we kindly ask in return is that you cite our papers,
We deeply appreciate it, if you show your appreciation for ORCA by not just citing the generic ORCA reference.

Please note that relegating all ORCA citations to the supporting information does *not* help us.
SI sections are not indexed - citations you put there will not count into any citation statistics
But we need these citations in order to attract the funding resources that allow us to do what we are doing

Therefore, if you are a happy ORCA user, please consider citing a few of the papers listed below in the main body of your paper

In addition to the list printed below, the program has created the file xtb_opt.bibtex that contains the list in bibtex format
You can import this file easily into all common literature databanks and citation aid programs


List of essential papers. We consider these as the minimum necessary citations

  1. Neese,F.
     Software update: the ORCA program system, version 5.0
     WIRES Comput. Molec. Sci., 2022 12(1)e1606
     doi.org/10.1002/wcms.1606
  2. Grimme,S.; Hansen,A.; Ehlert,S.; Mewes,J.
     r2SCAN-3c: A 'Swiss army knife' composite electronic-structure method
     J. Chem. Phys., 2021 154 064103
     doi.org/10.1063/5.0040021

List of papers to cite with high priority. The work reported in these papers was absolutely
necessary for this run to complete.
Our perspective: the developers of density functionals and basis sets usually get cited in chemistry papers
Good! But without the algorithms to do something with them, the functionals or basis sets would not do anything.
Hence, in our opinion, the algorithm design and method developments papers are equally worthy of getting cited

  1. Neese,F.
     An improvement of the resolution of the identity approximation for the formation of the Coulomb matrix
     J. Comp. Chem., 2003 24(14)1740-1747
     doi.org/10.1002/jcc.10318
  2. Garcia-Rates,M.; Neese,F.
     Effect of the Solute Cavity on the Solvation Energy and its Derivatives within the Framework of the Gaussian Charge Scheme
     J. Comput. Chem., 2020 41 922-939
     doi.org/10.1002/jcc.26139
  3. Neese,F.
     The SHARK Integral Generation and Digestion System
     J. Comp. Chem., 2022  1-16
     doi.org/10.1002/jcc.26942
  4. Lehtola,S.; Steigemann,C.; Oliveira,M.; Marques,M.
     Recent developments in Libxc - A comprehensive library of functionals for density functional theory
     Software X, 2018 7 
     doi.org/10.1016/j.softx.2017.11.002
  5. Caldeweyher,E.; Bannwarth,C.; Grimme,S.
     Extension of the D3 dispersion coefficient model
     J. Chem. Phys., 2017 147 034112
     doi.org/10.1063/1.4993215
  6. Caldeweyher,E.; Ehlert,S.; Hansen,A.; Neugebauer,H.; Spicher,S.; Bannwarth,C.; Grimme,S.
     A generally applicable atomic-charge dependent London dispersion correction
     J. Chem. Phys., 2019 150 154122
     doi.org/10.1063/1.5090222
  7. Caldeweyher,E.; Mewes,J.; Ehlert,S.; Grimme,S.
     Extension and evaluation of the D4 London-dispersion model for periodic systems
     Phys. Chem. Chem. Phys., 2020 22(16)8499-8512
     doi.org/10.1039/D0CP00502A
  8. Wittmann,L.; Gordiy,I.; Friede,M.; Helmich-Paris,B.; Grimme,S.; Hansen,A.; Bursch,M.
     Extension of the D3 and D4 London Dispersion Corrections to the full Actinides Series
     Phys. Chem. Chem. Phys., 2024 26(32)21379-21394
     doi.org/https://doi.org/10.1039/D4CP01514B 

List of suggested additional citations. These are papers that are important in the 'surrounding' of 
of this run, or papers that preceded the highly important papers. If you like your results we are grateful for a citation.

  1. Neese,F.
     The ORCA program system
     WIRES Comput. Molec. Sci., 2012 2(1)73-78
     doi.org/10.1002/wcms.81
  2. Neese,F.
     Software update: the ORCA program system, version 4.0
     WIRES Comput. Molec. Sci., 2018 8(1)1-6
     doi.org/10.1002/wcms.1327
  3. Neese,F.; Wennmohs,F.; Becker,U.; Riplinger,C.
     The ORCA quantum chemistry program package
     J. Chem. Phys., 2020 152 Art. No. L224108
     doi.org/10.1063/5.0004608

List of optional additional citations

  1. Neese,F.
     Approximate second-order SCF convergence for spin unrestricted wavefunctions
     Chem. Phys. Lett., 2000 325(1-3)93-98
     doi.org/10.1016/s0009-2614(00)00662-x

Timings for individual modules:

Sum of individual times          ...       30.428 sec (=   0.507 min)
Startup calculation              ...        0.699 sec (=   0.012 min)   2.3 %
SCF iterations                   ...       18.673 sec (=   0.311 min)  61.4 %
Property calculations            ...        2.597 sec (=   0.043 min)   8.5 %
SCF Gradient evaluation          ...        8.459 sec (=   0.141 min)  27.8 %
                             ****ORCA TERMINATED NORMALLY****
TOTAL RUN TIME: 0 days 0 hours 0 minutes 42 seconds 202 msec
  ------------------------------------------------------------------------
          * successful ORCA run, taking over control again...
av. E:   -309.7795583 ->   -309.7795583
av. G:      0.0015400 ->      0.0015400
 * total energy  :  -309.7795583 Eh     change        0.1365740E-04 Eh
   gradient norm :     0.0031110 Eh/a0  converged?    E=F G=F D=F
   step length   :     0.0250741 a0

........................................................................
.............................. CYCLE    2 ..............................
........................................................................
                         * ORCA takes the control...
  ------------------------------------------------------------------------

                                 *****************
                                 * O   R   C   A *
                                 *****************

                                            #,                                       
                                            ###                                      
                                            ####                                     
                                            #####                                    
                                            ######                                   
                                           ########,                                 
                                     ,,################,,,,,                         
                               ,,#################################,,                 
                          ,,##########################################,,             
                       ,#########################################, ''#####,          
                    ,#############################################,,   '####,        
                  ,##################################################,,,,####,       
                ,###########''''           ''''###############################       
              ,#####''   ,,,,##########,,,,          '''####'''          '####       
            ,##' ,,,,###########################,,,                        '##       
           ' ,,###''''                  '''############,,,                           
         ,,##''                                '''############,,,,        ,,,,,,###''
      ,#''                                            '''#######################'''  
     '                                                          ''''####''''         
             ,#######,   #######,   ,#######,      ##                                
            ,#'     '#,  ##    ##  ,#'     '#,    #''#        ,####,   ,####,        
            ##       ##  ##   ,#'  ##            #'  '#       #'       #'  '#        
            ##       ##  #######   ##           ,######,      #####,   #    #        
            '#,     ,#'  ##    ##  '#,     ,#' ,#      #,     #,   #   #,  ,#        
             '#######'   ##     ##  '#######'  #'      '#     '####' # '####'        



                #########################################################
                #                        -***-                          #
                #          Department of theory and spectroscopy        #
                #                                                       #
                #                      Frank Neese                      #
                #                                                       #
                #     Directorship, Architecture, Infrastructure        #
                #                    SHARK, DRIVERS                     #
                #        Core code/Algorithms in most modules           #
                #                                                       #
                #        Max Planck Institute fuer Kohlenforschung      #
                #                Kaiser Wilhelm Platz 1                 #
                #                 D-45470 Muelheim/Ruhr                 #
                #                      Germany                          #
                #                                                       #
                #                  All rights reserved                  #
                #                        -***-                          #
                #########################################################


                         Program Version 6.0.1  -  RELEASE   -


 With contributions from (in alphabetic order):
[Max-Planck-Institut fuer Kohlenforschung]                               
  Daniel Aravena         : Magnetic Suceptibility                        
  Michael Atanasov       : Ab Initio Ligand Field Theory (pilot matlab implementation)
  Alexander A. Auer      : GIAO ZORA, VPT2 properties, NMR spectrum      
  Ute Becker             : All parallelization in ORCA, NUMFREQ, NUMCALC 
  Giovanni Bistoni       : ED, misc. LED, open-shell LED, HFLD           
  Martin Brehm           : Molecular dynamics                            
  Dmytro Bykov           : pre 5.0 version of the SCF Hessian            
  Marcos Casanova-Páez   : Triplet and SCS-CIS(D). UHF-(DLPNO)-IP/EA/STEOM-CCSD. UHF-CVS-IP/STEOM-CCSD   
  Vijay G. Chilkuri      : MRCI spin determinant printing, contributions to CSF-ICE 
  Pauline Colinet        : FMM embedding                                 
  Dipayan Datta          : RHF DLPNO-CCSD density                        
  Achintya Kumar Dutta   : EOM-CC, STEOM-CC                              
  Nicolas Foglia         : Exact transition moments, OPA infrastructure, MCD improvements    
  Dmitry Ganyushin       : Spin-Orbit,Spin-Spin,Magnetic field MRCI      
  Miquel Garcia-Rates    : C-PCM and meta-GGA Hessian, CCSD/C-PCM, Gaussian charge scheme 
  Tiago L. C. Gouveia    : GS-ROHF, GS-ROCIS                             
  Yang Guo               : DLPNO-NEVPT2, F12-NEVPT2, CIM, IAO-localization        
  Andreas Hansen         : Spin unrestricted coupled pair/coupled cluster methods 
  Ingolf Harden          : AUTO-CI MPn and infrastructure                
  Benjamin Helmich-Paris : MC-RPA, TRAH-(SCF,CASSCF), AVAS, COSX integrals, SCF dyn. polar. 
  Lee Huntington         : MR-EOM, pCC                                   
  Robert Izsak           : Overlap fitted RIJCOSX, COSX-SCS-MP3, EOM     
  Riya Kayal             : Wick's Theorem for AUTO-CI, AUTO-CI UHF-CCSDT 
  Emily Kempfer          : AUTO-CI, RHF CISDT and CCSDT                  
  Christian Kollmar      : KDIIS, OOCD, Brueckner-CCSD(T), CCSD density, CASPT2, CASPT2-K, improved NEVPT2 
  Axel Koslowski         : Symmetry handling                             
  Simone Kossmann        : meta-GGA functionals, TD-DFT gradient, OOMP2, (MP2 Hessian; deprecated post 5.0) 
  Lucas Lang             : DCDCAS                                        
  Marvin Lechner         : AUTO-CI (C++ implementation), FIC-MRCC        
  Spencer Leger          : CASSCF response                               
  Dagmar Lenk            : GEPOL surface, SMD, ORCA-2-JSON               
  Dimitrios Liakos       : Extrapolation schemes; Compound Job, initial MDCI parallelization 
  Dimitrios Manganas     : Further ROCIS development; embedding schemes. LFT, Crystal Embedding 
  Dimitrios Pantazis     : SARC Basis sets                               
  Anastasios Papadopoulos: AUTO-CI, single reference methods and gradients 
  Taras Petrenko         : pre 6.0 DFT Hessian and TD-DFT gradient, (ASA, deprecated), ECA, 1-Electron XAS/XES, NRVS 
  Peter Pinski           : DLPNO-MP2, DLPNO-MP2 Gradient                 
  Christoph Reimann      : Effective Core Potentials                     
  Marius Retegan         : Local ZFS, SOC                                
  Christoph Riplinger    : Optimizer, TS searches, QM/MM, DLPNO-CCSD(T), (RO)-DLPNO pert. Triples 
  Michael Roemelt        : Original ROCIS implementation                 
  Masaaki Saitow         : Open-shell DLPNO-CCSD energy and density      
  Barbara Sandhoefer     : DKH picture change effects                    
  Kantharuban Sivalingam : CASSCF convergence/infrastructure, NEVPT2 and variants, FIC-MRCI 
  Bernardo de Souza      : ESD, SOC TD-DFT                               
  Georgi L. Stoychev     : AutoAux, RI-MP2 NMR, DLPNO-MP2 response, X2C  
  Van Anh Tran           : RI-MP2 g-tensors                              
  Willem Van den Heuvel  : Paramagnetic NMR                              
  Zikuan Wang            : NOTCH, Electric field optimization            
  Frank Wennmohs         : Technical directorship and infrastructure     
  Hang Xu                : AUTO-CI-Response properties                   
                                                                         
[FACCTs GmbH]                                                            
  Markus Bursch, Miquel Garcia-Rates, Christoph Riplinger, Bernardo de Souza, Georgi L. Stoychev 
                                                                 
  APM, Basis sets (HGBS, AHGBS, def-TZVP (Ac-Lr), def2-XVPD (La-Lu)), CI-OPT, improved COSX, DLPNO-Multilevel,           
  DOCKER, DRACO, updates on ESD, GOAT, IRC, LR-CPCM, MBIS, meta-GGA TD-DFT gradient, ML-optimized integration grids, 
  MM, NACMEs, nearIR, NEB, NEB-TS, NL-DFT gradient (VV10), 2- and 3-layer-ONIOM, interface openCOSMO-RS, QMMM,   
  Crystal-QMMM, SF, symmetry and pop. for TD-DFT, r2SCAN hybrids, SOLVATOR                                   
                                                                         
[Other institutions]                                                     
  V. Asgeirsson          : NEB                                           
  Christoph Bannwarth    : sTDA-DFT, sTD-DFT, PBEh-3c, B97-3c, D3        
  Sebastian Ehlert       : rSCAN, r2SCAN, r2SCAN-3c, D4, dhf basis sets  
  Marvin Friede          : D4 for Fr, Ra, Ac-Lr                          
  Lars Goerigk           : TD-DFT with DH, B97 family of functionals     
  Stefan Grimme          : VdW corrections, initial TS optimization, DFT functionals, gCP, sTDA/sTD-DF 
  Waldemar Hujo          : DFT-NL                                        
  H. Jonsson             : NEB                                           
  Holger Kruse           : gCP                                           
  Marcel Mueller         : wB97X-3c, vDZP basis set                      
  Hagen Neugebauer       : wr2SCAN                                       
  Tobias Risthaus        : range-separated hybrid DFT                    
  Lukas Wittmann         : regularized MP2, r2SCAN double-hybrids, wr2SCAN        
                                                                         
We gratefully acknowledge several colleagues who have allowed us to      
interface, adapt or use parts of their codes:                            
  Ed Valeev, F. Pavosevic, A. Kumar             : LibInt (2-el integral package), F12 methods 
  Garnet Chan, S. Sharma, J. Yang, R. Olivares  : DMRG                   
  Ulf Ekstrom                                   : XCFun DFT Library      
  Mihaly Kallay                                 : mrcc  (arbitrary order and MRCC methods)
  Frank Weinhold                                : gennbo (NPA and NBO analysis)           
  Simon Mueller                                 : openCOSMO-RS                            
  Christopher J. Cramer and Donald G. Truhlar   : smd solvation model                     
  S Lehtola, MJT Oliveira, MAL Marques          : LibXC Library                           
  Liviu Ungur et al                             : ANISO software                          


 Your calculation uses the libint2 library for the computation of 2-el integrals
 For citations please refer to: http://libint.valeyev.net

 Your ORCA version has been built with support for libXC version: 6.2.2
 For citations please refer to: https://libxc.gitlab.io

 This ORCA versions uses:
   CBLAS   interface :  Fast vector & matrix operations
   LAPACKE interface :  Fast linear algebra routines
   SCALAPACK package :  Parallel linear algebra routines
   Shared memory     :  Shared parallel matrices
   BLAS/LAPACK       :  OpenBLAS 0.3.27  USE64BITINT DYNAMIC_ARCH NO_AFFINITY Zen SINGLE_THREADED
        Core in use  :  Zen
   Copyright (c) 2011-2014, The OpenBLAS Project




***************************************
The coordinates will be read from file: xtb_opt.xyz
***************************************


Your calculation utilizes the geometrical counterpoise correction gCP
Please cite in your paper:
H.Kruse, S. Grimme J.Chem.Phys., 136, (2012), 154101 
   

Your calculation utilizes the atom-pairwise dispersion correction
based on EEQ partial charges (D4)


Your calculation utilizes the SMD solvation module
Please cite in your paper:
A.V. Marenich, C.J. Cramer, D.G. Truhlar J. Phys. Chem. B, 113, (2009), 6378 

================================================================================

----- Orbital basis set information -----
Your calculation utilizes the basis: def2-mTZVPP
   Stefan Grimme, Andreas Hansen, Sebastian Ehlert, and Jan-Michael Mewes 
   J. Chem. Phys. 154, 064103 (2021). DOI: 10.1063/5.0040021

----- AuxJ basis set information -----
Your calculation utilizes the auxiliary basis: def2/J
   F. Weigend, Phys. Chem. Chem. Phys. 8, 1057 (2006).

================================================================================
                                        WARNINGS
                       Please study these warnings very carefully!
================================================================================

WARNING: Old DensityContainer found on disk!
         Will remove this file - 
         If you want to keep old densities, please start your calculation with a different basename. 



WARNING: SCAN, rSCAN, or r2SCAN functional requested.
  ===> : libXC variant has now been activated.



================================================================================
                                       INPUT FILE
================================================================================
NAME = xtb_opt.inp
|  1> ! r2scan-3c def2/J RI DEFGRID2 scfconv7 ENGRAD tightSCF miniprint
|  2> %cpcm
|  3>     smd true
|  4>     smdsolvent "water"
|  5> end
|  6> * xyzfile 0 1 xtb_opt.xyz
|  7> 
|  8>                          ****END OF INPUT****
================================================================================

                     *******************************
                     * Energy+Gradient Calculation *
                     *******************************

---------------------------------
CARTESIAN COORDINATES (ANGSTROEM)
---------------------------------
  C      2.952161   -1.110853    0.084281
  C      2.476388    0.253336   -0.404372
  C      1.315965    0.845017    0.424431
  C      0.071886    0.043724    0.324755
  C     -1.105370    0.497855   -0.144187
  C     -2.249469   -0.383258   -0.203566
  O     -3.361839   -0.052924   -0.619691
  H      3.236253   -1.069354    1.141678
  H      2.179651   -1.877934   -0.026720
  H      3.826861   -1.440920   -0.485141
  H      2.168201    0.191051   -1.454655
  H      3.306203    0.967148   -0.359590
  H      1.120233    1.875599    0.112008
  H      1.630935    0.866284    1.478158
  H      0.122048   -0.995170    0.652703
  H     -1.229013    1.522922   -0.487654
  H     -2.075092   -1.418947    0.151308

----------------------------
CARTESIAN COORDINATES (A.U.)
----------------------------
  NO LB      ZA    FRAG     MASS         X           Y           Z
   0 C     6.0000    0    12.011    5.578775   -2.099207    0.159269
   1 C     6.0000    0    12.011    4.679694    0.478735   -0.764152
   2 C     6.0000    0    12.011    2.486813    1.596852    0.802058
   3 C     6.0000    0    12.011    0.135845    0.082626    0.613698
   4 C     6.0000    0    12.011   -2.088847    0.940810   -0.272474
   5 C     6.0000    0    12.011   -4.250881   -0.724252   -0.384685
   6 O     8.0000    0    15.999   -6.352955   -0.100011   -1.171047
   7 H     1.0000    0     1.008    6.115631   -2.020787    2.157458
   8 H     1.0000    0     1.008    4.118943   -3.548780   -0.050494
   9 H     1.0000    0     1.008    7.231719   -2.722944   -0.916783
  10 H     1.0000    0     1.008    4.097306    0.361035   -2.748899
  11 H     1.0000    0     1.008    6.247818    1.827645   -0.679527
  12 H     1.0000    0     1.008    2.116934    3.544369    0.211664
  13 H     1.0000    0     1.008    3.082021    1.637039    2.793314
  14 H     1.0000    0     1.008    0.230637   -1.880599    1.233430
  15 H     1.0000    0     1.008   -2.322497    2.877906   -0.921532
  16 H     1.0000    0     1.008   -3.921356   -2.681421    0.285930

------------------------------------------------------------------------------
                   ___                                                        
                  /   \      - P O W E R E D   B Y -                         
                 /     \                                                     
                 |  |  |   _    _      __       _____    __    __             
                 |  |  |  | |  | |    /  \     |  _  \  |  |  /  |          
                  \  \/   | |  | |   /    \    | | | |  |  | /  /          
                 / \  \   | |__| |  /  /\  \   | |_| |  |  |/  /          
                |  |  |   |  __  | /  /__\  \  |    /   |      \           
                |  |  |   | |  | | |   __   |  |    \   |  |\   \          
                \     /   | |  | | |  |  |  |  | |\  \  |  | \   \       
                 \___/    |_|  |_| |__|  |__|  |_| \__\ |__|  \__/        
                                                                              
                      - O R C A' S   B I G   F R I E N D -                    
                                      &                                       
                       - I N T E G R A L  F E E D E R -                       
                                                                              
 v1 FN, 2020, v2 2021, v3 2022-2024                                           
------------------------------------------------------------------------------


----------------------
SHARK INTEGRAL PACKAGE
----------------------

Number of atoms                             ...     17
Number of basis functions                   ...    188
Number of shells                            ...     94
Maximum angular momentum                    ...      2
Integral batch strategy                     ... SHARK/LIBINT Hybrid
RI-J (if used) integral strategy            ... SPLIT-RIJ (Revised 2003 algorithm where possible)
Printlevel                                  ...      1
Contraction scheme used                     ... SEGMENTED contraction
Prescreening option                         ... SCHWARTZ
   Thresh                                   ... 3.000e-11
   Tcut                                     ... 1.000e-12
   Tpresel                                  ... 1.000e-12 
Coulomb Range Separation                    ... NOT USED
Exchange Range Separation                   ... NOT USED
Multipole approximations                    ... NOT USED
Finite Nucleus Model                        ... NOT USED
CABS basis                                  ... NOT available
Auxiliary Coulomb fitting basis             ... AVAILABLE
   # of basis functions in Aux-J            ...    453
   # of shells in Aux-J                     ...    155
   Maximum angular momentum in Aux-J        ...      4
Auxiliary J/K fitting basis                 ... NOT available
Auxiliary Correlation fitting basis         ... NOT available
Auxiliary 'external' fitting basis          ... NOT available

Checking pre-screening integrals            ... done (  0.0 sec) Dimension = 94
Check shell pair data                       ... done (  0.0 sec)
Shell pair information
Shell pair cut-off parameter TPreSel        ...   1.0e-12
Total number of shell pairs                 ...      4465
Shell pairs after pre-screening             ...      3953
Total number of primitive shell pairs       ...     15937
Primitive shell pairs kept                  ...     10242
          la=0 lb=0:   1344 shell pairs
          la=1 lb=0:   1524 shell pairs
          la=1 lb=1:    451 shell pairs
          la=2 lb=0:    382 shell pairs
          la=2 lb=1:    220 shell pairs
          la=2 lb=2:     32 shell pairs

Calculating one electron integrals          ... done (  0.0 sec)
Calculating RI/J V-Matrix + Cholesky decomp.... done (  0.0 sec)
Calculating Nuclear repulsion               ... done (  0.0 sec) ENN=    275.571567786509 Eh

Diagonalization of the overlap matrix:
Smallest eigenvalue                        ... 1.444e-04
Time for diagonalization                   ...    0.003 sec
Threshold for overlap eigenvalues          ... 1.000e-07
Number of eigenvalues below threshold      ... 0
Time for construction of square roots      ...    0.004 sec
Total time needed                          ...    0.008 sec

-------------------
DFT GRID GENERATION
-------------------

General Integration Accuracy     IntAcc      ... 4.388
Radial Grid Type                 RadialGrid  ... OptM3 with GC (2021)
Angular Grid (max. ang.)         AngularGrid ... 4 (Lebedev-302)
Angular grid pruning method      GridPruning ... 4 (adaptive)
Weight generation scheme         WeightScheme... mBecke (2022)
Basis function cutoff            BFCut       ... 1.0000e-11
Integration weight cutoff        WCut        ... 1.0000e-14
Partially contracted basis set               ... off
Rotationally invariant grid construction     ... off
Angular grids for H and He will be reduced by one unit
Diffuse basis detected: some atoms will have their outermost
                        angular grid increased by 1.

Total number of grid points                  ...    74711
Total number of batches                      ...     1176
Average number of points per batch           ...       63
Average number of grid points per atom       ...     4395
Initializing property integral containers    ... done (  0.0 sec)

SHARK setup successfully completed in   0.7 seconds

Maximum memory used throughout the entire STARTUP-calculation: 33.8 MB
Occupation numbers will be reassigned to an Aufbau configuration
             **** ENERGY FILE WAS UPDATED (xtb_opt.en.tmp) ****
Finished Guess after   0.1 sec
Maximum memory used throughout the entire GUESS-calculation: 13.1 MB
--------------------
CPCM SOLVATION MODEL
--------------------
CPCM parameters:
  Epsilon                                         ...      78.3550
  Refrac                                          ...       1.3328
  Rsolv                                           ...       1.3000
  Surface type                                    ... GAUSSIAN VDW
  Discretization scheme                           ... Constant charge density
    Threshold for H atoms                         ...       5.0000 (charges/Ang^2)
    Threshold for non-H atoms                     ...       5.0000 (charges/Ang^2)
  Epsilon function type                           ...         CPCM
Solvent:                                          ... WATER
SMD-CDS solvent descriptors:
  Soln                                            ...       1.3328
  Soln25                                          ...       1.3323
  Sola                                            ...       0.0000
  Solb                                            ...       0.0000
  Solg                                            ...       0.0000
  Solc                                            ...       0.0000
  Solh                                            ...       0.0000
Radii:
  Scheme                                          ... Element-dependent radii
  Radius for C  used is    3.4960 Bohr (=   1.8500 Ang.)
  Radius for O  used is    2.8724 Bohr (=   1.5200 Ang.)
  Radius for H  used is    2.2677 Bohr (=   1.2000 Ang.)
Calculating surface                               ...        done! (  0.0s)
Cavity surface points                             ...         1313
Cavity Volume                                     ...     794.9951
Cavity Surface-area                               ...     531.8494
Calculating surface distance matrix               ...        done! (  0.0s)
Performing Cholesky decomposition & store         ...        done! (  0.0s)
Overall time for CPCM initialization              ...                 0.1s

----------------------------------------D-I-I-S--------------------------------------------
Iteration    Energy (Eh)           Delta-E    RMSDP     MaxDP     DIISErr   Damp  Time(sec)
-------------------------------------------------------------------------------------------
               ***  Starting incremental Fock matrix formation  ***
                              *** Initializing SOSCF ***
---------------------------------------S-O-S-C-F--------------------------------------
Iteration    Energy (Eh)           Delta-E    RMSDP     MaxDP     MaxGrad    Time(sec)
--------------------------------------------------------------------------------------
    1    -309.7896219122050070     0.00e+00  4.08e-05  8.31e-04  1.33e-04     1.7
               *** Restarting incremental Fock matrix formation ***
    2    -309.7896339143135265    -1.20e-05  2.00e-05  3.73e-04  1.33e-04     1.7
    3    -309.7896348351547431    -9.21e-07  1.33e-05  8.55e-04  5.17e-05     2.2
    4    -309.7896346990283973     1.36e-07  9.43e-06  6.00e-04  1.14e-04     1.8
    5    -309.7896348819206196    -1.83e-07  9.85e-07  4.35e-05  5.47e-06     1.2
                  *** Gradient check signals convergence ***

               *****************************************************
               *                     SUCCESS                       *
               *           SCF CONVERGED AFTER   5 CYCLES          *
               *****************************************************


SMD CDS free energy correction energy :                 4.68015     Kcal/mol
Total Energy after SMD CDS correction =              -309.782176587 Eh
             **** ENERGY FILE WAS UPDATED (xtb_opt.en.tmp) ****

----------------
TOTAL SCF ENERGY
----------------

Total Energy       :       -309.78217658711526 Eh           -8429.60158 eV

Components:
Nuclear Repulsion  :        275.57156778650892 Eh            7498.68359 eV
Electronic Energy  :       -585.34059343744980 Eh          -15927.92731 eV
One Electron Energy:       -963.66362071528215 Eh          -26222.62025 eV
Two Electron Energy:        378.32302727783230 Eh           10294.69294 eV
CPCM Dielectric    :         -0.02060923097971 Eh              -0.56081 eV
SMD CDS (Gcds)     :          0.00745829480538 Eh               0.20295 eV

Virial components:
Potential Energy   :       -618.11077716224850 Eh          -16819.64934 eV
Kinetic Energy     :        308.32860057513318 Eh            8390.04776 eV
Virial Ratio       :          2.00471437294260

DFT components:
N(Alpha)           :       27.000005401282 electrons
N(Beta)            :       27.000005401282 electrons
N(Total)           :       54.000010802563 electrons
E(X)               :      -43.010718894897 Eh       
E(C)               :       -1.698170031161 Eh       
E(XC)              :      -44.708888926059 Eh       

CPCM Solvation Model Properties:
Surface-charge          :         -0.04771085500543
Corrected charge        :          0.00000000000000
Outlying charge corr.   :          0.00017839044414 Eh               0.00485 eV
Free-energy (cav+disp)  :          0.00745829480538 Eh               0.20295 eV

---------------
SCF CONVERGENCE
---------------

  Last Energy change         ...    1.8289e-07  Tolerance :   1.0000e-07
  Last MAX-Density change    ...    4.3536e-05  Tolerance :   1.0000e-07
  Last RMS-Density change    ...    9.8461e-07  Tolerance :   5.0000e-09
  Last DIIS Error            ...    1.9414e-03  Tolerance :   1.0000e-07
  Last Orbital Gradient      ...    5.4677e-06  Tolerance :   1.0000e-04
  Last Orbital Rotation      ...    1.3970e-05  Tolerance :   1.0000e-04


----------------
ORBITAL ENERGIES
----------------

  NO   OCC          E(Eh)            E(eV) 
   0   2.0000     -18.948933      -515.6267 
   1   2.0000     -10.118408      -275.3359 
   2   2.0000     -10.062938      -273.8265 
   3   2.0000     -10.038697      -273.1668 
   4   2.0000     -10.034562      -273.0543 
   5   2.0000     -10.029515      -272.9170 
   6   2.0000     -10.013613      -272.4843 
   7   2.0000      -1.004763       -27.3410 
   8   2.0000      -0.790160       -21.5013 
   9   2.0000      -0.737123       -20.0581 
  10   2.0000      -0.665560       -18.1108 
  11   2.0000      -0.590951       -16.0806 
  12   2.0000      -0.541664       -14.7394 
  13   2.0000      -0.528321       -14.3763 
  14   2.0000      -0.453964       -12.3530 
  15   2.0000      -0.436270       -11.8715 
  16   2.0000      -0.408868       -11.1259 
  17   2.0000      -0.396355       -10.7854 
  18   2.0000      -0.380459       -10.3528 
  19   2.0000      -0.371232       -10.1017 
  20   2.0000      -0.355713        -9.6794 
  21   2.0000      -0.349374        -9.5070 
  22   2.0000      -0.312374        -8.5001 
  23   2.0000      -0.304209        -8.2779 
  24   2.0000      -0.295544        -8.0422 
  25   2.0000      -0.253714        -6.9039 
  26   2.0000      -0.231174        -6.2906 
  27   0.0000      -0.091510        -2.4901 
  28   0.0000       0.021122         0.5747 
  29   0.0000       0.101521         2.7625 
  30   0.0000       0.112069         3.0496 
  31   0.0000       0.117231         3.1900 
  32   0.0000       0.127055         3.4573 
  33   0.0000       0.137785         3.7493 
  34   0.0000       0.145145         3.9496 
  35   0.0000       0.151336         4.1181 
  36   0.0000       0.158110         4.3024 
  37   0.0000       0.162831         4.4309 
*Only the first 10 virtual orbitals were printed.
Total SCF time: 0 days 0 hours 0 min 11 sec 
Finished LeanSCF after  25.1 sec

Maximum memory used throughout the entire LEANSCF-calculation: 24.5 MB


-------------------------------------------------------------------------------
                          DFT DISPERSION CORRECTION                            
                                                                               
                                DFTD4 V3.4.0                                   
-------------------------------------------------------------------------------
-------------------------   ----------------
Dispersion correction           -0.004186364
-------------------------   ----------------

------------------   -----------------
gCP correction             0.006786337
------------------   -----------------

-------------------------   --------------------
FINAL SINGLE POINT ENERGY      -309.779576614198
-------------------------   --------------------

------------------------------------------------------------------------------
                         ORCA SCF GRADIENT CALCULATION
------------------------------------------------------------------------------

Nuc. rep. gradient        (SHARK) ... done (  0.0 sec)
HCore & Overlap gradient  (SHARK) ... done (  0.2 sec)
Split-RIJ-J gradient      (SHARK) ... done (  0.9 sec)
XC gradient                       ... done (  3.9 sec)
CPCM gradient                     ... done (  1.1 sec)
SMD gradient                      ... done (  0.0 sec)
Dispersion correction             ... done (  0.0 sec)

-------------------
DISPERSION GRADIENT
-------------------

   1   C   :    0.000066160   -0.000042519    0.000001655
   2   C   :    0.000062588    0.000009960   -0.000015504
   3   C   :    0.000032542    0.000041394    0.000018882
   4   C   :   -0.000024545    0.000008605    0.000018303
   5   C   :   -0.000078415    0.000020927   -0.000003271
   6   C   :   -0.000080854   -0.000018253   -0.000006334
   7   O   :   -0.000062404   -0.000005914   -0.000014667
   8   H   :    0.000028612   -0.000016497    0.000006874
   9   H   :    0.000031430   -0.000027087   -0.000002069
  10   H   :    0.000026202   -0.000017752   -0.000006064
  11   H   :    0.000028340    0.000002255   -0.000017413
  12   H   :    0.000025813    0.000008517   -0.000006076
  13   H   :    0.000007435    0.000028430    0.000002943
  14   H   :    0.000012755    0.000015614    0.000018347
  15   H   :   -0.000012456   -0.000009863    0.000011784
  16   H   :   -0.000028532    0.000016389   -0.000006067
  17   H   :   -0.000034671   -0.000014207   -0.000001323

Difference to translation invariance:
           :   -0.0000000000    0.0000000000    0.0000000000

Difference to rotation invariance:
           :   -0.0000000000   -0.0000000000    0.0000000000

Norm of the Dispersion gradient    ...    0.0002062988
RMS gradient                       ...    0.0000288876
MAX gradient                       ...    0.0000808544
gCP correction                   ... done

------------------
CARTESIAN GRADIENT
------------------

   1   C   :    0.000022565    0.000047491   -0.000051316
   2   C   :   -0.000143661   -0.000130021    0.000066438
   3   C   :   -0.000077965    0.000119039    0.000241075
   4   C   :   -0.000017746   -0.000155361   -0.000370778
   5   C   :    0.000243609   -0.000046202    0.000064615
   6   C   :   -0.000085631    0.000040536    0.000756127
   7   O   :   -0.000038953   -0.000048065   -0.000254536
   8   H   :   -0.000030294    0.000060533   -0.000044049
   9   H   :    0.000042518    0.000080298   -0.000003563
  10   H   :    0.000104333   -0.000060149   -0.000018774
  11   H   :    0.000029607   -0.000059735    0.000038806
  12   H   :   -0.000053961   -0.000060390   -0.000025958
  13   H   :   -0.000050841    0.000006467    0.000015907
  14   H   :    0.000056211    0.000045810    0.000021434
  15   H   :   -0.000028973    0.000221147   -0.000090843
  16   H   :    0.000027810   -0.000125732   -0.000023667
  17   H   :    0.000001372    0.000064335   -0.000320919

Difference to translation invariance:
           :    0.0000000000   -0.0000000000   -0.0000000000

Difference to rotation invariance:
           :    0.0001229139    0.0001187159    0.0004165128

Norm of the Cartesian gradient     ...    0.0011119006
RMS gradient                       ...    0.0001556972
MAX gradient                       ...    0.0007561273

-------
TIMINGS
-------

Total SCF gradient time     ....        6.126 sec

Densities                   ....       0.001 sec  (  0.0%)
One electron gradient       ....       0.167 sec  (  2.7%)
RI-J Coulomb gradient       ....       0.923 sec  ( 15.1%)
XC gradient                 ....       3.931 sec  ( 64.2%)
CPCM gradient               ....       1.050 sec  ( 17.1%)
   A-Matrix (El+Nuc)        ....       0.067 sec  (  1.1%)
   Potential                ....       0.983 sec  ( 16.1%)
SMD gradient                ....       0.004 sec  (  0.1%)

Maximum memory used throughout the entire SCFGRAD-calculation: 33.2 MB

------------------------------------------------------------------------------
                              ORCA PROPERTY CALCULATIONS
------------------------------------------------------------------------------

GBWName                                 ... xtb_opt.gbw
Number of atoms                         ...     17
Number of basis functions               ...    188
Max core memory                         ...   1024 MB

Electric properties:
Dipole moment                           ... YES
Quadrupole moment                       ...  NO
Static polarizability (Dipole/Dipole)   ...  NO
Static polarizability (Dipole/Quad.)    ...  NO
Static polarizability (Quad./Quad.)     ...  NO
Static polarizability (Velocity)        ...  NO

Atomic electric properties:
Dipole moment                           ...  NO
Quadrupole moment                       ...  NO
Static polarizability                   ...  NO

Choice of electric origin               ... Center of mass
Position of electric origin             ...     0.042192    -0.009350    -0.158071

General magnetic properties:
Magnetizability                         ...  NO

EPR properties:
g-Tensor (aka g-matrix)                 ...  NO
Zero-Field splitting spin-orbit         ...  NO
Zero-field splitting spin-spin          ...  NO
Hyperfine couplings                     ...  NO (   0 nuclei)
Quadrupole couplings                    ...  NO (   0 nuclei)
Contact density                         ...  NO (   0 nuclei)

NMR properties:
Chemical shifts                         ...  NO (   0 nuclei)
Spin-rotation constants                 ...  NO (   0 nuclei)
Spin-spin couplings                     ...  NO (   0 nuclei,    0 pairs)

Choice of magnetic origin               ... GIAO
Position of magnetic origin             ...     0.000000     0.000000     0.000000

Properties with geometric perturbations:
SCF Hessian                             ...  NO
IR spectrum                             ...  NO
VCD spectrum                            ...  NO
X-ray spectroscopy properties:
SCF XES/XAS/RIXS spectra                ...  NO


-------------
DIPOLE MOMENT
-------------

Method             : SCF
Type of density    : Electron Density
Multiplicity       :   1
Irrep              :   0
Energy             :  -309.7821765871152593 Eh
Relativity type    : 
Basis              : AO
                                X                 Y                 Z
Electronic contribution:    -10.636995330       1.109399474      -0.775621078
Nuclear contribution   :     13.143533097      -1.248335401       1.454285237
                        -----------------------------------------
Total Dipole Moment    :      2.506537767      -0.138935927       0.678664159
                        -----------------------------------------
Magnitude (a.u.)       :      2.600503761
Magnitude (Debye)      :      6.609955259



--------------------
Rotational spectrum 
--------------------
 
Rotational constants in cm-1:             0.275762             0.031815             0.030055 
Rotational constants in MHz :          8267.127806           953.792071           901.032032 

Dipole components along the rotational axes: 
x,y,z [a.u.] :     2.555486     0.004399     0.481761 
x,y,z [Debye]:     6.495528     0.011180     1.224539 

 

Dipole moment calculation done in   2.4 sec 

Maximum memory used throughout the entire PROP-calculation: 11.6 MB

--------------------------------
SUGGESTED CITATIONS FOR THIS RUN
--------------------------------

Below you find a list of papers that are relevant to this ORCA run
We neither can nor want to force you to cite these papers, but we appreciate if you do
You receive ORCA, which is the product of decades of hard work by many enthusiastic individuals, for free
The only thing we kindly ask in return is that you cite our papers,
We deeply appreciate it, if you show your appreciation for ORCA by not just citing the generic ORCA reference.

Please note that relegating all ORCA citations to the supporting information does *not* help us.
SI sections are not indexed - citations you put there will not count into any citation statistics
But we need these citations in order to attract the funding resources that allow us to do what we are doing

Therefore, if you are a happy ORCA user, please consider citing a few of the papers listed below in the main body of your paper

In addition to the list printed below, the program has created the file xtb_opt.bibtex that contains the list in bibtex format
You can import this file easily into all common literature databanks and citation aid programs


List of essential papers. We consider these as the minimum necessary citations

  1. Neese,F.
     Software update: the ORCA program system, version 5.0
     WIRES Comput. Molec. Sci., 2022 12(1)e1606
     doi.org/10.1002/wcms.1606
  2. Grimme,S.; Hansen,A.; Ehlert,S.; Mewes,J.
     r2SCAN-3c: A 'Swiss army knife' composite electronic-structure method
     J. Chem. Phys., 2021 154 064103
     doi.org/10.1063/5.0040021

List of papers to cite with high priority. The work reported in these papers was absolutely
necessary for this run to complete.
Our perspective: the developers of density functionals and basis sets usually get cited in chemistry papers
Good! But without the algorithms to do something with them, the functionals or basis sets would not do anything.
Hence, in our opinion, the algorithm design and method developments papers are equally worthy of getting cited

  1. Neese,F.
     An improvement of the resolution of the identity approximation for the formation of the Coulomb matrix
     J. Comp. Chem., 2003 24(14)1740-1747
     doi.org/10.1002/jcc.10318
  2. Garcia-Rates,M.; Neese,F.
     Effect of the Solute Cavity on the Solvation Energy and its Derivatives within the Framework of the Gaussian Charge Scheme
     J. Comput. Chem., 2020 41 922-939
     doi.org/10.1002/jcc.26139
  3. Neese,F.
     The SHARK Integral Generation and Digestion System
     J. Comp. Chem., 2022  1-16
     doi.org/10.1002/jcc.26942
  4. Lehtola,S.; Steigemann,C.; Oliveira,M.; Marques,M.
     Recent developments in Libxc - A comprehensive library of functionals for density functional theory
     Software X, 2018 7 
     doi.org/10.1016/j.softx.2017.11.002
  5. Caldeweyher,E.; Bannwarth,C.; Grimme,S.
     Extension of the D3 dispersion coefficient model
     J. Chem. Phys., 2017 147 034112
     doi.org/10.1063/1.4993215
  6. Caldeweyher,E.; Ehlert,S.; Hansen,A.; Neugebauer,H.; Spicher,S.; Bannwarth,C.; Grimme,S.
     A generally applicable atomic-charge dependent London dispersion correction
     J. Chem. Phys., 2019 150 154122
     doi.org/10.1063/1.5090222
  7. Caldeweyher,E.; Mewes,J.; Ehlert,S.; Grimme,S.
     Extension and evaluation of the D4 London-dispersion model for periodic systems
     Phys. Chem. Chem. Phys., 2020 22(16)8499-8512
     doi.org/10.1039/D0CP00502A
  8. Wittmann,L.; Gordiy,I.; Friede,M.; Helmich-Paris,B.; Grimme,S.; Hansen,A.; Bursch,M.
     Extension of the D3 and D4 London Dispersion Corrections to the full Actinides Series
     Phys. Chem. Chem. Phys., 2024 26(32)21379-21394
     doi.org/https://doi.org/10.1039/D4CP01514B 

List of suggested additional citations. These are papers that are important in the 'surrounding' of 
of this run, or papers that preceded the highly important papers. If you like your results we are grateful for a citation.

  1. Neese,F.
     The ORCA program system
     WIRES Comput. Molec. Sci., 2012 2(1)73-78
     doi.org/10.1002/wcms.81
  2. Neese,F.
     Software update: the ORCA program system, version 4.0
     WIRES Comput. Molec. Sci., 2018 8(1)1-6
     doi.org/10.1002/wcms.1327
  3. Neese,F.; Wennmohs,F.; Becker,U.; Riplinger,C.
     The ORCA quantum chemistry program package
     J. Chem. Phys., 2020 152 Art. No. L224108
     doi.org/10.1063/5.0004608

List of optional additional citations

  1. Neese,F.
     Approximate second-order SCF convergence for spin unrestricted wavefunctions
     Chem. Phys. Lett., 2000 325(1-3)93-98
     doi.org/10.1016/s0009-2614(00)00662-x

Timings for individual modules:

Sum of individual times          ...       36.949 sec (=   0.616 min)
Startup calculation              ...        0.695 sec (=   0.012 min)   1.9 %
SCF iterations                   ...       25.232 sec (=   0.421 min)  68.3 %
Property calculations            ...        2.424 sec (=   0.040 min)   6.6 %
SCF Gradient evaluation          ...        8.597 sec (=   0.143 min)  23.3 %
                             ****ORCA TERMINATED NORMALLY****
TOTAL RUN TIME: 0 days 0 hours 0 minutes 46 seconds 895 msec
  ------------------------------------------------------------------------
          * successful ORCA run, taking over control again...
av. E:   -309.7795766 ->   -309.7795766
av. G:      0.0031110 ->      0.0031110
 * total energy  :  -309.7795766 Eh     change       -0.1831445E-04 Eh
   gradient norm :     0.0011116 Eh/a0  converged?    E=F G=F D=F
   step length   :     0.0125264 a0

........................................................................
.............................. CYCLE    3 ..............................
........................................................................
                         * ORCA takes the control...
  ------------------------------------------------------------------------

                                 *****************
                                 * O   R   C   A *
                                 *****************

                                            #,                                       
                                            ###                                      
                                            ####                                     
                                            #####                                    
                                            ######                                   
                                           ########,                                 
                                     ,,################,,,,,                         
                               ,,#################################,,                 
                          ,,##########################################,,             
                       ,#########################################, ''#####,          
                    ,#############################################,,   '####,        
                  ,##################################################,,,,####,       
                ,###########''''           ''''###############################       
              ,#####''   ,,,,##########,,,,          '''####'''          '####       
            ,##' ,,,,###########################,,,                        '##       
           ' ,,###''''                  '''############,,,                           
         ,,##''                                '''############,,,,        ,,,,,,###''
      ,#''                                            '''#######################'''  
     '                                                          ''''####''''         
             ,#######,   #######,   ,#######,      ##                                
            ,#'     '#,  ##    ##  ,#'     '#,    #''#        ,####,   ,####,        
            ##       ##  ##   ,#'  ##            #'  '#       #'       #'  '#        
            ##       ##  #######   ##           ,######,      #####,   #    #        
            '#,     ,#'  ##    ##  '#,     ,#' ,#      #,     #,   #   #,  ,#        
             '#######'   ##     ##  '#######'  #'      '#     '####' # '####'        



                #########################################################
                #                        -***-                          #
                #          Department of theory and spectroscopy        #
                #                                                       #
                #                      Frank Neese                      #
                #                                                       #
                #     Directorship, Architecture, Infrastructure        #
                #                    SHARK, DRIVERS                     #
                #        Core code/Algorithms in most modules           #
                #                                                       #
                #        Max Planck Institute fuer Kohlenforschung      #
                #                Kaiser Wilhelm Platz 1                 #
                #                 D-45470 Muelheim/Ruhr                 #
                #                      Germany                          #
                #                                                       #
                #                  All rights reserved                  #
                #                        -***-                          #
                #########################################################


                         Program Version 6.0.1  -  RELEASE   -


 With contributions from (in alphabetic order):
[Max-Planck-Institut fuer Kohlenforschung]                               
  Daniel Aravena         : Magnetic Suceptibility                        
  Michael Atanasov       : Ab Initio Ligand Field Theory (pilot matlab implementation)
  Alexander A. Auer      : GIAO ZORA, VPT2 properties, NMR spectrum      
  Ute Becker             : All parallelization in ORCA, NUMFREQ, NUMCALC 
  Giovanni Bistoni       : ED, misc. LED, open-shell LED, HFLD           
  Martin Brehm           : Molecular dynamics                            
  Dmytro Bykov           : pre 5.0 version of the SCF Hessian            
  Marcos Casanova-Páez   : Triplet and SCS-CIS(D). UHF-(DLPNO)-IP/EA/STEOM-CCSD. UHF-CVS-IP/STEOM-CCSD   
  Vijay G. Chilkuri      : MRCI spin determinant printing, contributions to CSF-ICE 
  Pauline Colinet        : FMM embedding                                 
  Dipayan Datta          : RHF DLPNO-CCSD density                        
  Achintya Kumar Dutta   : EOM-CC, STEOM-CC                              
  Nicolas Foglia         : Exact transition moments, OPA infrastructure, MCD improvements    
  Dmitry Ganyushin       : Spin-Orbit,Spin-Spin,Magnetic field MRCI      
  Miquel Garcia-Rates    : C-PCM and meta-GGA Hessian, CCSD/C-PCM, Gaussian charge scheme 
  Tiago L. C. Gouveia    : GS-ROHF, GS-ROCIS                             
  Yang Guo               : DLPNO-NEVPT2, F12-NEVPT2, CIM, IAO-localization        
  Andreas Hansen         : Spin unrestricted coupled pair/coupled cluster methods 
  Ingolf Harden          : AUTO-CI MPn and infrastructure                
  Benjamin Helmich-Paris : MC-RPA, TRAH-(SCF,CASSCF), AVAS, COSX integrals, SCF dyn. polar. 
  Lee Huntington         : MR-EOM, pCC                                   
  Robert Izsak           : Overlap fitted RIJCOSX, COSX-SCS-MP3, EOM     
  Riya Kayal             : Wick's Theorem for AUTO-CI, AUTO-CI UHF-CCSDT 
  Emily Kempfer          : AUTO-CI, RHF CISDT and CCSDT                  
  Christian Kollmar      : KDIIS, OOCD, Brueckner-CCSD(T), CCSD density, CASPT2, CASPT2-K, improved NEVPT2 
  Axel Koslowski         : Symmetry handling                             
  Simone Kossmann        : meta-GGA functionals, TD-DFT gradient, OOMP2, (MP2 Hessian; deprecated post 5.0) 
  Lucas Lang             : DCDCAS                                        
  Marvin Lechner         : AUTO-CI (C++ implementation), FIC-MRCC        
  Spencer Leger          : CASSCF response                               
  Dagmar Lenk            : GEPOL surface, SMD, ORCA-2-JSON               
  Dimitrios Liakos       : Extrapolation schemes; Compound Job, initial MDCI parallelization 
  Dimitrios Manganas     : Further ROCIS development; embedding schemes. LFT, Crystal Embedding 
  Dimitrios Pantazis     : SARC Basis sets                               
  Anastasios Papadopoulos: AUTO-CI, single reference methods and gradients 
  Taras Petrenko         : pre 6.0 DFT Hessian and TD-DFT gradient, (ASA, deprecated), ECA, 1-Electron XAS/XES, NRVS 
  Peter Pinski           : DLPNO-MP2, DLPNO-MP2 Gradient                 
  Christoph Reimann      : Effective Core Potentials                     
  Marius Retegan         : Local ZFS, SOC                                
  Christoph Riplinger    : Optimizer, TS searches, QM/MM, DLPNO-CCSD(T), (RO)-DLPNO pert. Triples 
  Michael Roemelt        : Original ROCIS implementation                 
  Masaaki Saitow         : Open-shell DLPNO-CCSD energy and density      
  Barbara Sandhoefer     : DKH picture change effects                    
  Kantharuban Sivalingam : CASSCF convergence/infrastructure, NEVPT2 and variants, FIC-MRCI 
  Bernardo de Souza      : ESD, SOC TD-DFT                               
  Georgi L. Stoychev     : AutoAux, RI-MP2 NMR, DLPNO-MP2 response, X2C  
  Van Anh Tran           : RI-MP2 g-tensors                              
  Willem Van den Heuvel  : Paramagnetic NMR                              
  Zikuan Wang            : NOTCH, Electric field optimization            
  Frank Wennmohs         : Technical directorship and infrastructure     
  Hang Xu                : AUTO-CI-Response properties                   
                                                                         
[FACCTs GmbH]                                                            
  Markus Bursch, Miquel Garcia-Rates, Christoph Riplinger, Bernardo de Souza, Georgi L. Stoychev 
                                                                 
  APM, Basis sets (HGBS, AHGBS, def-TZVP (Ac-Lr), def2-XVPD (La-Lu)), CI-OPT, improved COSX, DLPNO-Multilevel,           
  DOCKER, DRACO, updates on ESD, GOAT, IRC, LR-CPCM, MBIS, meta-GGA TD-DFT gradient, ML-optimized integration grids, 
  MM, NACMEs, nearIR, NEB, NEB-TS, NL-DFT gradient (VV10), 2- and 3-layer-ONIOM, interface openCOSMO-RS, QMMM,   
  Crystal-QMMM, SF, symmetry and pop. for TD-DFT, r2SCAN hybrids, SOLVATOR                                   
                                                                         
[Other institutions]                                                     
  V. Asgeirsson          : NEB                                           
  Christoph Bannwarth    : sTDA-DFT, sTD-DFT, PBEh-3c, B97-3c, D3        
  Sebastian Ehlert       : rSCAN, r2SCAN, r2SCAN-3c, D4, dhf basis sets  
  Marvin Friede          : D4 for Fr, Ra, Ac-Lr                          
  Lars Goerigk           : TD-DFT with DH, B97 family of functionals     
  Stefan Grimme          : VdW corrections, initial TS optimization, DFT functionals, gCP, sTDA/sTD-DF 
  Waldemar Hujo          : DFT-NL                                        
  H. Jonsson             : NEB                                           
  Holger Kruse           : gCP                                           
  Marcel Mueller         : wB97X-3c, vDZP basis set                      
  Hagen Neugebauer       : wr2SCAN                                       
  Tobias Risthaus        : range-separated hybrid DFT                    
  Lukas Wittmann         : regularized MP2, r2SCAN double-hybrids, wr2SCAN        
                                                                         
We gratefully acknowledge several colleagues who have allowed us to      
interface, adapt or use parts of their codes:                            
  Ed Valeev, F. Pavosevic, A. Kumar             : LibInt (2-el integral package), F12 methods 
  Garnet Chan, S. Sharma, J. Yang, R. Olivares  : DMRG                   
  Ulf Ekstrom                                   : XCFun DFT Library      
  Mihaly Kallay                                 : mrcc  (arbitrary order and MRCC methods)
  Frank Weinhold                                : gennbo (NPA and NBO analysis)           
  Simon Mueller                                 : openCOSMO-RS                            
  Christopher J. Cramer and Donald G. Truhlar   : smd solvation model                     
  S Lehtola, MJT Oliveira, MAL Marques          : LibXC Library                           
  Liviu Ungur et al                             : ANISO software                          


 Your calculation uses the libint2 library for the computation of 2-el integrals
 For citations please refer to: http://libint.valeyev.net

 Your ORCA version has been built with support for libXC version: 6.2.2
 For citations please refer to: https://libxc.gitlab.io

 This ORCA versions uses:
   CBLAS   interface :  Fast vector & matrix operations
   LAPACKE interface :  Fast linear algebra routines
   SCALAPACK package :  Parallel linear algebra routines
   Shared memory     :  Shared parallel matrices
   BLAS/LAPACK       :  OpenBLAS 0.3.27  USE64BITINT DYNAMIC_ARCH NO_AFFINITY Zen SINGLE_THREADED
        Core in use  :  Zen
   Copyright (c) 2011-2014, The OpenBLAS Project




***************************************
The coordinates will be read from file: xtb_opt.xyz
***************************************


Your calculation utilizes the geometrical counterpoise correction gCP
Please cite in your paper:
H.Kruse, S. Grimme J.Chem.Phys., 136, (2012), 154101 
   

Your calculation utilizes the atom-pairwise dispersion correction
based on EEQ partial charges (D4)


Your calculation utilizes the SMD solvation module
Please cite in your paper:
A.V. Marenich, C.J. Cramer, D.G. Truhlar J. Phys. Chem. B, 113, (2009), 6378 

================================================================================

----- Orbital basis set information -----
Your calculation utilizes the basis: def2-mTZVPP
   Stefan Grimme, Andreas Hansen, Sebastian Ehlert, and Jan-Michael Mewes 
   J. Chem. Phys. 154, 064103 (2021). DOI: 10.1063/5.0040021

----- AuxJ basis set information -----
Your calculation utilizes the auxiliary basis: def2/J
   F. Weigend, Phys. Chem. Chem. Phys. 8, 1057 (2006).

================================================================================
                                        WARNINGS
                       Please study these warnings very carefully!
================================================================================

WARNING: Old DensityContainer found on disk!
         Will remove this file - 
         If you want to keep old densities, please start your calculation with a different basename. 



WARNING: SCAN, rSCAN, or r2SCAN functional requested.
  ===> : libXC variant has now been activated.



================================================================================
                                       INPUT FILE
================================================================================
NAME = xtb_opt.inp
|  1> ! r2scan-3c def2/J RI DEFGRID2 scfconv7 ENGRAD tightSCF miniprint
|  2> %cpcm
|  3>     smd true
|  4>     smdsolvent "water"
|  5> end
|  6> * xyzfile 0 1 xtb_opt.xyz
|  7> 
|  8>                          ****END OF INPUT****
================================================================================

                     *******************************
                     * Energy+Gradient Calculation *
                     *******************************

---------------------------------
CARTESIAN COORDINATES (ANGSTROEM)
---------------------------------
  C      2.951082   -1.110994    0.084137
  C      2.477276    0.254139   -0.404454
  C      1.316215    0.844823    0.423969
  C      0.071483    0.044131    0.326320
  C     -1.105214    0.497562   -0.145653
  C     -2.248571   -0.384362   -0.205937
  O     -3.361616   -0.054113   -0.619947
  H      3.235664   -1.070963    1.141564
  H      2.178271   -1.877885   -0.027534
  H      3.825327   -1.440822   -0.485745
  H      2.169292    0.193284   -1.454982
  H      3.307259    0.967885   -0.358231
  H      1.120963    1.875454    0.111468
  H      1.630917    0.866077    1.477735
  H      0.121921   -0.995337    0.653992
  H     -1.229304    1.523124   -0.488143
  H     -2.074963   -1.418426    0.155185

----------------------------
CARTESIAN COORDINATES (A.U.)
----------------------------
  NO LB      ZA    FRAG     MASS         X           Y           Z
   0 C     6.0000    0    12.011    5.576737   -2.099475    0.158997
   1 C     6.0000    0    12.011    4.681374    0.480253   -0.764307
   2 C     6.0000    0    12.011    2.487285    1.596484    0.801186
   3 C     6.0000    0    12.011    0.135083    0.083396    0.616655
   4 C     6.0000    0    12.011   -2.088552    0.940256   -0.275243
   5 C     6.0000    0    12.011   -4.249184   -0.726339   -0.389165
   6 O     8.0000    0    15.999   -6.352533   -0.102259   -1.171529
   7 H     1.0000    0     1.008    6.114519   -2.023826    2.157243
   8 H     1.0000    0     1.008    4.116335   -3.548689   -0.052032
   9 H     1.0000    0     1.008    7.228820   -2.722759   -0.917925
  10 H     1.0000    0     1.008    4.099367    0.365255   -2.749517
  11 H     1.0000    0     1.008    6.249814    1.829038   -0.676959
  12 H     1.0000    0     1.008    2.118313    3.544094    0.210644
  13 H     1.0000    0     1.008    3.081986    1.636648    2.792514
  14 H     1.0000    0     1.008    0.230397   -1.880914    1.235865
  15 H     1.0000    0     1.008   -2.323048    2.878288   -0.922457
  16 H     1.0000    0     1.008   -3.921112   -2.680436    0.293257

------------------------------------------------------------------------------
                   ___                                                        
                  /   \      - P O W E R E D   B Y -                         
                 /     \                                                     
                 |  |  |   _    _      __       _____    __    __             
                 |  |  |  | |  | |    /  \     |  _  \  |  |  /  |          
                  \  \/   | |  | |   /    \    | | | |  |  | /  /          
                 / \  \   | |__| |  /  /\  \   | |_| |  |  |/  /          
                |  |  |   |  __  | /  /__\  \  |    /   |      \           
                |  |  |   | |  | | |   __   |  |    \   |  |\   \          
                \     /   | |  | | |  |  |  |  | |\  \  |  | \   \       
                 \___/    |_|  |_| |__|  |__|  |_| \__\ |__|  \__/        
                                                                              
                      - O R C A' S   B I G   F R I E N D -                    
                                      &                                       
                       - I N T E G R A L  F E E D E R -                       
                                                                              
 v1 FN, 2020, v2 2021, v3 2022-2024                                           
------------------------------------------------------------------------------


----------------------
SHARK INTEGRAL PACKAGE
----------------------

Number of atoms                             ...     17
Number of basis functions                   ...    188
Number of shells                            ...     94
Maximum angular momentum                    ...      2
Integral batch strategy                     ... SHARK/LIBINT Hybrid
RI-J (if used) integral strategy            ... SPLIT-RIJ (Revised 2003 algorithm where possible)
Printlevel                                  ...      1
Contraction scheme used                     ... SEGMENTED contraction
Prescreening option                         ... SCHWARTZ
   Thresh                                   ... 3.000e-11
   Tcut                                     ... 1.000e-12
   Tpresel                                  ... 1.000e-12 
Coulomb Range Separation                    ... NOT USED
Exchange Range Separation                   ... NOT USED
Multipole approximations                    ... NOT USED
Finite Nucleus Model                        ... NOT USED
CABS basis                                  ... NOT available
Auxiliary Coulomb fitting basis             ... AVAILABLE
   # of basis functions in Aux-J            ...    453
   # of shells in Aux-J                     ...    155
   Maximum angular momentum in Aux-J        ...      4
Auxiliary J/K fitting basis                 ... NOT available
Auxiliary Correlation fitting basis         ... NOT available
Auxiliary 'external' fitting basis          ... NOT available

Checking pre-screening integrals            ... done (  0.0 sec) Dimension = 94
Check shell pair data                       ... done (  0.0 sec)
Shell pair information
Shell pair cut-off parameter TPreSel        ...   1.0e-12
Total number of shell pairs                 ...      4465
Shell pairs after pre-screening             ...      3953
Total number of primitive shell pairs       ...     15937
Primitive shell pairs kept                  ...     10242
          la=0 lb=0:   1344 shell pairs
          la=1 lb=0:   1524 shell pairs
          la=1 lb=1:    451 shell pairs
          la=2 lb=0:    382 shell pairs
          la=2 lb=1:    220 shell pairs
          la=2 lb=2:     32 shell pairs

Calculating one electron integrals          ... done (  0.0 sec)
Calculating RI/J V-Matrix + Cholesky decomp.... done (  0.0 sec)
Calculating Nuclear repulsion               ... done (  0.0 sec) ENN=    275.562304595659 Eh

Diagonalization of the overlap matrix:
Smallest eigenvalue                        ... 1.447e-04
Time for diagonalization                   ...    0.004 sec
Threshold for overlap eigenvalues          ... 1.000e-07
Number of eigenvalues below threshold      ... 0
Time for construction of square roots      ...    0.004 sec
Total time needed                          ...    0.009 sec

-------------------
DFT GRID GENERATION
-------------------

General Integration Accuracy     IntAcc      ... 4.388
Radial Grid Type                 RadialGrid  ... OptM3 with GC (2021)
Angular Grid (max. ang.)         AngularGrid ... 4 (Lebedev-302)
Angular grid pruning method      GridPruning ... 4 (adaptive)
Weight generation scheme         WeightScheme... mBecke (2022)
Basis function cutoff            BFCut       ... 1.0000e-11
Integration weight cutoff        WCut        ... 1.0000e-14
Partially contracted basis set               ... off
Rotationally invariant grid construction     ... off
Angular grids for H and He will be reduced by one unit
Diffuse basis detected: some atoms will have their outermost
                        angular grid increased by 1.

Total number of grid points                  ...    74713
Total number of batches                      ...     1176
Average number of points per batch           ...       63
Average number of grid points per atom       ...     4395
Initializing property integral containers    ... done (  0.0 sec)

SHARK setup successfully completed in   0.7 seconds

Maximum memory used throughout the entire STARTUP-calculation: 33.8 MB
Occupation numbers will be reassigned to an Aufbau configuration
             **** ENERGY FILE WAS UPDATED (xtb_opt.en.tmp) ****
Finished Guess after   0.1 sec
Maximum memory used throughout the entire GUESS-calculation: 13.1 MB
--------------------
CPCM SOLVATION MODEL
--------------------
CPCM parameters:
  Epsilon                                         ...      78.3550
  Refrac                                          ...       1.3328
  Rsolv                                           ...       1.3000
  Surface type                                    ... GAUSSIAN VDW
  Discretization scheme                           ... Constant charge density
    Threshold for H atoms                         ...       5.0000 (charges/Ang^2)
    Threshold for non-H atoms                     ...       5.0000 (charges/Ang^2)
  Epsilon function type                           ...         CPCM
Solvent:                                          ... WATER
SMD-CDS solvent descriptors:
  Soln                                            ...       1.3328
  Soln25                                          ...       1.3323
  Sola                                            ...       0.0000
  Solb                                            ...       0.0000
  Solg                                            ...       0.0000
  Solc                                            ...       0.0000
  Solh                                            ...       0.0000
Radii:
  Scheme                                          ... Element-dependent radii
  Radius for C  used is    3.4960 Bohr (=   1.8500 Ang.)
  Radius for O  used is    2.8724 Bohr (=   1.5200 Ang.)
  Radius for H  used is    2.2677 Bohr (=   1.2000 Ang.)
Calculating surface                               ...        done! (  0.0s)
Cavity surface points                             ...         1313
Cavity Volume                                     ...     795.0552
Cavity Surface-area                               ...     531.8805
Calculating surface distance matrix               ...        done! (  0.0s)
Performing Cholesky decomposition & store         ...        done! (  0.0s)
Overall time for CPCM initialization              ...                 0.1s

----------------------------------------D-I-I-S--------------------------------------------
Iteration    Energy (Eh)           Delta-E    RMSDP     MaxDP     DIISErr   Damp  Time(sec)
-------------------------------------------------------------------------------------------
               ***  Starting incremental Fock matrix formation  ***
                              *** Initializing SOSCF ***
---------------------------------------S-O-S-C-F--------------------------------------
Iteration    Energy (Eh)           Delta-E    RMSDP     MaxDP     MaxGrad    Time(sec)
--------------------------------------------------------------------------------------
    1    -309.7896288159714118     0.00e+00  4.54e-05  7.74e-04  1.29e-04     1.7
               *** Restarting incremental Fock matrix formation ***
    2    -309.7896362608708500    -7.44e-06  2.13e-05  4.73e-04  1.27e-04     1.7
    3    -309.7896369333811322    -6.73e-07  1.32e-05  8.06e-04  7.34e-05     1.3
    4    -309.7896368138651155     1.20e-07  9.93e-06  6.09e-04  1.23e-04     1.3
    5    -309.7896370028815340    -1.89e-07  2.10e-06  9.28e-05  1.30e-05     1.3
                  *** Gradient check signals convergence ***

               *****************************************************
               *                     SUCCESS                       *
               *           SCF CONVERGED AFTER   5 CYCLES          *
               *****************************************************


SMD CDS free energy correction energy :                 4.68073     Kcal/mol
Total Energy after SMD CDS correction =              -309.782177791 Eh
             **** ENERGY FILE WAS UPDATED (xtb_opt.en.tmp) ****

----------------
TOTAL SCF ENERGY
----------------

Total Energy       :       -309.78217779107564 Eh           -8429.60161 eV

Components:
Nuclear Repulsion  :        275.56230459565944 Eh            7498.43152 eV
Electronic Energy  :       -585.33134108629383 Eh          -15927.67554 eV
One Electron Energy:       -963.64552126228307 Eh          -26222.12774 eV
Two Electron Energy:        378.31418017598929 Eh           10294.45220 eV
CPCM Dielectric    :         -0.02060051224715 Eh              -0.56057 eV
SMD CDS (Gcds)     :          0.00745921180592 Eh               0.20298 eV

Virial components:
Potential Energy   :       -618.10869121321321 Eh          -16819.59258 eV
Kinetic Energy     :        308.32651342213757 Eh            8389.99097 eV
Virial Ratio       :          2.00472117805498

DFT components:
N(Alpha)           :       27.000006176297 electrons
N(Beta)            :       27.000006176297 electrons
N(Total)           :       54.000012352594 electrons
E(X)               :      -43.010024081248 Eh       
E(C)               :       -1.698148437688 Eh       
E(XC)              :      -44.708172518936 Eh       

CPCM Solvation Model Properties:
Surface-charge          :         -0.04771403458494
Corrected charge        :         -0.00000000000000
Outlying charge corr.   :          0.00017841304594 Eh               0.00485 eV
Free-energy (cav+disp)  :          0.00745921180592 Eh               0.20298 eV

---------------
SCF CONVERGENCE
---------------

  Last Energy change         ...    1.8902e-07  Tolerance :   1.0000e-07
  Last MAX-Density change    ...    9.2827e-05  Tolerance :   1.0000e-07
  Last RMS-Density change    ...    2.0979e-06  Tolerance :   5.0000e-09
  Last DIIS Error            ...    1.0348e-03  Tolerance :   1.0000e-07
  Last Orbital Gradient      ...    1.2966e-05  Tolerance :   1.0000e-04
  Last Orbital Rotation      ...    3.4932e-05  Tolerance :   1.0000e-04


----------------
ORBITAL ENERGIES
----------------

  NO   OCC          E(Eh)            E(eV) 
   0   2.0000     -18.949004      -515.6286 
   1   2.0000     -10.118396      -275.3355 
   2   2.0000     -10.063072      -273.8301 
   3   2.0000     -10.038797      -273.1696 
   4   2.0000     -10.034520      -273.0532 
   5   2.0000     -10.029604      -272.9194 
   6   2.0000     -10.013643      -272.4851 
   7   2.0000      -1.004846       -27.3432 
   8   2.0000      -0.790102       -21.4998 
   9   2.0000      -0.737109       -20.0577 
  10   2.0000      -0.665530       -18.1100 
  11   2.0000      -0.590983       -16.0815 
  12   2.0000      -0.541630       -14.7385 
  13   2.0000      -0.528239       -14.3741 
  14   2.0000      -0.453902       -12.3513 
  15   2.0000      -0.436202       -11.8696 
  16   2.0000      -0.408908       -11.1270 
  17   2.0000      -0.396323       -10.7845 
  18   2.0000      -0.380570       -10.3558 
  19   2.0000      -0.371238       -10.1019 
  20   2.0000      -0.355596        -9.6763 
  21   2.0000      -0.349432        -9.5085 
  22   2.0000      -0.312391        -8.5006 
  23   2.0000      -0.304139        -8.2761 
  24   2.0000      -0.295604        -8.0438 
  25   2.0000      -0.253706        -6.9037 
  26   2.0000      -0.231194        -6.2911 
  27   0.0000      -0.091525        -2.4905 
  28   0.0000       0.021086         0.5738 
  29   0.0000       0.101489         2.7617 
  30   0.0000       0.111986         3.0473 
  31   0.0000       0.117170         3.1884 
  32   0.0000       0.127109         3.4588 
  33   0.0000       0.137790         3.7495 
  34   0.0000       0.145096         3.9483 
  35   0.0000       0.151322         4.1177 
  36   0.0000       0.158043         4.3006 
  37   0.0000       0.162845         4.4312 
*Only the first 10 virtual orbitals were printed.
Total SCF time: 0 days 0 hours 0 min 9 sec 
Finished LeanSCF after  18.7 sec

Maximum memory used throughout the entire LEANSCF-calculation: 24.5 MB


-------------------------------------------------------------------------------
                          DFT DISPERSION CORRECTION                            
                                                                               
                                DFTD4 V3.4.0                                   
-------------------------------------------------------------------------------
-------------------------   ----------------
Dispersion correction           -0.004186405
-------------------------   ----------------

------------------   -----------------
gCP correction             0.006785461
------------------   -----------------

-------------------------   --------------------
FINAL SINGLE POINT ENERGY      -309.779578735139
-------------------------   --------------------

------------------------------------------------------------------------------
                         ORCA SCF GRADIENT CALCULATION
------------------------------------------------------------------------------

Nuc. rep. gradient        (SHARK) ... done (  0.0 sec)
HCore & Overlap gradient  (SHARK) ... done (  0.2 sec)
Split-RIJ-J gradient      (SHARK) ... done (  0.9 sec)
XC gradient                       ... done (  3.8 sec)
CPCM gradient                     ... done (  1.1 sec)
SMD gradient                      ... done (  0.0 sec)
Dispersion correction             ... done (  0.0 sec)

-------------------
DISPERSION GRADIENT
-------------------

   1   C   :    0.000066155   -0.000042534    0.000001661
   2   C   :    0.000062622    0.000009999   -0.000015502
   3   C   :    0.000032566    0.000041390    0.000018877
   4   C   :   -0.000024581    0.000008613    0.000018384
   5   C   :   -0.000078449    0.000020930   -0.000003313
   6   C   :   -0.000080875   -0.000018270   -0.000006391
   7   O   :   -0.000062401   -0.000005929   -0.000014663
   8   H   :    0.000028607   -0.000016517    0.000006876
   9   H   :    0.000031440   -0.000027101   -0.000002073
  10   H   :    0.000026211   -0.000017760   -0.000006078
  11   H   :    0.000028356    0.000002288   -0.000017420
  12   H   :    0.000025812    0.000008529   -0.000006070
  13   H   :    0.000007445    0.000028433    0.000002938
  14   H   :    0.000012759    0.000015609    0.000018343
  15   H   :   -0.000012462   -0.000009870    0.000011815
  16   H   :   -0.000028535    0.000016397   -0.000006083
  17   H   :   -0.000034669   -0.000014206   -0.000001299

Difference to translation invariance:
           :   -0.0000000000   -0.0000000000   -0.0000000000

Difference to rotation invariance:
           :   -0.0000000000    0.0000000000    0.0000000000

Norm of the Dispersion gradient    ...    0.0002063638
RMS gradient                       ...    0.0000288967
MAX gradient                       ...    0.0000808745
gCP correction                   ... done

------------------
CARTESIAN GRADIENT
------------------

   1   C   :   -0.000087897    0.000014670    0.000105948
   2   C   :    0.000181738    0.000131295   -0.000086013
   3   C   :    0.000030873   -0.000195425   -0.000159203
   4   C   :   -0.000067445    0.000135437    0.000357203
   5   C   :   -0.000071255   -0.000009310   -0.000032149
   6   C   :    0.000078676   -0.000066677   -0.000432735
   7   O   :   -0.000000638    0.000041325    0.000157624
   8   H   :    0.000032756   -0.000022750    0.000028741
   9   H   :    0.000019401   -0.000063415    0.000013183
  10   H   :   -0.000027737    0.000072643    0.000002938
  11   H   :   -0.000059094    0.000017584   -0.000009150
  12   H   :    0.000026614    0.000047928   -0.000054037
  13   H   :    0.000041489   -0.000011616   -0.000013800
  14   H   :   -0.000055057   -0.000028761   -0.000014449
  15   H   :    0.000034619   -0.000109217   -0.000057840
  16   H   :   -0.000038259    0.000059957    0.000066059
  17   H   :   -0.000038782   -0.000013669    0.000127681

Difference to translation invariance:
           :   -0.0000000000    0.0000000000   -0.0000000000

Difference to rotation invariance:
           :    0.0001101269    0.0001014109    0.0003968944

Norm of the Cartesian gradient     ...    0.0007715628
RMS gradient                       ...    0.0001080404
MAX gradient                       ...    0.0004327349

-------
TIMINGS
-------

Total SCF gradient time     ....        5.984 sec

Densities                   ....       0.000 sec  (  0.0%)
One electron gradient       ....       0.164 sec  (  2.7%)
RI-J Coulomb gradient       ....       0.913 sec  ( 15.3%)
XC gradient                 ....       3.811 sec  ( 63.7%)
CPCM gradient               ....       1.052 sec  ( 17.6%)
   A-Matrix (El+Nuc)        ....       0.066 sec  (  1.1%)
   Potential                ....       0.985 sec  ( 16.5%)
SMD gradient                ....       0.002 sec  (  0.0%)

Maximum memory used throughout the entire SCFGRAD-calculation: 33.2 MB

------------------------------------------------------------------------------
                              ORCA PROPERTY CALCULATIONS
------------------------------------------------------------------------------

GBWName                                 ... xtb_opt.gbw
Number of atoms                         ...     17
Number of basis functions               ...    188
Max core memory                         ...   1024 MB

Electric properties:
Dipole moment                           ... YES
Quadrupole moment                       ...  NO
Static polarizability (Dipole/Dipole)   ...  NO
Static polarizability (Dipole/Quad.)    ...  NO
Static polarizability (Quad./Quad.)     ...  NO
Static polarizability (Velocity)        ...  NO

Atomic electric properties:
Dipole moment                           ...  NO
Quadrupole moment                       ...  NO
Static polarizability                   ...  NO

Choice of electric origin               ... Center of mass
Position of electric origin             ...     0.042407    -0.009804    -0.158771

General magnetic properties:
Magnetizability                         ...  NO

EPR properties:
g-Tensor (aka g-matrix)                 ...  NO
Zero-Field splitting spin-orbit         ...  NO
Zero-field splitting spin-spin          ...  NO
Hyperfine couplings                     ...  NO (   0 nuclei)
Quadrupole couplings                    ...  NO (   0 nuclei)
Contact density                         ...  NO (   0 nuclei)

NMR properties:
Chemical shifts                         ...  NO (   0 nuclei)
Spin-rotation constants                 ...  NO (   0 nuclei)
Spin-spin couplings                     ...  NO (   0 nuclei,    0 pairs)

Choice of magnetic origin               ... GIAO
Position of magnetic origin             ...     0.000000     0.000000     0.000000

Properties with geometric perturbations:
SCF Hessian                             ...  NO
IR spectrum                             ...  NO
VCD spectrum                            ...  NO
X-ray spectroscopy properties:
SCF XES/XAS/RIXS spectra                ...  NO


-------------
DIPOLE MOMENT
-------------

Method             : SCF
Type of density    : Electron Density
Multiplicity       :   1
Irrep              :   0
Energy             :  -309.7821777910756396 Eh
Relativity type    : 
Basis              : AO
                                X                 Y                 Z
Electronic contribution:    -10.634489800       1.106823046      -0.782122242
Nuclear contribution   :     13.141589437      -1.244488046       1.460778781
                        -----------------------------------------
Total Dipole Moment    :      2.507099637      -0.137665000       0.678656539
                        -----------------------------------------
Magnitude (a.u.)       :      2.600975767
Magnitude (Debye)      :      6.611155004



--------------------
Rotational spectrum 
--------------------
 
Rotational constants in cm-1:             0.275570             0.031820             0.030059 
Rotational constants in MHz :          8261.394036           953.942358           901.152951 

Dipole components along the rotational axes: 
x,y,z [a.u.] :     2.556057     0.004048     0.481278 
x,y,z [Debye]:     6.496982     0.010290     1.223312 

 

Dipole moment calculation done in   1.4 sec 

Maximum memory used throughout the entire PROP-calculation: 11.6 MB

--------------------------------
SUGGESTED CITATIONS FOR THIS RUN
--------------------------------

Below you find a list of papers that are relevant to this ORCA run
We neither can nor want to force you to cite these papers, but we appreciate if you do
You receive ORCA, which is the product of decades of hard work by many enthusiastic individuals, for free
The only thing we kindly ask in return is that you cite our papers,
We deeply appreciate it, if you show your appreciation for ORCA by not just citing the generic ORCA reference.

Please note that relegating all ORCA citations to the supporting information does *not* help us.
SI sections are not indexed - citations you put there will not count into any citation statistics
But we need these citations in order to attract the funding resources that allow us to do what we are doing

Therefore, if you are a happy ORCA user, please consider citing a few of the papers listed below in the main body of your paper

In addition to the list printed below, the program has created the file xtb_opt.bibtex that contains the list in bibtex format
You can import this file easily into all common literature databanks and citation aid programs


List of essential papers. We consider these as the minimum necessary citations

  1. Neese,F.
     Software update: the ORCA program system, version 5.0
     WIRES Comput. Molec. Sci., 2022 12(1)e1606
     doi.org/10.1002/wcms.1606
  2. Grimme,S.; Hansen,A.; Ehlert,S.; Mewes,J.
     r2SCAN-3c: A 'Swiss army knife' composite electronic-structure method
     J. Chem. Phys., 2021 154 064103
     doi.org/10.1063/5.0040021

List of papers to cite with high priority. The work reported in these papers was absolutely
necessary for this run to complete.
Our perspective: the developers of density functionals and basis sets usually get cited in chemistry papers
Good! But without the algorithms to do something with them, the functionals or basis sets would not do anything.
Hence, in our opinion, the algorithm design and method developments papers are equally worthy of getting cited

  1. Neese,F.
     An improvement of the resolution of the identity approximation for the formation of the Coulomb matrix
     J. Comp. Chem., 2003 24(14)1740-1747
     doi.org/10.1002/jcc.10318
  2. Garcia-Rates,M.; Neese,F.
     Effect of the Solute Cavity on the Solvation Energy and its Derivatives within the Framework of the Gaussian Charge Scheme
     J. Comput. Chem., 2020 41 922-939
     doi.org/10.1002/jcc.26139
  3. Neese,F.
     The SHARK Integral Generation and Digestion System
     J. Comp. Chem., 2022  1-16
     doi.org/10.1002/jcc.26942
  4. Lehtola,S.; Steigemann,C.; Oliveira,M.; Marques,M.
     Recent developments in Libxc - A comprehensive library of functionals for density functional theory
     Software X, 2018 7 
     doi.org/10.1016/j.softx.2017.11.002
  5. Caldeweyher,E.; Bannwarth,C.; Grimme,S.
     Extension of the D3 dispersion coefficient model
     J. Chem. Phys., 2017 147 034112
     doi.org/10.1063/1.4993215
  6. Caldeweyher,E.; Ehlert,S.; Hansen,A.; Neugebauer,H.; Spicher,S.; Bannwarth,C.; Grimme,S.
     A generally applicable atomic-charge dependent London dispersion correction
     J. Chem. Phys., 2019 150 154122
     doi.org/10.1063/1.5090222
  7. Caldeweyher,E.; Mewes,J.; Ehlert,S.; Grimme,S.
     Extension and evaluation of the D4 London-dispersion model for periodic systems
     Phys. Chem. Chem. Phys., 2020 22(16)8499-8512
     doi.org/10.1039/D0CP00502A
  8. Wittmann,L.; Gordiy,I.; Friede,M.; Helmich-Paris,B.; Grimme,S.; Hansen,A.; Bursch,M.
     Extension of the D3 and D4 London Dispersion Corrections to the full Actinides Series
     Phys. Chem. Chem. Phys., 2024 26(32)21379-21394
     doi.org/https://doi.org/10.1039/D4CP01514B 

List of suggested additional citations. These are papers that are important in the 'surrounding' of 
of this run, or papers that preceded the highly important papers. If you like your results we are grateful for a citation.

  1. Neese,F.
     The ORCA program system
     WIRES Comput. Molec. Sci., 2012 2(1)73-78
     doi.org/10.1002/wcms.81
  2. Neese,F.
     Software update: the ORCA program system, version 4.0
     WIRES Comput. Molec. Sci., 2018 8(1)1-6
     doi.org/10.1002/wcms.1327
  3. Neese,F.; Wennmohs,F.; Becker,U.; Riplinger,C.
     The ORCA quantum chemistry program package
     J. Chem. Phys., 2020 152 Art. No. L224108
     doi.org/10.1063/5.0004608

List of optional additional citations

  1. Neese,F.
     Approximate second-order SCF convergence for spin unrestricted wavefunctions
     Chem. Phys. Lett., 2000 325(1-3)93-98
     doi.org/10.1016/s0009-2614(00)00662-x

Timings for individual modules:

Sum of individual times          ...       29.164 sec (=   0.486 min)
Startup calculation              ...        0.805 sec (=   0.013 min)   2.8 %
SCF iterations                   ...       18.836 sec (=   0.314 min)  64.6 %
Property calculations            ...        1.480 sec (=   0.025 min)   5.1 %
SCF Gradient evaluation          ...        8.043 sec (=   0.134 min)  27.6 %
                             ****ORCA TERMINATED NORMALLY****
TOTAL RUN TIME: 0 days 0 hours 0 minutes 38 seconds 953 msec
  ------------------------------------------------------------------------
          * successful ORCA run, taking over control again...
av. E:   -309.7795787 ->   -309.7795787
av. G:      0.0011116 ->      0.0011116
 * total energy  :  -309.7795787 Eh     change       -0.2120941E-05 Eh
   gradient norm :     0.0007712 Eh/a0  converged?    E=T G=T D=F
   step length   :     0.0138431 a0

   *** GEOMETRY OPTIMIZATION CONVERGED AFTER 3 CYCLES ***

------------------------------------------------------------------------
 total energy gain   :        -0.0000068 Eh       -0.0043 kcal/mol
 total RMSD          :         0.0078295 a0        0.0041 Å
 total power (kW/mol):        -0.0059319 (step)   -0.0001 (real)
------------------------------------------------------------------------

 L-ANCopt (total)              0 d,  0 h,  2 min,  8.397 sec
 setup                          ...        0 min,  0.003 sec (  0.002%)
 model hessian                  ...        0 min,  0.043 sec (  0.034%)
 ANC generation                 ...        0 min,  0.044 sec (  0.034%)
 coordinate transformation      ...        0 min,  0.007 sec (  0.006%)
 Rational function              ...        0 min,  0.000 sec (  0.000%)
 singlepoint calculation        ...        2 min,  8.280 sec ( 99.909%)
 optimization log               ...        0 min,  0.010 sec (  0.007%)
 hessian update                 ...        0 min,  0.001 sec (  0.001%)

================
 final structure:
================
$coord
        5.57673672455944       -2.09947453097913        0.15899676322464      C
        4.68137375336594        0.48025312073658       -0.76430657394749      C
        2.48728530490232        1.59648423825154        0.80118621404595      C
        0.13508346236754        0.08339606238391        0.61665527150683      C
       -2.08855196638806        0.94025595075312       -0.27524348680716      C
       -4.24918402141130       -0.72633884890141       -0.38916519650766      C
       -6.35253263393451       -0.10225899793024       -1.17152928971206      O
        6.11451848281926       -2.02382634313397        2.15724309264340      H
        4.11633486790435       -3.54868864587051       -0.05203156721188      H
        7.22882029268262       -2.72275891370874       -0.91792507408944      H
        4.09936693686281        0.36525468184849       -2.74951734853107      H
        6.24981361178413        1.82903820292030       -0.67695851760316      H
        2.11831272921954        3.54409423894908        0.21064380478783      H
        3.08198574345453        1.63664828852687        2.79251349142655      H
        0.23039707652598       -1.88091387529470        1.23586541383741      H
       -2.32304811380974        2.87828779213679       -0.92245654577350      H
       -3.92111235649508       -2.68043603607436        0.29325724301928      H
$end
 
 Bond Distances (Angstroems)
 ---------------------------
C1-C2=1.5254         C1-H8=1.0958         C1-H9=1.0945         C1-H10=1.0945        C2-C1=1.5254         C2-C3=1.5438         
C2-H11=1.0964        C2-H12=1.0956        C3-C2=1.5438         C3-C4=1.4832         C3-H13=1.0945        C3-H14=1.1000        
C4-C3=1.4832         C4-C5=1.3465         C4-H15=1.0911        C5-C4=1.3465         C5-C6=1.4452         C5-H16=1.0883        
C6-C5=1.4452         C6-O7=1.2326         C6-H17=1.1090        O7-C6=1.2326         H8-C1=1.0958         H9-C1=1.0945         
H10-C1=1.0945        H11-C2=1.0964        H12-C2=1.0956        H13-C3=1.0945        H14-C3=1.1000        H15-C4=1.0911        
H16-C5=1.0883        H17-C6=1.1090        
 C  H  Rav=1.0960 sigma=0.0052  Rmin=1.0883  Rmax=1.1090    10
 C  C  Rav=1.4688 sigma=0.0701  Rmin=1.3465  Rmax=1.5438     5
 O  C  Rav=1.2326 sigma=0.0000  Rmin=1.2326  Rmax=1.2326     1
 
 selected bond angles (degree)
 --------------------
H8-C1-C2=110.92                H9-C1-C2=112.03                H9-C1-H8=107.91                H10-C1-C2=110.55               
H10-C1-H8=107.82               H10-C1-H9=107.44               C3-C2-C1=113.84                H11-C2-C1=110.15               
H11-C2-C3=108.91               H12-C2-C1=109.52               H12-C2-C3=107.33               H12-C2-H11=106.82              
C4-C3-C2=112.91                H13-C3-C2=109.95               H13-C3-C4=109.87               H14-C3-C2=107.84               
H14-C3-C4=108.28               H14-C3-H13=107.84              C5-C4-C3=125.08                H15-C4-C3=117.11               
H15-C4-C5=117.81               C6-C5-C4=120.03                H16-C5-C4=121.82               H16-C5-C6=118.14               
O7-C6-C5=124.40                H17-C6-C5=115.57               H17-C6-O7=120.04               
 
 selected dihedral angles (degree)
 ---------------------------------
C3-C2-C1-H8=304.25            C3-C2-C1-H9= 64.89            C3-C2-C1-H10=184.69           H11-C2-C1-H8=181.59           
H11-C2-C1-H9=302.24           H11-C2-C1-H10= 62.04          H12-C2-C1-H8= 64.39           H12-C2-C1-H9=185.03           
H12-C2-C1-H10=304.84          C4-C3-C2-C1=295.20            C4-C3-C2-H11= 58.53           C4-C3-C2-H12=173.83           
H13-C3-C2-C1=172.11           H13-C3-C2-H11=295.44          H13-C3-C2-H12= 50.74          H14-C3-C2-C1= 54.78           
H14-C3-C2-H11=178.11          H14-C3-C2-H12=293.40          C5-C4-C3-C2=240.23            C5-C4-C3-H13=  3.36           
C5-C4-C3-H14=120.90           H15-C4-C3-C2= 59.55           H15-C4-C3-H13=182.68          H15-C4-C3-H14=300.22          
C6-C5-C4-C3=179.30            C6-C5-C4-H15=  0.00           H16-C5-C4-C3=359.20           H16-C5-C4-H15=179.89          
O7-C6-C5-C4=179.86            O7-C6-C5-H16=359.96           H17-C6-C5-C4=  0.00           H17-C6-C5-H16=180.11          
           -------------------------------------------------
          |                Final Singlepoint                |
           -------------------------------------------------
                         * ORCA takes the control...
  ------------------------------------------------------------------------

                                 *****************
                                 * O   R   C   A *
                                 *****************

                                            #,                                       
                                            ###                                      
                                            ####                                     
                                            #####                                    
                                            ######                                   
                                           ########,                                 
                                     ,,################,,,,,                         
                               ,,#################################,,                 
                          ,,##########################################,,             
                       ,#########################################, ''#####,          
                    ,#############################################,,   '####,        
                  ,##################################################,,,,####,       
                ,###########''''           ''''###############################       
              ,#####''   ,,,,##########,,,,          '''####'''          '####       
            ,##' ,,,,###########################,,,                        '##       
           ' ,,###''''                  '''############,,,                           
         ,,##''                                '''############,,,,        ,,,,,,###''
      ,#''                                            '''#######################'''  
     '                                                          ''''####''''         
             ,#######,   #######,   ,#######,      ##                                
            ,#'     '#,  ##    ##  ,#'     '#,    #''#        ,####,   ,####,        
            ##       ##  ##   ,#'  ##            #'  '#       #'       #'  '#        
            ##       ##  #######   ##           ,######,      #####,   #    #        
            '#,     ,#'  ##    ##  '#,     ,#' ,#      #,     #,   #   #,  ,#        
             '#######'   ##     ##  '#######'  #'      '#     '####' # '####'        



                #########################################################
                #                        -***-                          #
                #          Department of theory and spectroscopy        #
                #                                                       #
                #                      Frank Neese                      #
                #                                                       #
                #     Directorship, Architecture, Infrastructure        #
                #                    SHARK, DRIVERS                     #
                #        Core code/Algorithms in most modules           #
                #                                                       #
                #        Max Planck Institute fuer Kohlenforschung      #
                #                Kaiser Wilhelm Platz 1                 #
                #                 D-45470 Muelheim/Ruhr                 #
                #                      Germany                          #
                #                                                       #
                #                  All rights reserved                  #
                #                        -***-                          #
                #########################################################


                         Program Version 6.0.1  -  RELEASE   -


 With contributions from (in alphabetic order):
[Max-Planck-Institut fuer Kohlenforschung]                               
  Daniel Aravena         : Magnetic Suceptibility                        
  Michael Atanasov       : Ab Initio Ligand Field Theory (pilot matlab implementation)
  Alexander A. Auer      : GIAO ZORA, VPT2 properties, NMR spectrum      
  Ute Becker             : All parallelization in ORCA, NUMFREQ, NUMCALC 
  Giovanni Bistoni       : ED, misc. LED, open-shell LED, HFLD           
  Martin Brehm           : Molecular dynamics                            
  Dmytro Bykov           : pre 5.0 version of the SCF Hessian            
  Marcos Casanova-Páez   : Triplet and SCS-CIS(D). UHF-(DLPNO)-IP/EA/STEOM-CCSD. UHF-CVS-IP/STEOM-CCSD   
  Vijay G. Chilkuri      : MRCI spin determinant printing, contributions to CSF-ICE 
  Pauline Colinet        : FMM embedding                                 
  Dipayan Datta          : RHF DLPNO-CCSD density                        
  Achintya Kumar Dutta   : EOM-CC, STEOM-CC                              
  Nicolas Foglia         : Exact transition moments, OPA infrastructure, MCD improvements    
  Dmitry Ganyushin       : Spin-Orbit,Spin-Spin,Magnetic field MRCI      
  Miquel Garcia-Rates    : C-PCM and meta-GGA Hessian, CCSD/C-PCM, Gaussian charge scheme 
  Tiago L. C. Gouveia    : GS-ROHF, GS-ROCIS                             
  Yang Guo               : DLPNO-NEVPT2, F12-NEVPT2, CIM, IAO-localization        
  Andreas Hansen         : Spin unrestricted coupled pair/coupled cluster methods 
  Ingolf Harden          : AUTO-CI MPn and infrastructure                
  Benjamin Helmich-Paris : MC-RPA, TRAH-(SCF,CASSCF), AVAS, COSX integrals, SCF dyn. polar. 
  Lee Huntington         : MR-EOM, pCC                                   
  Robert Izsak           : Overlap fitted RIJCOSX, COSX-SCS-MP3, EOM     
  Riya Kayal             : Wick's Theorem for AUTO-CI, AUTO-CI UHF-CCSDT 
  Emily Kempfer          : AUTO-CI, RHF CISDT and CCSDT                  
  Christian Kollmar      : KDIIS, OOCD, Brueckner-CCSD(T), CCSD density, CASPT2, CASPT2-K, improved NEVPT2 
  Axel Koslowski         : Symmetry handling                             
  Simone Kossmann        : meta-GGA functionals, TD-DFT gradient, OOMP2, (MP2 Hessian; deprecated post 5.0) 
  Lucas Lang             : DCDCAS                                        
  Marvin Lechner         : AUTO-CI (C++ implementation), FIC-MRCC        
  Spencer Leger          : CASSCF response                               
  Dagmar Lenk            : GEPOL surface, SMD, ORCA-2-JSON               
  Dimitrios Liakos       : Extrapolation schemes; Compound Job, initial MDCI parallelization 
  Dimitrios Manganas     : Further ROCIS development; embedding schemes. LFT, Crystal Embedding 
  Dimitrios Pantazis     : SARC Basis sets                               
  Anastasios Papadopoulos: AUTO-CI, single reference methods and gradients 
  Taras Petrenko         : pre 6.0 DFT Hessian and TD-DFT gradient, (ASA, deprecated), ECA, 1-Electron XAS/XES, NRVS 
  Peter Pinski           : DLPNO-MP2, DLPNO-MP2 Gradient                 
  Christoph Reimann      : Effective Core Potentials                     
  Marius Retegan         : Local ZFS, SOC                                
  Christoph Riplinger    : Optimizer, TS searches, QM/MM, DLPNO-CCSD(T), (RO)-DLPNO pert. Triples 
  Michael Roemelt        : Original ROCIS implementation                 
  Masaaki Saitow         : Open-shell DLPNO-CCSD energy and density      
  Barbara Sandhoefer     : DKH picture change effects                    
  Kantharuban Sivalingam : CASSCF convergence/infrastructure, NEVPT2 and variants, FIC-MRCI 
  Bernardo de Souza      : ESD, SOC TD-DFT                               
  Georgi L. Stoychev     : AutoAux, RI-MP2 NMR, DLPNO-MP2 response, X2C  
  Van Anh Tran           : RI-MP2 g-tensors                              
  Willem Van den Heuvel  : Paramagnetic NMR                              
  Zikuan Wang            : NOTCH, Electric field optimization            
  Frank Wennmohs         : Technical directorship and infrastructure     
  Hang Xu                : AUTO-CI-Response properties                   
                                                                         
[FACCTs GmbH]                                                            
  Markus Bursch, Miquel Garcia-Rates, Christoph Riplinger, Bernardo de Souza, Georgi L. Stoychev 
                                                                 
  APM, Basis sets (HGBS, AHGBS, def-TZVP (Ac-Lr), def2-XVPD (La-Lu)), CI-OPT, improved COSX, DLPNO-Multilevel,           
  DOCKER, DRACO, updates on ESD, GOAT, IRC, LR-CPCM, MBIS, meta-GGA TD-DFT gradient, ML-optimized integration grids, 
  MM, NACMEs, nearIR, NEB, NEB-TS, NL-DFT gradient (VV10), 2- and 3-layer-ONIOM, interface openCOSMO-RS, QMMM,   
  Crystal-QMMM, SF, symmetry and pop. for TD-DFT, r2SCAN hybrids, SOLVATOR                                   
                                                                         
[Other institutions]                                                     
  V. Asgeirsson          : NEB                                           
  Christoph Bannwarth    : sTDA-DFT, sTD-DFT, PBEh-3c, B97-3c, D3        
  Sebastian Ehlert       : rSCAN, r2SCAN, r2SCAN-3c, D4, dhf basis sets  
  Marvin Friede          : D4 for Fr, Ra, Ac-Lr                          
  Lars Goerigk           : TD-DFT with DH, B97 family of functionals     
  Stefan Grimme          : VdW corrections, initial TS optimization, DFT functionals, gCP, sTDA/sTD-DF 
  Waldemar Hujo          : DFT-NL                                        
  H. Jonsson             : NEB                                           
  Holger Kruse           : gCP                                           
  Marcel Mueller         : wB97X-3c, vDZP basis set                      
  Hagen Neugebauer       : wr2SCAN                                       
  Tobias Risthaus        : range-separated hybrid DFT                    
  Lukas Wittmann         : regularized MP2, r2SCAN double-hybrids, wr2SCAN        
                                                                         
We gratefully acknowledge several colleagues who have allowed us to      
interface, adapt or use parts of their codes:                            
  Ed Valeev, F. Pavosevic, A. Kumar             : LibInt (2-el integral package), F12 methods 
  Garnet Chan, S. Sharma, J. Yang, R. Olivares  : DMRG                   
  Ulf Ekstrom                                   : XCFun DFT Library      
  Mihaly Kallay                                 : mrcc  (arbitrary order and MRCC methods)
  Frank Weinhold                                : gennbo (NPA and NBO analysis)           
  Simon Mueller                                 : openCOSMO-RS                            
  Christopher J. Cramer and Donald G. Truhlar   : smd solvation model                     
  S Lehtola, MJT Oliveira, MAL Marques          : LibXC Library                           
  Liviu Ungur et al                             : ANISO software                          


 Your calculation uses the libint2 library for the computation of 2-el integrals
 For citations please refer to: http://libint.valeyev.net

 Your ORCA version has been built with support for libXC version: 6.2.2
 For citations please refer to: https://libxc.gitlab.io

 This ORCA versions uses:
   CBLAS   interface :  Fast vector & matrix operations
   LAPACKE interface :  Fast linear algebra routines
   SCALAPACK package :  Parallel linear algebra routines
   Shared memory     :  Shared parallel matrices
   BLAS/LAPACK       :  OpenBLAS 0.3.27  USE64BITINT DYNAMIC_ARCH NO_AFFINITY Zen SINGLE_THREADED
        Core in use  :  Zen
   Copyright (c) 2011-2014, The OpenBLAS Project




***************************************
The coordinates will be read from file: xtb_opt.xyz
***************************************


Your calculation utilizes the geometrical counterpoise correction gCP
Please cite in your paper:
H.Kruse, S. Grimme J.Chem.Phys., 136, (2012), 154101 
   

Your calculation utilizes the atom-pairwise dispersion correction
based on EEQ partial charges (D4)


Your calculation utilizes the SMD solvation module
Please cite in your paper:
A.V. Marenich, C.J. Cramer, D.G. Truhlar J. Phys. Chem. B, 113, (2009), 6378 

================================================================================

----- Orbital basis set information -----
Your calculation utilizes the basis: def2-mTZVPP
   Stefan Grimme, Andreas Hansen, Sebastian Ehlert, and Jan-Michael Mewes 
   J. Chem. Phys. 154, 064103 (2021). DOI: 10.1063/5.0040021

----- AuxJ basis set information -----
Your calculation utilizes the auxiliary basis: def2/J
   F. Weigend, Phys. Chem. Chem. Phys. 8, 1057 (2006).

================================================================================
                                        WARNINGS
                       Please study these warnings very carefully!
================================================================================

WARNING: Old DensityContainer found on disk!
         Will remove this file - 
         If you want to keep old densities, please start your calculation with a different basename. 



WARNING: SCAN, rSCAN, or r2SCAN functional requested.
  ===> : libXC variant has now been activated.



================================================================================
                                       INPUT FILE
================================================================================
NAME = xtb_opt.inp
|  1> ! r2scan-3c def2/J RI DEFGRID2 scfconv7 ENGRAD tightSCF miniprint
|  2> %cpcm
|  3>     smd true
|  4>     smdsolvent "water"
|  5> end
|  6> * xyzfile 0 1 xtb_opt.xyz
|  7> 
|  8>                          ****END OF INPUT****
================================================================================

                     *******************************
                     * Energy+Gradient Calculation *
                     *******************************

---------------------------------
CARTESIAN COORDINATES (ANGSTROEM)
---------------------------------
  C      2.951082   -1.110994    0.084137
  C      2.477276    0.254139   -0.404454
  C      1.316215    0.844823    0.423969
  C      0.071483    0.044131    0.326320
  C     -1.105214    0.497562   -0.145653
  C     -2.248571   -0.384362   -0.205937
  O     -3.361616   -0.054113   -0.619947
  H      3.235664   -1.070963    1.141564
  H      2.178271   -1.877885   -0.027534
  H      3.825327   -1.440822   -0.485745
  H      2.169292    0.193284   -1.454982
  H      3.307259    0.967885   -0.358231
  H      1.120963    1.875454    0.111468
  H      1.630917    0.866077    1.477735
  H      0.121921   -0.995337    0.653992
  H     -1.229304    1.523124   -0.488143
  H     -2.074963   -1.418426    0.155185

----------------------------
CARTESIAN COORDINATES (A.U.)
----------------------------
  NO LB      ZA    FRAG     MASS         X           Y           Z
   0 C     6.0000    0    12.011    5.576737   -2.099475    0.158997
   1 C     6.0000    0    12.011    4.681374    0.480253   -0.764307
   2 C     6.0000    0    12.011    2.487285    1.596484    0.801186
   3 C     6.0000    0    12.011    0.135083    0.083396    0.616655
   4 C     6.0000    0    12.011   -2.088552    0.940256   -0.275243
   5 C     6.0000    0    12.011   -4.249184   -0.726339   -0.389165
   6 O     8.0000    0    15.999   -6.352533   -0.102259   -1.171529
   7 H     1.0000    0     1.008    6.114519   -2.023826    2.157243
   8 H     1.0000    0     1.008    4.116335   -3.548689   -0.052032
   9 H     1.0000    0     1.008    7.228820   -2.722759   -0.917925
  10 H     1.0000    0     1.008    4.099367    0.365255   -2.749517
  11 H     1.0000    0     1.008    6.249814    1.829038   -0.676959
  12 H     1.0000    0     1.008    2.118313    3.544094    0.210644
  13 H     1.0000    0     1.008    3.081986    1.636648    2.792514
  14 H     1.0000    0     1.008    0.230397   -1.880914    1.235865
  15 H     1.0000    0     1.008   -2.323048    2.878288   -0.922457
  16 H     1.0000    0     1.008   -3.921112   -2.680436    0.293257

------------------------------------------------------------------------------
                   ___                                                        
                  /   \      - P O W E R E D   B Y -                         
                 /     \                                                     
                 |  |  |   _    _      __       _____    __    __             
                 |  |  |  | |  | |    /  \     |  _  \  |  |  /  |          
                  \  \/   | |  | |   /    \    | | | |  |  | /  /          
                 / \  \   | |__| |  /  /\  \   | |_| |  |  |/  /          
                |  |  |   |  __  | /  /__\  \  |    /   |      \           
                |  |  |   | |  | | |   __   |  |    \   |  |\   \          
                \     /   | |  | | |  |  |  |  | |\  \  |  | \   \       
                 \___/    |_|  |_| |__|  |__|  |_| \__\ |__|  \__/        
                                                                              
                      - O R C A' S   B I G   F R I E N D -                    
                                      &                                       
                       - I N T E G R A L  F E E D E R -                       
                                                                              
 v1 FN, 2020, v2 2021, v3 2022-2024                                           
------------------------------------------------------------------------------


----------------------
SHARK INTEGRAL PACKAGE
----------------------

Number of atoms                             ...     17
Number of basis functions                   ...    188
Number of shells                            ...     94
Maximum angular momentum                    ...      2
Integral batch strategy                     ... SHARK/LIBINT Hybrid
RI-J (if used) integral strategy            ... SPLIT-RIJ (Revised 2003 algorithm where possible)
Printlevel                                  ...      1
Contraction scheme used                     ... SEGMENTED contraction
Prescreening option                         ... SCHWARTZ
   Thresh                                   ... 3.000e-11
   Tcut                                     ... 1.000e-12
   Tpresel                                  ... 1.000e-12 
Coulomb Range Separation                    ... NOT USED
Exchange Range Separation                   ... NOT USED
Multipole approximations                    ... NOT USED
Finite Nucleus Model                        ... NOT USED
CABS basis                                  ... NOT available
Auxiliary Coulomb fitting basis             ... AVAILABLE
   # of basis functions in Aux-J            ...    453
   # of shells in Aux-J                     ...    155
   Maximum angular momentum in Aux-J        ...      4
Auxiliary J/K fitting basis                 ... NOT available
Auxiliary Correlation fitting basis         ... NOT available
Auxiliary 'external' fitting basis          ... NOT available

Checking pre-screening integrals            ... done (  0.0 sec) Dimension = 94
Check shell pair data                       ... done (  0.0 sec)
Shell pair information
Shell pair cut-off parameter TPreSel        ...   1.0e-12
Total number of shell pairs                 ...      4465
Shell pairs after pre-screening             ...      3953
Total number of primitive shell pairs       ...     15937
Primitive shell pairs kept                  ...     10242
          la=0 lb=0:   1344 shell pairs
          la=1 lb=0:   1524 shell pairs
          la=1 lb=1:    451 shell pairs
          la=2 lb=0:    382 shell pairs
          la=2 lb=1:    220 shell pairs
          la=2 lb=2:     32 shell pairs

Calculating one electron integrals          ... done (  0.0 sec)
Calculating RI/J V-Matrix + Cholesky decomp.... done (  0.0 sec)
Calculating Nuclear repulsion               ... done (  0.0 sec) ENN=    275.562304595659 Eh

Diagonalization of the overlap matrix:
Smallest eigenvalue                        ... 1.447e-04
Time for diagonalization                   ...    0.007 sec
Threshold for overlap eigenvalues          ... 1.000e-07
Number of eigenvalues below threshold      ... 0
Time for construction of square roots      ...    0.006 sec
Total time needed                          ...    0.014 sec

-------------------
DFT GRID GENERATION
-------------------

General Integration Accuracy     IntAcc      ... 4.388
Radial Grid Type                 RadialGrid  ... OptM3 with GC (2021)
Angular Grid (max. ang.)         AngularGrid ... 4 (Lebedev-302)
Angular grid pruning method      GridPruning ... 4 (adaptive)
Weight generation scheme         WeightScheme... mBecke (2022)
Basis function cutoff            BFCut       ... 1.0000e-11
Integration weight cutoff        WCut        ... 1.0000e-14
Partially contracted basis set               ... off
Rotationally invariant grid construction     ... off
Angular grids for H and He will be reduced by one unit
Diffuse basis detected: some atoms will have their outermost
                        angular grid increased by 1.

Total number of grid points                  ...    74713
Total number of batches                      ...     1176
Average number of points per batch           ...       63
Average number of grid points per atom       ...     4395
Initializing property integral containers    ... done (  0.0 sec)

SHARK setup successfully completed in   0.8 seconds

Maximum memory used throughout the entire STARTUP-calculation: 33.8 MB
Occupation numbers will be reassigned to an Aufbau configuration
             **** ENERGY FILE WAS UPDATED (xtb_opt.en.tmp) ****
Finished Guess after   0.1 sec
Maximum memory used throughout the entire GUESS-calculation: 13.1 MB
--------------------
CPCM SOLVATION MODEL
--------------------
CPCM parameters:
  Epsilon                                         ...      78.3550
  Refrac                                          ...       1.3328
  Rsolv                                           ...       1.3000
  Surface type                                    ... GAUSSIAN VDW
  Discretization scheme                           ... Constant charge density
    Threshold for H atoms                         ...       5.0000 (charges/Ang^2)
    Threshold for non-H atoms                     ...       5.0000 (charges/Ang^2)
  Epsilon function type                           ...         CPCM
Solvent:                                          ... WATER
SMD-CDS solvent descriptors:
  Soln                                            ...       1.3328
  Soln25                                          ...       1.3323
  Sola                                            ...       0.0000
  Solb                                            ...       0.0000
  Solg                                            ...       0.0000
  Solc                                            ...       0.0000
  Solh                                            ...       0.0000
Radii:
  Scheme                                          ... Element-dependent radii
  Radius for C  used is    3.4960 Bohr (=   1.8500 Ang.)
  Radius for O  used is    2.8724 Bohr (=   1.5200 Ang.)
  Radius for H  used is    2.2677 Bohr (=   1.2000 Ang.)
Calculating surface                               ...        done! (  0.0s)
Cavity surface points                             ...         1313
Cavity Volume                                     ...     795.0552
Cavity Surface-area                               ...     531.8805
Calculating surface distance matrix               ...        done! (  0.0s)
Performing Cholesky decomposition & store         ...        done! (  0.0s)
Overall time for CPCM initialization              ...                 0.1s

----------------------------------------D-I-I-S--------------------------------------------
Iteration    Energy (Eh)           Delta-E    RMSDP     MaxDP     DIISErr   Damp  Time(sec)
-------------------------------------------------------------------------------------------
               ***  Starting incremental Fock matrix formation  ***
                              *** Initializing SOSCF ***
---------------------------------------S-O-S-C-F--------------------------------------
Iteration    Energy (Eh)           Delta-E    RMSDP     MaxDP     MaxGrad    Time(sec)
--------------------------------------------------------------------------------------
    1    -309.7896369962008407     0.00e+00  1.78e-06  4.76e-05  9.04e-06     1.8
               *** Restarting incremental Fock matrix formation ***
    2    -309.7896369976836581    -1.48e-09  3.10e-06  1.57e-04  2.00e-05     2.6
                  *** Gradient check signals convergence ***

               *****************************************************
               *                     SUCCESS                       *
               *           SCF CONVERGED AFTER   2 CYCLES          *
               *****************************************************


SMD CDS free energy correction energy :                 4.68073     Kcal/mol
Total Energy after SMD CDS correction =              -309.782177786 Eh
             **** ENERGY FILE WAS UPDATED (xtb_opt.en.tmp) ****

----------------
TOTAL SCF ENERGY
----------------

Total Energy       :       -309.78217778587776 Eh           -8429.60161 eV

Components:
Nuclear Repulsion  :        275.56230459565944 Eh            7498.43152 eV
Electronic Energy  :       -585.33134120862860 Eh          -15927.67554 eV
One Electron Energy:       -963.64556380961835 Eh          -26222.12890 eV
Two Electron Energy:        378.31422260098981 Eh           10294.45336 eV
CPCM Dielectric    :         -0.02060038471465 Eh              -0.56056 eV
SMD CDS (Gcds)     :          0.00745921180592 Eh               0.20298 eV

Virial components:
Potential Energy   :       -618.10904646090421 Eh          -16819.60225 eV
Kinetic Energy     :        308.32686867502645 Eh            8390.00064 eV
Virial Ratio       :          2.00472002040271

DFT components:
N(Alpha)           :       27.000006176892 electrons
N(Beta)            :       27.000006176892 electrons
N(Total)           :       54.000012353784 electrons
E(X)               :      -43.010017605966 Eh       
E(C)               :       -1.698148968020 Eh       
E(XC)              :      -44.708166573985 Eh       

CPCM Solvation Model Properties:
Surface-charge          :         -0.04771361335179
Corrected charge        :          0.00000000000000
Outlying charge corr.   :          0.00017840989579 Eh               0.00485 eV
Free-energy (cav+disp)  :          0.00745921180592 Eh               0.20298 eV

---------------
SCF CONVERGENCE
---------------

  Last Energy change         ...    1.4828e-09  Tolerance :   1.0000e-07
  Last MAX-Density change    ...    1.5697e-04  Tolerance :   1.0000e-07
  Last RMS-Density change    ...    3.1040e-06  Tolerance :   5.0000e-09
  Last DIIS Error            ...    4.3299e-05  Tolerance :   1.0000e-07
  Last Orbital Gradient      ...    2.0049e-05  Tolerance :   1.0000e-04
  Last Orbital Rotation      ...    7.1675e-05  Tolerance :   1.0000e-04


----------------
ORBITAL ENERGIES
----------------

  NO   OCC          E(Eh)            E(eV) 
   0   2.0000     -18.949035      -515.6295 
   1   2.0000     -10.118360      -275.3346 
   2   2.0000     -10.063097      -273.8308 
   3   2.0000     -10.038778      -273.1690 
   4   2.0000     -10.034521      -273.0532 
   5   2.0000     -10.029598      -272.9192 
   6   2.0000     -10.013644      -272.4851 
   7   2.0000      -1.004847       -27.3433 
   8   2.0000      -0.790103       -21.4998 
   9   2.0000      -0.737105       -20.0577 
  10   2.0000      -0.665529       -18.1100 
  11   2.0000      -0.590981       -16.0814 
  12   2.0000      -0.541627       -14.7384 
  13   2.0000      -0.528238       -14.3741 
  14   2.0000      -0.453900       -12.3512 
  15   2.0000      -0.436204       -11.8697 
  16   2.0000      -0.408909       -11.1270 
  17   2.0000      -0.396321       -10.7844 
  18   2.0000      -0.380570       -10.3558 
  19   2.0000      -0.371237       -10.1019 
  20   2.0000      -0.355597        -9.6763 
  21   2.0000      -0.349431        -9.5085 
  22   2.0000      -0.312391        -8.5006 
  23   2.0000      -0.304140        -8.2761 
  24   2.0000      -0.295604        -8.0438 
  25   2.0000      -0.253706        -6.9037 
  26   2.0000      -0.231198        -6.2912 
  27   0.0000      -0.091524        -2.4905 
  28   0.0000       0.021090         0.5739 
  29   0.0000       0.101489         2.7616 
  30   0.0000       0.111988         3.0474 
  31   0.0000       0.117170         3.1884 
  32   0.0000       0.127110         3.4588 
  33   0.0000       0.137791         3.7495 
  34   0.0000       0.145097         3.9483 
  35   0.0000       0.151322         4.1177 
  36   0.0000       0.158045         4.3006 
  37   0.0000       0.162845         4.4312 
*Only the first 10 virtual orbitals were printed.
Total SCF time: 0 days 0 hours 0 min 6 sec 
Finished LeanSCF after   8.7 sec

Maximum memory used throughout the entire LEANSCF-calculation: 24.5 MB


-------------------------------------------------------------------------------
                          DFT DISPERSION CORRECTION                            
                                                                               
                                DFTD4 V3.4.0                                   
-------------------------------------------------------------------------------
-------------------------   ----------------
Dispersion correction           -0.004186405
-------------------------   ----------------

------------------   -----------------
gCP correction             0.006785461
------------------   -----------------

-------------------------   --------------------
FINAL SINGLE POINT ENERGY      -309.779578729941
-------------------------   --------------------

------------------------------------------------------------------------------
                         ORCA SCF GRADIENT CALCULATION
------------------------------------------------------------------------------

Nuc. rep. gradient        (SHARK) ... done (  0.0 sec)
HCore & Overlap gradient  (SHARK) ... done (  0.2 sec)
Split-RIJ-J gradient      (SHARK) ... done (  1.1 sec)
XC gradient                       ... done (  3.8 sec)
CPCM gradient                     ... done (  1.1 sec)
SMD gradient                      ... done (  0.0 sec)
Dispersion correction             ... done (  0.0 sec)

-------------------
DISPERSION GRADIENT
-------------------

   1   C   :    0.000066155   -0.000042534    0.000001661
   2   C   :    0.000062622    0.000009999   -0.000015502
   3   C   :    0.000032566    0.000041390    0.000018877
   4   C   :   -0.000024581    0.000008613    0.000018384
   5   C   :   -0.000078449    0.000020930   -0.000003313
   6   C   :   -0.000080875   -0.000018270   -0.000006391
   7   O   :   -0.000062401   -0.000005929   -0.000014663
   8   H   :    0.000028607   -0.000016517    0.000006876
   9   H   :    0.000031440   -0.000027101   -0.000002073
  10   H   :    0.000026211   -0.000017760   -0.000006078
  11   H   :    0.000028356    0.000002288   -0.000017420
  12   H   :    0.000025812    0.000008529   -0.000006070
  13   H   :    0.000007445    0.000028433    0.000002938
  14   H   :    0.000012759    0.000015609    0.000018343
  15   H   :   -0.000012462   -0.000009870    0.000011815
  16   H   :   -0.000028535    0.000016397   -0.000006083
  17   H   :   -0.000034669   -0.000014206   -0.000001299

Difference to translation invariance:
           :   -0.0000000000   -0.0000000000   -0.0000000000

Difference to rotation invariance:
           :   -0.0000000000    0.0000000000    0.0000000000

Norm of the Dispersion gradient    ...    0.0002063638
RMS gradient                       ...    0.0000288967
MAX gradient                       ...    0.0000808745
gCP correction                   ... done

------------------
CARTESIAN GRADIENT
------------------

   1   C   :   -0.000087244    0.000015013    0.000105734
   2   C   :    0.000180937    0.000130705   -0.000085537
   3   C   :    0.000029005   -0.000195521   -0.000158161
   4   C   :   -0.000060552    0.000136738    0.000354156
   5   C   :   -0.000065631   -0.000009704   -0.000025509
   6   C   :    0.000059462   -0.000063874   -0.000432322
   7   O   :    0.000006526    0.000039687    0.000156128
   8   H   :    0.000032685   -0.000022261    0.000028920
   9   H   :    0.000019390   -0.000063621    0.000013340
  10   H   :   -0.000027469    0.000072758    0.000002875
  11   H   :   -0.000059265    0.000017184   -0.000009195
  12   H   :    0.000026539    0.000047850   -0.000054720
  13   H   :    0.000041725   -0.000011230   -0.000013914
  14   H   :   -0.000055459   -0.000028829   -0.000015002
  15   H   :    0.000033703   -0.000111265   -0.000058210
  16   H   :   -0.000039629    0.000059967    0.000065566
  17   H   :   -0.000034723   -0.000013596    0.000125852

Difference to translation invariance:
           :   -0.0000000000   -0.0000000000   -0.0000000000

Difference to rotation invariance:
           :    0.0001175239    0.0001025802    0.0003953020

Norm of the Cartesian gradient     ...    0.0007657176
RMS gradient                       ...    0.0001072219
MAX gradient                       ...    0.0004323219

-------
TIMINGS
-------

Total SCF gradient time     ....        6.195 sec

Densities                   ....       0.001 sec  (  0.0%)
One electron gradient       ....       0.172 sec  (  2.8%)
RI-J Coulomb gradient       ....       1.074 sec  ( 17.3%)
XC gradient                 ....       3.844 sec  ( 62.1%)
CPCM gradient               ....       1.057 sec  ( 17.1%)
   A-Matrix (El+Nuc)        ....       0.066 sec  (  1.1%)
   Potential                ....       0.991 sec  ( 16.0%)
SMD gradient                ....       0.003 sec  (  0.1%)

Maximum memory used throughout the entire SCFGRAD-calculation: 33.2 MB

------------------------------------------------------------------------------
                              ORCA PROPERTY CALCULATIONS
------------------------------------------------------------------------------

GBWName                                 ... xtb_opt.gbw
Number of atoms                         ...     17
Number of basis functions               ...    188
Max core memory                         ...   1024 MB

Electric properties:
Dipole moment                           ... YES
Quadrupole moment                       ...  NO
Static polarizability (Dipole/Dipole)   ...  NO
Static polarizability (Dipole/Quad.)    ...  NO
Static polarizability (Quad./Quad.)     ...  NO
Static polarizability (Velocity)        ...  NO

Atomic electric properties:
Dipole moment                           ...  NO
Quadrupole moment                       ...  NO
Static polarizability                   ...  NO

Choice of electric origin               ... Center of mass
Position of electric origin             ...     0.042407    -0.009804    -0.158771

General magnetic properties:
Magnetizability                         ...  NO

EPR properties:
g-Tensor (aka g-matrix)                 ...  NO
Zero-Field splitting spin-orbit         ...  NO
Zero-field splitting spin-spin          ...  NO
Hyperfine couplings                     ...  NO (   0 nuclei)
Quadrupole couplings                    ...  NO (   0 nuclei)
Contact density                         ...  NO (   0 nuclei)

NMR properties:
Chemical shifts                         ...  NO (   0 nuclei)
Spin-rotation constants                 ...  NO (   0 nuclei)
Spin-spin couplings                     ...  NO (   0 nuclei,    0 pairs)

Choice of magnetic origin               ... GIAO
Position of magnetic origin             ...     0.000000     0.000000     0.000000

Properties with geometric perturbations:
SCF Hessian                             ...  NO
IR spectrum                             ...  NO
VCD spectrum                            ...  NO
X-ray spectroscopy properties:
SCF XES/XAS/RIXS spectra                ...  NO


-------------
DIPOLE MOMENT
-------------

Method             : SCF
Type of density    : Electron Density
Multiplicity       :   1
Irrep              :   0
Energy             :  -309.7821777858777637 Eh
Relativity type    : 
Basis              : AO
                                X                 Y                 Z
Electronic contribution:    -10.634240771       1.106784101      -0.782064272
Nuclear contribution   :     13.141589437      -1.244488046       1.460778781
                        -----------------------------------------
Total Dipole Moment    :      2.507348667      -0.137703945       0.678714509
                        -----------------------------------------
Magnitude (a.u.)       :      2.601232996
Magnitude (Debye)      :      6.611808826



--------------------
Rotational spectrum 
--------------------
 
Rotational constants in cm-1:             0.275570             0.031820             0.030059 
Rotational constants in MHz :          8261.394036           953.942358           901.152951 

Dipole components along the rotational axes: 
x,y,z [a.u.] :     2.556312     0.004075     0.481319 
x,y,z [Debye]:     6.497628     0.010357     1.223415 

 

Dipole moment calculation done in   0.3 sec 

Maximum memory used throughout the entire PROP-calculation: 11.6 MB

--------------------------------
SUGGESTED CITATIONS FOR THIS RUN
--------------------------------

Below you find a list of papers that are relevant to this ORCA run
We neither can nor want to force you to cite these papers, but we appreciate if you do
You receive ORCA, which is the product of decades of hard work by many enthusiastic individuals, for free
The only thing we kindly ask in return is that you cite our papers,
We deeply appreciate it, if you show your appreciation for ORCA by not just citing the generic ORCA reference.

Please note that relegating all ORCA citations to the supporting information does *not* help us.
SI sections are not indexed - citations you put there will not count into any citation statistics
But we need these citations in order to attract the funding resources that allow us to do what we are doing

Therefore, if you are a happy ORCA user, please consider citing a few of the papers listed below in the main body of your paper

In addition to the list printed below, the program has created the file xtb_opt.bibtex that contains the list in bibtex format
You can import this file easily into all common literature databanks and citation aid programs


List of essential papers. We consider these as the minimum necessary citations

  1. Neese,F.
     Software update: the ORCA program system, version 5.0
     WIRES Comput. Molec. Sci., 2022 12(1)e1606
     doi.org/10.1002/wcms.1606
  2. Grimme,S.; Hansen,A.; Ehlert,S.; Mewes,J.
     r2SCAN-3c: A 'Swiss army knife' composite electronic-structure method
     J. Chem. Phys., 2021 154 064103
     doi.org/10.1063/5.0040021

List of papers to cite with high priority. The work reported in these papers was absolutely
necessary for this run to complete.
Our perspective: the developers of density functionals and basis sets usually get cited in chemistry papers
Good! But without the algorithms to do something with them, the functionals or basis sets would not do anything.
Hence, in our opinion, the algorithm design and method developments papers are equally worthy of getting cited

  1. Neese,F.
     An improvement of the resolution of the identity approximation for the formation of the Coulomb matrix
     J. Comp. Chem., 2003 24(14)1740-1747
     doi.org/10.1002/jcc.10318
  2. Garcia-Rates,M.; Neese,F.
     Effect of the Solute Cavity on the Solvation Energy and its Derivatives within the Framework of the Gaussian Charge Scheme
     J. Comput. Chem., 2020 41 922-939
     doi.org/10.1002/jcc.26139
  3. Neese,F.
     The SHARK Integral Generation and Digestion System
     J. Comp. Chem., 2022  1-16
     doi.org/10.1002/jcc.26942
  4. Lehtola,S.; Steigemann,C.; Oliveira,M.; Marques,M.
     Recent developments in Libxc - A comprehensive library of functionals for density functional theory
     Software X, 2018 7 
     doi.org/10.1016/j.softx.2017.11.002
  5. Caldeweyher,E.; Bannwarth,C.; Grimme,S.
     Extension of the D3 dispersion coefficient model
     J. Chem. Phys., 2017 147 034112
     doi.org/10.1063/1.4993215
  6. Caldeweyher,E.; Ehlert,S.; Hansen,A.; Neugebauer,H.; Spicher,S.; Bannwarth,C.; Grimme,S.
     A generally applicable atomic-charge dependent London dispersion correction
     J. Chem. Phys., 2019 150 154122
     doi.org/10.1063/1.5090222
  7. Caldeweyher,E.; Mewes,J.; Ehlert,S.; Grimme,S.
     Extension and evaluation of the D4 London-dispersion model for periodic systems
     Phys. Chem. Chem. Phys., 2020 22(16)8499-8512
     doi.org/10.1039/D0CP00502A
  8. Wittmann,L.; Gordiy,I.; Friede,M.; Helmich-Paris,B.; Grimme,S.; Hansen,A.; Bursch,M.
     Extension of the D3 and D4 London Dispersion Corrections to the full Actinides Series
     Phys. Chem. Chem. Phys., 2024 26(32)21379-21394
     doi.org/https://doi.org/10.1039/D4CP01514B 

List of suggested additional citations. These are papers that are important in the 'surrounding' of 
of this run, or papers that preceded the highly important papers. If you like your results we are grateful for a citation.

  1. Neese,F.
     The ORCA program system
     WIRES Comput. Molec. Sci., 2012 2(1)73-78
     doi.org/10.1002/wcms.81
  2. Neese,F.
     Software update: the ORCA program system, version 4.0
     WIRES Comput. Molec. Sci., 2018 8(1)1-6
     doi.org/10.1002/wcms.1327
  3. Neese,F.; Wennmohs,F.; Becker,U.; Riplinger,C.
     The ORCA quantum chemistry program package
     J. Chem. Phys., 2020 152 Art. No. L224108
     doi.org/10.1063/5.0004608

List of optional additional citations

  1. Neese,F.
     Approximate second-order SCF convergence for spin unrestricted wavefunctions
     Chem. Phys. Lett., 2000 325(1-3)93-98
     doi.org/10.1016/s0009-2614(00)00662-x

Timings for individual modules:

Sum of individual times          ...       16.717 sec (=   0.279 min)
Startup calculation              ...        0.823 sec (=   0.014 min)   4.9 %
SCF iterations                   ...        8.883 sec (=   0.148 min)  53.1 %
Property calculations            ...        0.368 sec (=   0.006 min)   2.2 %
SCF Gradient evaluation          ...        6.643 sec (=   0.111 min)  39.7 %
                             ****ORCA TERMINATED NORMALLY****
TOTAL RUN TIME: 0 days 0 hours 0 minutes 20 seconds 751 msec
  ------------------------------------------------------------------------
          * successful ORCA run, taking over control again...

         :::::::::::::::::::::::::::::::::::::::::::::::::::::
         ::                  ORCA SUMMARY                   ::
         :::::::::::::::::::::::::::::::::::::::::::::::::::::
         :: total energy            -309.779578729941 Eh    ::
         :: gradient norm              0.000765717604 Eh/a0 ::
         :: HOMO-LUMO gap              0.000000000000 eV    ::
         :::::::::::::::::::::::::::::::::::::::::::::::::::::

           -------------------------------------------------
          |                Property Printout                |
           -------------------------------------------------
           -------------------------------------------------
          |                Geometry Summary                 |
           -------------------------------------------------

      molecular mass/u    :       98.1432278
   center of mass at/Å    :        0.0224096      -0.0051881      -0.0840228
  moments of inertia/u·Å² :        0.6117149E+02   0.5297749E+03   0.5608083E+03
rotational constants/cm⁻¹ :        0.2755799E+00   0.3182037E-01   0.3005953E-01

 * 13 selected distances

     #   Z          #   Z                                           value/Å
     1   6 C        2   6 C                                       1.5253858 (max)
     3   6 C        4   6 C                                       1.4832397
     4   6 C        5   6 C                                       1.3464673
     6   6 C        7   8 O                                       1.2326133
     1   6 C        8   1 H                                       1.0957829
     1   6 C        9   1 H                                       1.0944542
     1   6 C       10   1 H                                       1.0944665
     2   6 C       11   1 H                                       1.0964341
     2   6 C       12   1 H                                       1.0956467
     3   6 C       13   1 H                                       1.0945230
     3   6 C       14   1 H                                       1.0999591
     4   6 C       15   1 H                                       1.0910577
     5   6 C       16   1 H                                       1.0883364 (min)

 * 3 distinct bonds (by element types)

   Z      Z             #   av. dist./Å        max./Å        min./Å
   1 H    6 C           9     1.0945179     1.0999591     1.0883364
   6 C    6 C           3     1.4516976     1.5253858     1.3464673
   6 C    8 O           1     1.2326133     1.2326133     1.2326133


optimized geometry written to: xtbopt.coord


           -------------------------------------------------
          | TOTAL ENERGY             -309.779578729941 Eh   |
          | GRADIENT NORM               0.000765717604 Eh/α |
           -------------------------------------------------

------------------------------------------------------------------------
 * finished run on 2025/04/11 at 14:52:22.793     
------------------------------------------------------------------------
 total:
 * wall-time:     0 d,  0 h,  2 min, 59.918 sec
 *  cpu-time:     0 d,  0 h,  0 min,  9.067 sec
 * ratio c/w:     0.050 speedup
 SCF:
 * wall-time:     0 d,  0 h,  0 min, 30.516 sec
 *  cpu-time:     0 d,  0 h,  0 min,  2.792 sec
 * ratio c/w:     0.091 speedup
 ANC optimizer:
 * wall-time:     0 d,  0 h,  2 min, 29.350 sec
 *  cpu-time:     0 d,  0 h,  0 min,  6.202 sec
 * ratio c/w:     0.042 speedup

