! r2scan-3c def2/J RI DEFGRID2 scfconv6 printgap
%output
    printlevel normal
end
* xyz 0 1
C -3.3188942716 -0.8571245753 0.2318029474
C -1.9159654537 -0.5790640709 -0.2942228095
C -1.5047749497 0.8730455265 -0.0593467413
C -0.1117387354 1.1687197585 -0.6214400948
C 0.9479192248 0.4080925165 0.1318752305
O 1.0619499641 0.3740324387 1.3389666282
O 1.7713487772 -0.2332303585 -0.6916850433
C 2.8388714188 -0.9855372108 -0.108953522
H -3.368486396 -0.6624339758 1.3006146769
H -4.0443892288 -0.2196469801 -0.2676885768
H -3.5929938774 -1.8943989904 0.0578925047
H -1.2022902469 -1.2387070625 0.2064657507
H -1.8776144558 -0.7981080696 -1.3634739649
H -1.500759146 1.0799909769 1.012746621
H -2.2276363899 1.5368847314 -0.5348495647
H 0.1074486614 2.2317341703 -0.505284312
H -0.0459174328 0.9034813908 -1.6759941429
H 2.4342895763 -1.8036435738 0.4881235119
H 3.441568107 -0.3424227832 0.5333270773
H 3.4212036196 -1.3630657687 -0.9432914049
*
