! pbe def2-sv(p) def2/J RI DEFGRID1 loosescf d4 GCP(DFT/SV(P)) printgap
%output
    printlevel normal
end
* xyz 0 1
C 2.0133314001 -0.6361240246 -0.1784030997
C 1.1177967943 0.3173119495 0.6058715793
C 0.0006317382 0.932503548 -0.2404287234
C -1.0906032519 -0.0516487875 -0.6664131921
N -1.943076706 -0.4081755716 0.4622625926
H 2.4455763424 -0.1283285301 -1.0377847764
H 2.8232542326 -0.9957897469 0.4517990923
H 1.4559341644 -1.4983711454 -0.5359030292
H 0.6872645953 -0.204655701 1.4625510084
H 1.7323691108 1.1301291599 0.9987571625
H -0.4790538316 1.7296423912 0.3292120877
H 0.439658409 1.3719224754 -1.1382076651
H -0.6309835631 -0.9278447118 -1.1524657466
H -1.7306282189 0.4362105218 -1.4076374883
H -1.3950558656 -0.8942348257 1.1642652159
H -2.6697366975 -1.0440811342 0.1540150746
*
