      -----------------------------------------------------------      
     |                   =====================                   |     
     |                           x T B                           |     
     |                   =====================                   |     
     |                         S. Grimme                         |     
     |          Mulliken Center for Theoretical Chemistry        |     
     |                    University of Bonn                     |     
      -----------------------------------------------------------      

   * xtb version 6.7.1 (edcfbbe) compiled by 'albert@albert-system' on 2024-07-22

   xtb is free software: you can redistribute it and/or modify it under
   the terms of the GNU Lesser General Public License as published by
   the Free Software Foundation, either version 3 of the License, or
   (at your option) any later version.
   
   xtb is distributed in the hope that it will be useful,
   but WITHOUT ANY WARRANTY; without even the implied warranty of
   MERCHANTABILITY or FITNESS FOR A PARTICULAR PURPOSE.  See the
   GNU Lesser General Public License for more details.
   
   Cite this work as:
   * C. Bannwarth, E. Caldeweyher, S. Ehlert, A. Hansen, P. Pracht,
     J. Seibert, S. Spicher, S. Grimme, WIREs Comput. Mol. Sci., 2020, 11,
     e01493. DOI: 10.1002/wcms.1493
   
   for GFN2-xTB:
   * C. Bannwarth, S. Ehlert and S. Grimme., J. Chem. Theory Comput., 2019,
     15, 1652-1671. DOI: 10.1021/acs.jctc.8b01176
   for GFN1-xTB:
   * S. Grimme, C. Bannwarth, P. Shushkov, J. Chem. Theory Comput., 2017,
     13, 1989-2009. DOI: 10.1021/acs.jctc.7b00118
   for GFN0-xTB:
   * P. Pracht, E. Caldeweyher, S. Ehlert, S. Grimme, ChemRxiv, 2019, preprint.
     DOI: 10.26434/chemrxiv.8326202.v1
   for GFN-FF:
   * S. Spicher and S. Grimme, Angew. Chem. Int. Ed., 2020, 59, 15665-15673.
     DOI: 10.1002/anie.202004239
   
   for ALPB and GBSA implicit solvation:
   * S. Ehlert, M. Stahn, S. Spicher, S. Grimme, J. Chem. Theory Comput.,
     2021, 17, 4250-4261. DOI: 10.1021/acs.jctc.1c00471
   
   for ddCOSMO and CPCM-X implicit solvation:
   * M. Stahn, S. Ehlert, S. Grimme, J. Phys. Chem. A,
     2023, XX, XXXX-XXXX. DOI: 10.1021/acs.jpca.3c04382
   
   for DFT-D4:
   * E. Caldeweyher, C. Bannwarth and S. Grimme, J. Chem. Phys., 2017,
     147, 034112. DOI: 10.1063/1.4993215
   * E. Caldeweyher, S. Ehlert, A. Hansen, H. Neugebauer, S. Spicher,
     C. Bannwarth and S. Grimme, J. Chem. Phys., 2019, 150, 154122.
     DOI: 10.1063/1.5090222
   * E. Caldeweyher, J.-M. Mewes, S. Ehlert and S. Grimme, Phys. Chem. Chem. Phys.
     2020, 22, 8499-8512. DOI: 10.1039/D0CP00502A
   
   for sTDA-xTB:
   * S. Grimme and C. Bannwarth, J. Chem. Phys., 2016, 145, 054103.
     DOI: 10.1063/1.4959605
   
   in the mass-spec context:
   * V. Asgeirsson, C. Bauer and S. Grimme, Chem. Sci., 2017, 8, 4879.
     DOI: 10.1039/c7sc00601b
   * J. Koopman and S. Grimme, ACS Omega 2019, 4, 12, 15120-15133.
     DOI: 10.1021/acsomega.9b02011
   
   for metadynamics refer to:
   * S. Grimme, J. Chem. Theory Comput., 2019, 155, 2847-2862
     DOI: 10.1021/acs.jctc.9b00143
   
   for SPH calculations refer to:
   * S. Spicher and S. Grimme, J. Chem. Theory Comput., 2021, 17, 1701-1714
     DOI: 10.1021/acs.jctc.0c01306
   
   for ONIOM refer to:
   * C. Plett, A. Katbashev, S. Ehlert, S. Grimme, M. Bursch,
     Phys. Chem. Chem. Phys., 2023, 25, 17860-17868. DOI: 10.1039/D3CP02178E
   
   for DIPRO refer to:
   * J. Kohn, N. Gildemeister, S. Grimme, D. Fazzi, A. Hansen,
     J. Chem. Phys., 2023, just accepted.
   
   for PTB refer to:
   * S. Grimme, M. Mueller, A. Hansen, J. Chem. Phys., 2023, 158, 124111.
     DOI: 10.1063/5.0137838
   
   with help from (in alphabetical order)
   P. Atkinson, C. Bannwarth, F. Bohle, G. Brandenburg, E. Caldeweyher
   M. Checinski, S. Dohm, S. Ehlert, S. Ehrlich, I. Gerasimov, C. Hölzer
   A. Katbashev, J. Kohn, J. Koopman, C. Lavigne, S. Lehtola, F. März, M. Müller,
   F. Musil, H. Neugebauer, J. Pisarek, C. Plett, P. Pracht, F. Pultar,
   J. Seibert, P. Shushkov, S. Spicher, M. Stahn, M. Steiner, T. Strunk,
   J. Stückrath, T. Rose, and J. Unsleber
   
 * started run on 2025/04/11 at 16:20:25.779     
   ID    Z sym.   atoms
    1    6 C      1-5
    2   35 Br     6
    3    1 H      7-17

           -------------------------------------------------
          |                Calculation Setup                |
           -------------------------------------------------

          program call               : /srv/scratch/z5358697/.xtb/bin/xtb xtb_rrho.coord --gfn2 --bhess vtight --chrg 0 --enso --norestart -I rrho-xcontrol-inp --parallel 1 --alpb water
          hostname                   : k124
          coordinate file            : xtb_rrho.coord
          omp threads                :                     1


           -------------------------------------------------
          |                 G F N 2 - x T B                 |
           -------------------------------------------------

        Reference                      10.1021/acs.jctc.8b01176
      * Hamiltonian:
        H0-scaling (s, p, d)           1.850000    2.230000    2.230000
        zeta-weighting                 0.500000
      * Dispersion:
        s8                             2.700000
        a1                             0.520000
        a2                             5.000000
        s9                             5.000000
      * Repulsion:
        kExp                           1.500000    1.000000
        rExp                           1.000000
      * Coulomb:
        alpha                          2.000000
        third order                    shell-resolved
        anisotropic                    true
        a3                             3.000000
        a5                             4.000000
        cn-shift                       1.200000
        cn-exp                         4.000000
        max-rad                        5.000000

      * Solvation model:               ALPB
        Solvent                        water
        Parameter file                 internal GFN2-xTB/ALPB
        Dielectric constant                8.0200E+01
        Reference state                gsolv [1 M gas/solution]
        Free energy shift                  1.0808E-03 Eh       6.7819E-01 kcal/mol
        Temperature                        2.9815E+02 K
        Density                            1.0000E+00 kg/L
        Solvent mass                       1.8000E+01 g/mol
        Interaction kernel             P16
        Born radius scaling (c1)           1.4744E+00
        Born radii integrator          GBOBC
        Born offset                        0.0000E+00 a0       0.0000E+00 AA
        H-bond correction              true
        Ion screening                  false
        Surface tension                    1.0000E-05 Eh       1.5569E+01 dyn/cm
        Grid points                               974 per atom

          ...................................................
          :                      SETUP                      :
          :.................................................:
          :  # basis functions                  41          :
          :  # atomic orbitals                  40          :
          :  # shells                           24          :
          :  # electrons                        38          :
          :  max. iterations                   250          :
          :  Hamiltonian                  GFN2-xTB          :
          :  restarted?                      false          :
          :  GBSA solvation                   true          :
          :  PC potential                    false          :
          :  electronic temp.          300.0000000     K    :
          :  accuracy                    1.0000000          :
          :  -> integral cutoff          0.2500000E+02      :
          :  -> integral neglect         0.1000000E-07      :
          :  -> SCF convergence          0.1000000E-05 Eh   :
          :  -> wf. convergence          0.1000000E-03 e    :
          :  Broyden damping             0.4000000          :
          :  net charge                          0          :
          :  unpaired electrons                  0          :
          ...................................................

 iter      E             dE          RMSdq      gap      omega  full diag
   1    -20.5965851 -0.205966E+02  0.370E+00    5.74       0.0  T
   2    -20.6362900 -0.397049E-01  0.257E+00    5.05       1.0  T
   3    -20.6387141 -0.242415E-02  0.901E-01    5.17       1.0  T
   4    -20.6400571 -0.134299E-02  0.392E-01    5.00       1.0  T
   5    -20.6402049 -0.147745E-03  0.254E-01    5.01       1.0  T
   6    -20.6403374 -0.132544E-03  0.151E-01    4.97       1.0  T
   7    -20.6403968 -0.593914E-04  0.894E-02    4.96       1.0  T
   8    -20.6404211 -0.243247E-04  0.184E-02    4.95       1.3  T
   9    -20.6404216 -0.479384E-06  0.811E-03    4.95       3.0  T
  10    -20.6404217 -0.104423E-06  0.240E-03    4.94      10.1  T
  11    -20.6404217 -0.875645E-08  0.151E-03    4.94      16.0  T
  12    -20.6404217 -0.525375E-08  0.612E-04    4.94      39.6  T
  13    -20.6404217 -0.460670E-09  0.230E-04    4.94     105.6  T

   *** convergence criteria satisfied after 13 iterations ***

         #    Occupation            Energy/Eh            Energy/eV
      -------------------------------------------------------------
         1        2.0000           -0.8380912             -22.8056
       ...           ...                  ...                  ...
        13        2.0000           -0.4554260             -12.3928
        14        2.0000           -0.4509700             -12.2715
        15        2.0000           -0.4425830             -12.0433
        16        2.0000           -0.4311386             -11.7319
        17        2.0000           -0.4235955             -11.5266
        18        2.0000           -0.4073556             -11.0847
        19        2.0000           -0.4059759             -11.0472 (HOMO)
        20                         -0.2242688              -6.1027 (LUMO)
        21                          0.0228954               0.6230
        22                          0.0356663               0.9705
        23                          0.0417802               1.1369
        24                          0.0508999               1.3851
       ...                                ...                  ...
        40                          0.3383727               9.2076
      -------------------------------------------------------------
                  HL-Gap            0.1817071 Eh            4.9445 eV
             Fermi-level           -0.3151224 Eh           -8.5749 eV

 SCC (total)                   0 d,  0 h,  0 min,  0.014 sec
 SCC setup                      ...        0 min,  0.001 sec (  7.409%)
 Dispersion                     ...        0 min,  0.000 sec (  0.619%)
 classical contributions        ...        0 min,  0.000 sec (  0.134%)
 integral evaluation            ...        0 min,  0.002 sec ( 16.839%)
 iterations                     ...        0 min,  0.006 sec ( 43.820%)
 molecular gradient             ...        0 min,  0.004 sec ( 29.945%)
 printout                       ...        0 min,  0.000 sec (  1.107%)

         :::::::::::::::::::::::::::::::::::::::::::::::::::::
         ::                     SUMMARY                     ::
         :::::::::::::::::::::::::::::::::::::::::::::::::::::
         :: total energy             -20.404206089875 Eh    ::
         :: total w/o Gsasa/hb       -20.403202762102 Eh    ::
         :: gradient norm              0.020421450224 Eh/a0 ::
         :: HOMO-LUMO gap              4.944502989253 eV    ::
         ::.................................................::
         :: SCC energy               -20.640391468107 Eh    ::
         :: -> isotropic ES            0.012000845401 Eh    ::
         :: -> anisotropic ES          0.003953839778 Eh    ::
         :: -> anisotropic XC          0.009850681097 Eh    ::
         :: -> dispersion             -0.010536727082 Eh    ::
         :: -> Gsolv                  -0.003901787303 Eh    ::
         ::    -> Gelec               -0.002898459530 Eh    ::
         ::    -> Gsasa               -0.001034533348 Eh    ::
         ::    -> Ghb                 -0.001049554123 Eh    ::
         ::    -> Gshift               0.001080759698 Eh    ::
         :: repulsion energy           0.236185378231 Eh    ::
         :: add. restraining           0.000000000000 Eh    ::
         :: total charge              -0.000000000000 e     ::
         :::::::::::::::::::::::::::::::::::::::::::::::::::::

metadynamics with 1 initial structures loaded
           -------------------------------------------------
          |           Optimal kpush determination           |
           -------------------------------------------------
      ----------------------------------------------------------- 
     |                   =====================                   |
     |                        A N C O P T                        |
     |                   =====================                   |
     |               Approximate Normal Coordinate               |
     |                Rational Function Optimizer                |
      ----------------------------------------------------------- 
target rmsd / Å         0.100000
unbiased initial rmsd   0.527749
 
iter. min.        max.        rmsd       kpush
      ----------------------------------------------------------- 
     |                   =====================                   |
     |                        A N C O P T                        |
     |                   =====================                   |
     |               Approximate Normal Coordinate               |
     |                Rational Function Optimizer                |
      ----------------------------------------------------------- 
 1    0.000000    0.772727    0.010132   -0.386364
      ----------------------------------------------------------- 
     |                   =====================                   |
     |                        A N C O P T                        |
     |                   =====================                   |
     |               Approximate Normal Coordinate               |
     |                Rational Function Optimizer                |
      ----------------------------------------------------------- 
 2    0.000000    0.386364    0.013559   -0.193182
      ----------------------------------------------------------- 
     |                   =====================                   |
     |                        A N C O P T                        |
     |                   =====================                   |
     |               Approximate Normal Coordinate               |
     |                Rational Function Optimizer                |
      ----------------------------------------------------------- 
 3    0.000000    0.193182    0.017539   -0.096591
      ----------------------------------------------------------- 
     |                   =====================                   |
     |                        A N C O P T                        |
     |                   =====================                   |
     |               Approximate Normal Coordinate               |
     |                Rational Function Optimizer                |
      ----------------------------------------------------------- 
 4    0.000000    0.096591    0.021636   -0.048295
      ----------------------------------------------------------- 
     |                   =====================                   |
     |                        A N C O P T                        |
     |                   =====================                   |
     |               Approximate Normal Coordinate               |
     |                Rational Function Optimizer                |
      ----------------------------------------------------------- 
 5    0.000000    0.048295    0.025139   -0.024148
      ----------------------------------------------------------- 
     |                   =====================                   |
     |                        A N C O P T                        |
     |                   =====================                   |
     |               Approximate Normal Coordinate               |
     |                Rational Function Optimizer                |
      ----------------------------------------------------------- 
 6    0.000000    0.024148    0.028028   -0.012074
      ----------------------------------------------------------- 
     |                   =====================                   |
     |                        A N C O P T                        |
     |                   =====================                   |
     |               Approximate Normal Coordinate               |
     |                Rational Function Optimizer                |
      ----------------------------------------------------------- 
 7    0.000000    0.012074    0.030601   -0.006037
      ----------------------------------------------------------- 
     |                   =====================                   |
     |                        A N C O P T                        |
     |                   =====================                   |
     |               Approximate Normal Coordinate               |
     |                Rational Function Optimizer                |
      ----------------------------------------------------------- 
 8    0.000000    0.006037    0.033717   -0.003018
      ----------------------------------------------------------- 
     |                   =====================                   |
     |                        A N C O P T                        |
     |                   =====================                   |
     |               Approximate Normal Coordinate               |
     |                Rational Function Optimizer                |
      ----------------------------------------------------------- 
 9    0.000000    0.003018    0.036614   -0.001509
      ----------------------------------------------------------- 
     |                   =====================                   |
     |                        A N C O P T                        |
     |                   =====================                   |
     |               Approximate Normal Coordinate               |
     |                Rational Function Optimizer                |
      ----------------------------------------------------------- 
10    0.000000    0.001509    0.047549   -0.000755
final kpush: -0.000755
           -------------------------------------------------
          |            Biased Numerical Hessian             |
           -------------------------------------------------
kpush                :  -0.00075
alpha                :   1.00000
step length          :   0.00500
SCC accuracy         :   0.30000
Hessian scale factor :   1.00000
frozen atoms in %    :   0.00000    0
RMS gradient         :   0.00002
estimated CPU  time      0.01 min
estimated wall time      0.01 min

writing file <hessian>.

 projected vibrational frequencies (cm⁻¹)
eigval :       -0.00    -0.00     0.00     0.00     0.00     0.00
eigval :      -21.80    75.11   106.73   194.43   231.49   283.25
eigval :      366.74   453.15   527.79   767.64   836.71   860.08
eigval :      904.95   965.22  1003.37  1076.37  1095.07  1119.11
eigval :     1124.50  1178.90  1214.14  1242.50  1263.49  1290.04
eigval :     1304.01  1341.55  1373.02  1413.37  1426.38  1462.52
eigval :     1489.99  1493.00  1500.14  1502.10  2960.20  2966.22
eigval :     2970.63  2985.36  2988.05  3000.32  3002.66  3003.90
eigval :     3024.48  3029.60  3041.03
           -------------------------------------------------
          |                Property Printout                |
           -------------------------------------------------

    * Orbital Energies and Occupations

         #    Occupation            Energy/Eh            Energy/eV
      -------------------------------------------------------------
         1        2.0000           -0.8396200             -22.8472
       ...           ...                  ...                  ...
         7        2.0000           -0.5310325             -14.4501
         8        2.0000           -0.5227929             -14.2259
         9        2.0000           -0.5116887             -13.9238
        10        2.0000           -0.4952357             -13.4760
        11        2.0000           -0.4866234             -13.2417
        12        2.0000           -0.4777936             -13.0014
        13        2.0000           -0.4560801             -12.4106
        14        2.0000           -0.4520183             -12.3000
        15        2.0000           -0.4421043             -12.0303
        16        2.0000           -0.4312056             -11.7337
        17        2.0000           -0.4256650             -11.5829
        18        2.0000           -0.4084502             -11.1145
        19        2.0000           -0.4059276             -11.0459 (HOMO)
        20                         -0.2186584              -5.9500 (LUMO)
        21                          0.0204447               0.5563
        22                          0.0321799               0.8757
        23                          0.0409028               1.1130
        24                          0.0517372               1.4078
        25                          0.0654434               1.7808
        26                          0.0867211               2.3598
        27                          0.1124565               3.0601
        28                          0.1273921               3.4665
        29                          0.1540719               4.1925
        30                          0.1650434               4.4911
       ...                                ...                  ...
        40                          0.3680789              10.0159
      -------------------------------------------------------------
                  HL-Gap            0.1872692 Eh            5.0959 eV
             Fermi-level           -0.3122930 Eh           -8.4979 eV

     #   Z          covCN         q      C6AA      α(0)
     1   6 C        3.752    -0.112    22.697     6.794
     2   6 C        3.800    -0.058    21.624     6.621
     3   6 C        3.802    -0.062    21.683     6.630
     4   6 C        3.839    -0.064    21.695     6.626
     5   6 C        3.738     0.022    20.277     6.425
     6  35 Br       0.954    -0.246   191.869    22.334
     7   1 H        0.925     0.037     2.489     2.467
     8   1 H        0.925     0.038     2.471     2.458
     9   1 H        0.925     0.037     2.492     2.469
    10   1 H        0.924     0.031     2.578     2.511
    11   1 H        0.924     0.042     2.422     2.434
    12   1 H        0.924     0.039     2.458     2.452
    13   1 H        0.924     0.041     2.438     2.442
    14   1 H        0.924     0.060     2.204     2.321
    15   1 H        0.924     0.056     2.247     2.344
    16   1 H        0.926     0.069     2.102     2.267
    17   1 H        0.926     0.070     2.084     2.257

 Mol. C6AA /au·bohr⁶  :       2903.892563
 Mol. C8AA /au·bohr⁸  :      86032.845265
 Mol. α(0) /au        :         81.852139


Wiberg/Mayer (AO) data.
largest (>0.10) Wiberg bond orders for each atom

 ---------------------------------------------------------------------------
     #   Z sym  total        # sym  WBO       # sym  WBO       # sym  WBO
 ---------------------------------------------------------------------------
     1   6 C    3.996 --     2 C    1.019     9 H    0.988     7 H    0.987
                             8 H    0.987
     2   6 C    3.997 --     1 C    1.019     3 C    1.010    10 H    0.978
                            11 H    0.975
     3   6 C    3.995 --     2 C    1.010     4 C    1.003    13 H    0.978
                            12 H    0.976
     4   6 C    3.991 --     5 C    1.022     3 C    1.003    15 H    0.974
                            14 H    0.962
     5   6 C    3.935 --     4 C    1.022    16 H    0.976    17 H    0.975
                             6 Br   0.942
     6  35 Br   1.004 --     5 C    0.942
     7   1 H    0.998 --     1 C    0.987
     8   1 H    0.998 --     1 C    0.987
     9   1 H    0.999 --     1 C    0.988
    10   1 H    0.999 --     2 C    0.978
    11   1 H    0.998 --     2 C    0.975
    12   1 H    0.998 --     3 C    0.976
    13   1 H    0.998 --     3 C    0.978
    14   1 H    0.996 --     4 C    0.962
    15   1 H    0.997 --     4 C    0.974
    16   1 H    0.995 --     5 C    0.976
    17   1 H    0.995 --     5 C    0.975
 ---------------------------------------------------------------------------

Topologies differ in total number of bonds
Writing topology from bond orders to xtbtopo.mol

molecular dipole:
                 x           y           z       tot (Debye)
 q only:       -0.516       0.981      -0.212
   full:       -0.580       1.484      -0.359       4.151
molecular quadrupole (traceless):
                xx          xy          yy          xz          yz          zz
 q only:       -1.608       2.013       2.161      -0.465      -0.675      -0.553
  q+dip:       -2.216       3.916       0.802      -1.261      -0.042       1.414
   full:       -2.309       3.838       1.775      -1.078      -0.512       0.534

           -------------------------------------------------
          |                Geometry Summary                 |
           -------------------------------------------------

      molecular mass/u    :      151.0445555
   center of mass at/Å    :       -0.0037638      -0.0043702      -0.0337191
  moments of inertia/u·Å² :        0.1409575E+03   0.4703602E+03   0.5776984E+03
rotational constants/cm⁻¹ :        0.1195937E+00   0.3583983E-01   0.2918068E-01

 * 16 selected distances

     #   Z          #   Z                                           value/Å
     1   6 C        2   6 C                                       1.5238900
     2   6 C        3   6 C                                       1.5288845
     3   6 C        4   6 C                                       1.5356617
     4   6 C        5   6 C                                       1.5165738
     5   6 C        6  35 Br                                      1.9743185 (max)
     1   6 C        7   1 H                                       1.0878922
     1   6 C        8   1 H                                       1.0868847 (min)
     1   6 C        9   1 H                                       1.0877226
     2   6 C       10   1 H                                       1.0925867
     2   6 C       11   1 H                                       1.0905555
     3   6 C       12   1 H                                       1.0924312
     3   6 C       13   1 H                                       1.0915444
     4   6 C       14   1 H                                       1.0926408
     4   6 C       15   1 H                                       1.0917912
     5   6 C       16   1 H                                       1.0887281
     5   6 C       17   1 H                                       1.0886698

 * 3 distinct bonds (by element types)

   Z      Z             #   av. dist./Å        max./Å        min./Å
   1 H    6 C          11     1.0901316     1.0926408     1.0868847
   6 C    6 C           4     1.5262525     1.5356617     1.5165738
   6 C   35 Br          1     1.9743185     1.9743185     1.9743185

           -------------------------------------------------
          |               Frequency Printout                |
           -------------------------------------------------
 projected vibrational frequencies (cm⁻¹)
eigval :       -0.00    -0.00     0.00     0.00     0.00     0.00
eigval :      -21.80    75.11   106.73   194.43   231.49   283.25
eigval :      366.74   453.15   527.79   767.64   836.71   860.08
eigval :      904.95   965.22  1003.37  1076.37  1095.07  1119.11
eigval :     1124.50  1178.90  1214.14  1242.50  1263.49  1290.04
eigval :     1304.01  1341.55  1373.02  1413.37  1426.38  1462.52
eigval :     1489.99  1493.00  1500.14  1502.10  2960.20  2966.22
eigval :     2970.63  2985.36  2988.05  3000.32  3002.66  3003.90
eigval :     3024.48  3029.60  3041.03
 reduced masses (amu)
   1: 66.43   2: 52.40   3: 22.39   4: 48.84   5: 14.37   6: 13.32   7: 12.31   8: 20.73
   9: 16.77  10: 19.66  11:  2.07  12:  8.55  13: 10.15  14: 10.63  15: 16.01  16:  2.32
  17:  4.47  18:  6.49  19:  4.35  20:  5.03  21:  7.27  22:  4.99  23:  8.44  24:  5.02
  25:  7.39  26:  5.42  27:  3.08  28:  3.58  29:  2.85  30:  2.01  31:  3.49  32:  4.33
  33:  4.92  34:  3.19  35:  1.99  36:  1.91  37:  1.89  38:  1.84  39:  1.55  40:  1.60
  41:  1.87  42:  1.83  43:  1.91  44:  1.54  45:  1.63  46:  1.51  47:  1.66  48:  1.97
  49:  1.94  50:  1.81  51:  1.39
 IR intensities (km·mol⁻¹)
   1:  0.35   2:  1.08   3:  0.18   4:  0.83   5:  0.89   6:  2.20   7:  1.99   8:  0.79
   9:  1.29  10:  1.84  11:  0.11  12:  0.45  13:  1.84  14:  1.82  15:  6.69  16: 14.86
  17:  2.83  18:  0.62  19:  0.77  20: 10.44  21:  2.89  22:  3.57  23:  0.51  24:  0.80
  25:  1.80  26:  1.59  27: 10.46  28:  2.87  29: 54.64  30:  0.62  31:  2.45  32:  1.03
  33:  1.08  34:  0.21  35:  4.23  36:  4.52  37:  0.90  38:  4.46  39:  1.10  40:  0.65
  41:  8.82  42: 26.70  43: 99.61  44: 33.92  45: 18.60  46: 11.97  47: 42.97  48: 29.10
  49:103.59  50: 76.36  51: 42.31
 Raman intensities (Ä⁴*amu⁻¹)
   1:  0.00   2:  0.00   3:  0.00   4:  0.00   5:  0.00   6:  0.00   7:  0.00   8:  0.00
   9:  0.00  10:  0.00  11:  0.00  12:  0.00  13:  0.00  14:  0.00  15:  0.00  16:  0.00
  17:  0.00  18:  0.00  19:  0.00  20:  0.00  21:  0.00  22:  0.00  23:  0.00  24:  0.00
  25:  0.00  26:  0.00  27:  0.00  28:  0.00  29:  0.00  30:  0.00  31:  0.00  32:  0.00
  33:  0.00  34:  0.00  35:  0.00  36:  0.00  37:  0.00  38:  0.00  39:  0.00  40:  0.00
  41:  0.00  42:  0.00  43:  0.00  44:  0.00  45:  0.00  46:  0.00  47:  0.00  48:  0.00
  49:  0.00  50:  0.00  51:  0.00
 output can be read by thermo (or use thermo option).
 writing <g98.out> molden fake output.
 recommended (thermochemical) frequency scaling factor: 1.0
           -------------------------------------------------
          |             Thermodynamic Functions             |
           -------------------------------------------------

Refinement of some symmetry elements was terminated before convergence was reached.
Some symmetry elements may remain unidentified.
Molecule has no symmetry elements
It seems to be the C1 point group
c1  symmetry found (for desy threshold:  0.10E+00) used in thermo
 inverting freq            1   21.8006124698799     

          ...................................................
          :                      SETUP                      :
          :.................................................:
          :  # frequencies                          45      :
          :  # imaginary freq.                       0      :
          :  linear?                             false      :
          :  only rotor calc.                    false      :
          :  symmetry                               c1      :
          :  rotational number                       1      :
          :  scaling factor                  1.0000000      :
          :  rotor cutoff                    0.0000000 cm⁻¹ :
          :  imag. cutoff                 -100.0000000 cm⁻¹ :
          :.................................................:

    mode    ω/cm⁻¹     T·S(HO)/kcal·mol⁻¹    T·S(FR)/kcal·mol⁻¹   T·S(vib)
   ------------------------------------------------------------------------
       1     21.80    -1.92695 (100.00%)    -1.30188 (  0.00%)    -1.92695
       2     75.11    -1.19701 (100.00%)    -0.93584 (  0.00%)    -1.19701
       3    106.73    -0.99212 (100.00%)    -0.83181 (  0.00%)    -0.99212
       4    194.43    -0.65150 (100.00%)    -0.65417 (  0.00%)    -0.65150
       5    231.49    -0.55676 (100.00%)    -0.60250 (  0.00%)    -0.55676
       6    283.25    -0.45139 (100.00%)    -0.54274 (  0.00%)    -0.45139
   ------------------------------------------------------------------------

   temp. (K)  partition function   enthalpy   heat capacity  entropy
                                   cal/mol     cal/K/mol   cal/K/mol   J/K/mol
 298.15  VIB   451.                 3340.857     21.464     23.350
         ROT  0.473E+06              888.752      2.981     28.947
         INT  0.213E+09             4229.609     24.445     52.297
         TR   0.180E+28             1481.254      4.968     40.929
         TOT                        5710.8628    29.4132    93.2255   390.0557

       T/K    H(0)-H(T)+PV         H(T)/Eh          T*S/Eh         G(T)/Eh
   ------------------------------------------------------------------------
    298.15    0.910084E-02    0.158278E+00    0.442945E-01    0.113983E+00
   ------------------------------------------------------------------------

         :::::::::::::::::::::::::::::::::::::::::::::::::::::
         ::                  THERMODYNAMIC                  ::
         :::::::::::::::::::::::::::::::::::::::::::::::::::::
         :: total free energy         -20.291899850537 Eh   ::
         ::.................................................::
         :: total energy              -20.405883234106 Eh   ::
         :: zero point energy           0.149177010153 Eh   ::
         :: G(RRHO) w/o ZPVE           -0.035193626584 Eh   ::
         :: G(RRHO) contrib.            0.113983383569 Eh   ::
         :::::::::::::::::::::::::::::::::::::::::::::::::::::
imag cut-off (cm-1) :    5.00
 found            1  significant imaginary frequency
 writing imag mode distorted coords to xtbhess.coord
 for further optimization.

optimized geometry written to: xtbopt.coord


           -------------------------------------------------
          | TOTAL ENERGY              -20.405883234106 Eh   |
          | TOTAL ENTHALPY            -20.247605384748 Eh   |
          | TOTAL FREE ENERGY         -20.291899850537 Eh   |
          | GRADIENT NORM               0.000021769400 Eh/α |
          | HOMO-LUMO GAP               5.095853366979 eV   |
           -------------------------------------------------

------------------------------------------------------------------------
 * finished run on 2025/04/11 at 16:20:28.725     
------------------------------------------------------------------------
 total:
 * wall-time:     0 d,  0 h,  0 min,  2.945 sec
 *  cpu-time:     0 d,  0 h,  0 min,  2.776 sec
 * ratio c/w:     0.943 speedup
 SCF:
 * wall-time:     0 d,  0 h,  0 min,  0.014 sec
 *  cpu-time:     0 d,  0 h,  0 min,  0.014 sec
 * ratio c/w:     0.989 speedup
 analytical hessian:
 * wall-time:     0 d,  0 h,  0 min,  0.868 sec
 *  cpu-time:     0 d,  0 h,  0 min,  0.858 sec
 * ratio c/w:     0.989 speedup

