! r2scan-3c def2/J RI DEFGRID2 scfconv6 printgap
%output
    printlevel normal
end
%cpcm
    smd true
    smdsolvent "water"
end
* xyz 0 1
C -3.539365821 -1.1816506872 -1.3735009625
C -3.1367632123 -0.64863684 0.002901367
H -3.5611440728 -1.2941692485 0.7778833691
C -1.6271815496 -0.6250102663 0.1466466976
C -0.9849209337 -1.573390066 0.9638510419
C 0.3770587385 -1.5903243103 1.0787597152
C 1.1741442066 -0.6562895897 0.3862121488
C 2.5807027497 -0.6564163344 0.4931227977
C 3.3283901402 0.264951262 -0.1963794901
C 2.6853155326 1.2216283858 -1.0180481235
C 1.3290620012 1.2384679325 -1.1335643781
C 0.5313361543 0.3025251379 -0.4378865756
C -0.871757567 0.2928386548 -0.539579191
O 4.6876061345 0.3586288211 -0.1710589972
C 5.4129501784 -0.5597573223 0.6240691096
C -3.6420901415 0.7684818949 0.2038259011
O -3.9255808773 1.5198509194 -0.6994355935
O -3.7297489243 1.1887907961 1.4652526245
H -3.1033100881 -2.163701977 -1.532851251
H -4.6215508061 -1.2525014009 -1.4481430871
H -3.1884914471 -0.5076289513 -2.1502944001
H -1.5790210782 -2.3012961801 1.496228472
H 0.8609166815 -2.3250174644 1.7049209912
H 3.0406994168 -1.3974747731 1.1273485272
H 3.3087008053 1.9282457948 -1.5427976962
H 0.8427713241 1.9704389404 -1.7610185607
H -1.3519567492 1.0291002197 -1.1692383824
H 5.1451768017 -0.4631169893 1.6793735833
H 6.4588897226 -0.2962347518 0.4854271143
H 5.2443108746 -1.5870168791 0.2909092608
H -3.4882062495 0.5186194798 2.1294262664
*
