! r2scan-3c def2/J RI DEFGRID2 scfconv6 printgap
%output
    printlevel normal
end
* xyz 0 1
C -3.4131236097 -0.988157107 0.3281247507
C -2.0687422683 -0.3285225633 0.6070356252
C -1.2976812547 -0.0684701607 -0.6960512138
C 0.0090071062 0.6023560249 -0.3711824948
O 0.1864445499 1.8038506136 -0.3420917481
O 0.9526025297 -0.2799127805 -0.0789581331
C 2.2495894985 0.2118060921 0.3000415933
C 3.2369749303 -0.9360753577 0.2130942727
H -3.9432419419 -1.1648897214 1.2599137777
H -4.0268640931 -0.3502862602 -0.3025730392
H -3.2720763301 -1.940455018 -0.1761877429
H -1.467902838 -0.972449687 1.2518858349
H -2.2217245363 0.6211808316 1.1241037014
H -1.8775204813 0.5892075223 -1.3428843667
H -1.0983705837 -1.0141133712 -1.1983061362
H 2.5171351871 1.0355315043 -0.369865669
H 2.1800959014 0.6068971795 1.3186819393
H 4.2193036329 -0.5882531505 0.5149241984
H 2.9244484568 -1.7436471015 0.8682354525
H 3.2864428551 -1.3102500738 -0.80525171
*
