19
 xtb: 6.7.1 (edcfbbe)
C           -1.84311790292679       -1.19343341281372       -0.41037812914124
C           -1.51154135678098       -0.21961344791282        0.71784659538652
C           -1.16665345023562        1.19069017244031        0.23039653157201
C            0.06675347987911        1.31084198540290       -0.66822162868730
C            1.39803433803691        0.93029261098386        0.01600471596979
C            1.67439071191873       -0.49660303095938        0.06674671542140
C            1.91932912609412       -1.67909595641941        0.07982091109637
H           -2.14715204181007       -2.16736410312124       -0.01251245698893
H           -0.98427932876641       -1.36056310001786       -1.06799402033569
H           -2.66644055192323       -0.81167992318201       -1.02553862752340
H           -2.37379439130043       -0.14609807310784        1.39221396917758
H           -0.68545990318144       -0.61779999613673        1.31913179716808
H           -1.02201171224054        1.84360703006033        1.10123867194510
H           -2.02876765366935        1.59186522525348       -0.31938345037561
H            0.15670080821259        2.35571101662341       -0.98417370224800
H           -0.05373286646282        0.71753667366406       -1.58122437677719
H            1.41385407781970        1.33711938514923        1.03551372936218
H            2.22613273828632        1.40904199010791       -0.52034488766858
H            2.12080120653484       -2.72642173117948        0.10252401792614
