 Entering Gaussian System
 *********************************************
 Gaussian 98:
 frequency output generated by the xtb code
 *********************************************
                         Standard orientation:
 --------------------------------------------------------------------
  Center     Atomic     Atomic              Coordinates (Angstroms)
  Number     Number      Type              X           Y           Z
 --------------------------------------------------------------------
    1          6             0       -3.477780    0.432291   -0.022732
    2          6             0       -2.613612   -0.732712    0.445379
    3          6             0       -1.199924   -0.707321   -0.135669
    4          6             0       -0.373766    0.484131    0.373027
    5          6             0        1.013808    0.389907   -0.199277
    6          8             0        1.342475    0.804375   -1.291997
    7          8             0        1.835251   -0.243996    0.628210
    8          6             0        3.189756   -0.476243    0.228506
    9          1             0       -4.496711    0.309064    0.335344
   10          1             0       -3.099753    1.378384    0.354699
   11          1             0       -3.498717    0.477199   -1.109239
   12          1             0       -2.555105   -0.729162    1.535149
   13          1             0       -3.086461   -1.668233    0.140449
   14          1             0       -1.250140   -0.662786   -1.225741
   15          1             0       -0.685946   -1.630370    0.141137
   16          1             0       -0.315422    0.456499    1.460146
   17          1             0       -0.821991    1.417794    0.037545
   18          1             0        3.368532   -1.548285    0.281237
   19          1             0        3.838484    0.050813    0.925746
   20          1             0        3.343527   -0.109708   -0.786974
 --------------------------------------------------------------------
     1 basis functions        1 primitive gaussians
     1 alpha electrons        1 beta electrons
 
 Harmonic frequencies (cm**-1), IR intensities (km*mol⁻¹),
 Raman scattering activities (A**4/amu), Raman depolarization ratios,
 reduced masses (AMU), force constants (mDyne/A) and normal coordinates:
                      1                      2                      3
                        a                      a                      a 
 Frequencies --    19.8062                31.2586                43.9582
 Red. masses --    10.0774                 1.9162                 9.8181
 Frc consts  --     0.0000                 0.0000                 0.0000
 IR Inten    --     2.6329                 0.4698                 0.9860
 Raman Activ --     0.0000                 0.0000                 0.0000
 Depolar     --     0.0000                 0.0000                 0.0000
 Atom AN      X      Y      Z        X      Y      Z        X      Y      Z
   1   6     0.02   0.23   0.21     0.01   0.04  -0.00     0.03   0.06  -0.46
   2   6    -0.09  -0.02  -0.22    -0.03   0.02   0.01    -0.11   0.13  -0.00
   3   6    -0.11   0.02  -0.25    -0.02  -0.02   0.02    -0.00  -0.07   0.26
   4   6     0.02  -0.22   0.11     0.01  -0.04   0.00     0.06  -0.17   0.37
   5   6    -0.01  -0.15   0.03    -0.01  -0.05  -0.03    -0.02  -0.05   0.14
   6   8    -0.18  -0.41  -0.10    -0.06  -0.15  -0.08    -0.28   0.02   0.11
   7   8     0.17   0.19   0.13     0.05   0.09   0.03     0.20  -0.03  -0.04
   8   6     0.16   0.29   0.07     0.05   0.10   0.04     0.11   0.09  -0.29
   9   1     0.00   0.06   0.05    -0.00   0.02  -0.00    -0.01   0.06  -0.17
  10   1     0.03   0.02   0.16     0.01   0.01  -0.00     0.01   0.04  -0.19
  11   1     0.00   0.18   0.07     0.00   0.01  -0.00     0.06  -0.07  -0.14
  12   1    -0.02  -0.12  -0.06    -0.01   0.01   0.00    -0.09   0.11   0.00
  13   1    -0.06   0.04  -0.15    -0.01   0.01   0.01    -0.03   0.02   0.04
  14   1    -0.04   0.11  -0.07    -0.01  -0.01   0.00     0.05  -0.03   0.07
  15   1    -0.06  -0.03  -0.16    -0.01  -0.01   0.01    -0.05  -0.04   0.11
  16   1     0.02  -0.16   0.03     0.01  -0.01   0.00     0.06  -0.10   0.10
  17   1     0.02  -0.02   0.12     0.00  -0.01   0.00     0.00  -0.03   0.17
  18   1     0.10   0.10   0.12    -0.11  -0.02  -0.53     0.07   0.03  -0.08
  19   1     0.04   0.18  -0.05    -0.00  -0.41   0.35     0.06   0.05  -0.13
  20   1     0.00  -0.00  -0.02     0.16   0.52   0.21    -0.04   0.02  -0.10
                      4                      5                      6
                        a                      a                      a 
 Frequencies --   108.5904               118.4300               213.2225
 Red. masses --     7.4061                 9.2341                 6.1309
 Frc consts  --     0.0000                 0.0000                 0.0000
 IR Inten    --     0.0719                 0.1135                 3.0709
 Raman Activ --     0.0000                 0.0000                 0.0000
 Depolar     --     0.0000                 0.0000                 0.0000
 Atom AN      X      Y      Z        X      Y      Z        X      Y      Z
   1   6     0.36   0.28   0.06     0.16  -0.05  -0.01    -0.28  -0.12  -0.01
   2   6    -0.07  -0.08  -0.03     0.12  -0.16  -0.19    -0.06   0.04   0.01
   3   6     0.03  -0.36   0.23     0.21   0.09   0.08    -0.01   0.24   0.12
   4   6    -0.11  -0.10  -0.16    -0.02   0.23   0.15     0.09   0.20   0.06
   5   6    -0.07  -0.02  -0.08    -0.06   0.16   0.09     0.06  -0.07  -0.03
   6   8    -0.00   0.16   0.01    -0.21  -0.20  -0.08     0.08  -0.13  -0.04
   7   8    -0.13  -0.10  -0.10    -0.01   0.34   0.17     0.01  -0.31  -0.15
   8   6    -0.03   0.16   0.05    -0.20  -0.31  -0.15     0.13   0.13   0.03
   9   1     0.04   0.07  -0.17     0.01  -0.11  -0.15    -0.16  -0.29  -0.33
  10   1     0.07   0.01   0.22    -0.04  -0.05   0.18    -0.35  -0.05   0.30
  11   1     0.29   0.24   0.02     0.19   0.14   0.00     0.22   0.19  -0.00
  12   1    -0.08  -0.09  -0.00    -0.03  -0.14  -0.05    -0.06  -0.01   0.00
  13   1    -0.08   0.03  -0.09     0.07  -0.03  -0.17     0.05  -0.01  -0.03
  14   1     0.06  -0.24   0.06     0.11   0.02   0.02     0.01   0.07   0.03
  15   1    -0.00  -0.07   0.21     0.09   0.05   0.05     0.00   0.07   0.03
  16   1    -0.04   0.08  -0.04    -0.01   0.07   0.04     0.04   0.07   0.02
  17   1    -0.06  -0.08  -0.14    -0.03   0.05   0.03     0.05   0.07   0.01
  18   1     0.05   0.06   0.02    -0.19  -0.11  -0.06     0.13   0.05   0.00
  19   1    -0.06   0.08   0.03     0.05  -0.17  -0.09    -0.04   0.09   0.04
  20   1     0.00   0.05   0.02    -0.08  -0.11  -0.06     0.05   0.07   0.02
                      7                      8                      9
                        a                      a                      a 
 Frequencies --   240.9208               270.8025               294.1370
 Red. masses --    10.8921                 7.6409                 8.6705
 Frc consts  --     0.0000                 0.0000                 0.0000
 IR Inten    --     9.4555                 7.1091                13.7063
 Raman Activ --     0.0000                 0.0000                 0.0000
 Depolar     --     0.0000                 0.0000                 0.0000
 Atom AN      X      Y      Z        X      Y      Z        X      Y      Z
   1   6    -0.27   0.01   0.02     0.17  -0.03  -0.08     0.22  -0.02  -0.06
   2   6    -0.23   0.05   0.07     0.15   0.09   0.24     0.20   0.08   0.22
   3   6    -0.21  -0.19  -0.00    -0.04  -0.02  -0.17    -0.05   0.02  -0.29
   4   6    -0.01  -0.22  -0.19     0.06  -0.23   0.12    -0.14   0.00  -0.15
   5   6     0.13   0.03  -0.00    -0.05   0.07  -0.17    -0.07  -0.08   0.19
   6   8     0.28   0.16   0.08    -0.22   0.19  -0.20     0.09  -0.17   0.24
   7   8     0.29   0.40   0.17    -0.09   0.13  -0.14    -0.08  -0.08   0.24
   8   6     0.09  -0.18  -0.13    -0.02  -0.16   0.30    -0.17   0.18  -0.29
   9   1    -0.12  -0.10  -0.14    -0.01  -0.08  -0.22     0.02  -0.05  -0.17
  10   1    -0.19  -0.00   0.14    -0.08   0.00   0.09    -0.03   0.00   0.05
  11   1     0.06   0.10   0.01     0.25   0.04  -0.02     0.22   0.01  -0.02
  12   1    -0.05   0.04   0.02     0.12   0.14   0.06     0.16   0.15   0.06
  13   1    -0.08   0.01   0.05     0.01  -0.00   0.20     0.02  -0.01   0.22
  14   1    -0.08  -0.10  -0.00    -0.10   0.11  -0.04    -0.11   0.07  -0.07
  15   1    -0.10  -0.07   0.03    -0.01  -0.04  -0.18     0.03  -0.00  -0.18
  16   1    -0.01  -0.04  -0.05     0.10  -0.22   0.03    -0.13   0.01  -0.04
  17   1    -0.01  -0.07  -0.07    -0.03  -0.03   0.21    -0.01  -0.00  -0.09
  18   1    -0.10  -0.07  -0.03    -0.07  -0.05   0.15     0.01   0.06  -0.15
  19   1     0.13  -0.12  -0.09    -0.04  -0.06   0.13     0.01   0.06  -0.14
  20   1     0.00  -0.09  -0.06     0.11  -0.09   0.09    -0.19   0.10  -0.09
                     10                     11                     12
                        a                      a                      a 
 Frequencies --   409.4351               426.5969               630.6619
 Red. masses --    11.0237                 8.1376                11.3348
 Frc consts  --     0.0000                 0.0000                 0.0000
 IR Inten    --    15.9981                 1.9059                24.8063
 Raman Activ --     0.0000                 0.0000                 0.0000
 Depolar     --     0.0000                 0.0000                 0.0000
 Atom AN      X      Y      Z        X      Y      Z        X      Y      Z
   1   6     0.02  -0.01  -0.02    -0.28   0.10   0.08     0.00  -0.03  -0.00
   2   6    -0.09  -0.08   0.02     0.30   0.35  -0.20     0.02   0.01   0.00
   3   6    -0.02   0.02   0.14     0.35  -0.26  -0.07     0.02   0.16   0.10
   4   6     0.14  -0.12   0.22     0.08  -0.18   0.02     0.37  -0.09  -0.16
   5   6    -0.00   0.08  -0.19    -0.02   0.03   0.02     0.10  -0.51  -0.21
   6   8     0.57  -0.10  -0.12    -0.07  -0.02  -0.01    -0.26   0.29  -0.03
   7   8    -0.28   0.08   0.02    -0.13  -0.03   0.06    -0.03   0.03   0.33
   8   6    -0.34   0.15  -0.10    -0.16   0.05  -0.01    -0.22   0.05   0.04
   9   1     0.00   0.04  -0.00    -0.03  -0.19   0.10    -0.00  -0.01  -0.01
  10   1     0.04  -0.01  -0.02    -0.23   0.08   0.06     0.00  -0.01  -0.01
  11   1     0.01  -0.02  -0.01    -0.18   0.09   0.03     0.01  -0.02  -0.00
  12   1    -0.07  -0.06   0.01     0.15   0.17  -0.06    -0.06  -0.07   0.00
  13   1    -0.01  -0.01  -0.06     0.05   0.08   0.05     0.06   0.01  -0.09
  14   1    -0.01   0.05   0.04     0.22  -0.19  -0.03    -0.02   0.06   0.03
  15   1    -0.02  -0.01  -0.01     0.02  -0.07   0.15    -0.01   0.02  -0.01
  16   1     0.23  -0.20   0.05     0.02  -0.08   0.01     0.14   0.07  -0.05
  17   1    -0.03   0.01   0.29    -0.06  -0.08   0.03     0.22   0.01  -0.12
  18   1    -0.07   0.05  -0.06    -0.02   0.02  -0.02    -0.03   0.02  -0.04
  19   1    -0.08   0.05  -0.05    -0.04   0.02  -0.01     0.01   0.02  -0.06
  20   1    -0.15   0.06  -0.03    -0.07   0.03  -0.00    -0.17   0.04  -0.00
                     13                     14                     15
                        a                      a                      a 
 Frequencies --   712.9927               784.5500               822.1823
 Red. masses --    12.0483                 3.2299                 3.2388
 Frc consts  --     0.0000                 0.0000                 0.0000
 IR Inten    --    17.9725                 9.1308                 6.7349
 Raman Activ --     0.0000                 0.0000                 0.0000
 Depolar     --     0.0000                 0.0000                 0.0000
 Atom AN      X      Y      Z        X      Y      Z        X      Y      Z
   1   6     0.05  -0.02   0.01    -0.01   0.09  -0.01     0.08  -0.01   0.09
   2   6     0.14   0.06  -0.08     0.14   0.13   0.11     0.13   0.17   0.15
   3   6     0.02   0.11   0.04     0.11  -0.11   0.16    -0.08   0.11  -0.06
   4   6    -0.29   0.06   0.13     0.00  -0.17   0.09    -0.12   0.00  -0.22
   5   6    -0.42  -0.56  -0.22    -0.05   0.01   0.03    -0.04   0.05   0.01
   6   8     0.22   0.04   0.25     0.06  -0.05   0.06    -0.04  -0.00  -0.00
   7   8     0.04   0.26  -0.18    -0.02   0.07  -0.16     0.00  -0.05   0.10
   8   6     0.12  -0.02  -0.04    -0.05   0.02  -0.01     0.10  -0.03  -0.00
   9   1     0.03  -0.06   0.04     0.01  -0.13  -0.02     0.00  -0.11  -0.07
  10   1    -0.02   0.00   0.01    -0.19   0.15  -0.14    -0.18   0.16  -0.19
  11   1    -0.03   0.02   0.00    -0.01  -0.15  -0.01     0.12  -0.30   0.01
  12   1     0.07   0.05  -0.02    -0.13  -0.25   0.04    -0.06  -0.36   0.04
  13   1     0.04   0.00   0.02     0.01   0.15  -0.29     0.02   0.18  -0.35
  14   1     0.08  -0.01   0.01    -0.14   0.34   0.06    -0.05  -0.25  -0.02
  15   1     0.03   0.06   0.08    -0.01  -0.17  -0.35    -0.00   0.11   0.21
  16   1    -0.01  -0.00   0.03    -0.07   0.28   0.03     0.00  -0.32  -0.07
  17   1    -0.02   0.06   0.06    -0.10  -0.20  -0.28    -0.02   0.11   0.23
  18   1    -0.05  -0.02   0.06    -0.05   0.00   0.03     0.04  -0.01  -0.02
  19   1    -0.00  -0.02   0.03    -0.04  -0.00   0.03     0.04  -0.00  -0.02
  20   1     0.14  -0.05  -0.01     0.06  -0.02   0.00    -0.02   0.01  -0.00
                     16                     17                     18
                        a                      a                      a 
 Frequencies --   888.9746               928.2589               960.8303
 Red. masses --    10.0434                 7.4429                 5.9594
 Frc consts  --     0.0000                 0.0000                 0.0000
 IR Inten    --    51.0821                 2.7296                 1.6896
 Raman Activ --     0.0000                 0.0000                 0.0000
 Depolar     --     0.0000                 0.0000                 0.0000
 Atom AN      X      Y      Z        X      Y      Z        X      Y      Z
   1   6     0.01   0.07  -0.05     0.32  -0.24  -0.07     0.12  -0.14   0.18
   2   6     0.04  -0.03  -0.02     0.16   0.22  -0.21    -0.05   0.12  -0.14
   3   6     0.05  -0.13   0.09    -0.35   0.19   0.25    -0.23   0.07  -0.15
   4   6    -0.29   0.14   0.10    -0.07  -0.20  -0.09    -0.08  -0.06   0.37
   5   6    -0.08  -0.00  -0.27     0.05   0.13   0.05     0.14  -0.02  -0.09
   6   8     0.04   0.16  -0.30    -0.01  -0.02  -0.03     0.08   0.08  -0.20
   7   8    -0.05  -0.17   0.45    -0.01  -0.03  -0.00     0.05  -0.04   0.05
   8   6     0.32  -0.12   0.03     0.01   0.00   0.00    -0.07   0.00   0.05
   9   1     0.03  -0.06   0.05     0.20  -0.30   0.22    -0.02  -0.01  -0.09
  10   1    -0.06   0.03   0.01     0.02  -0.10   0.15    -0.02   0.04  -0.09
  11   1    -0.08   0.06  -0.01    -0.18   0.17   0.00     0.18  -0.25   0.03
  12   1    -0.03   0.04  -0.00    -0.13   0.16  -0.05     0.28  -0.05  -0.05
  13   1    -0.04   0.01   0.03     0.14   0.00  -0.05    -0.13   0.07   0.03
  14   1    -0.06   0.15   0.03    -0.16   0.02   0.07     0.29  -0.03  -0.05
  15   1     0.08  -0.05  -0.16    -0.19   0.00   0.07    -0.28  -0.04   0.18
  16   1     0.05   0.04   0.02    -0.02  -0.02  -0.02    -0.17   0.25   0.11
  17   1    -0.26  -0.03   0.09    -0.01  -0.05  -0.04     0.02  -0.08  -0.17
  18   1     0.21  -0.01  -0.13    -0.01  -0.00  -0.00     0.02   0.00  -0.03
  19   1     0.18   0.01  -0.12     0.01  -0.00  -0.00     0.02   0.01  -0.03
  20   1    -0.17   0.06  -0.00    -0.01  -0.00  -0.00    -0.09   0.02   0.01
                     19                     20                     21
                        a                      a                      a 
 Frequencies --  1006.5358              1027.2626              1082.9430
 Red. masses --     7.1931                 9.6729                 7.6432
 Frc consts  --     0.0000                 0.0000                 0.0000
 IR Inten    --    18.3112                 3.0845               122.2111
 Raman Activ --     0.0000                 0.0000                 0.0000
 Depolar     --     0.0000                 0.0000                 0.0000
 Atom AN      X      Y      Z        X      Y      Z        X      Y      Z
   1   6    -0.21  -0.08   0.05    -0.13   0.08  -0.08     0.02   0.13  -0.10
   2   6     0.08   0.09   0.02     0.12  -0.05   0.11     0.02  -0.14   0.12
   3   6     0.14   0.31   0.08     0.12   0.16   0.06     0.01   0.04  -0.08
   4   6    -0.05  -0.37  -0.12    -0.38  -0.15   0.07     0.02  -0.13   0.22
   5   6    -0.12   0.11   0.00     0.23  -0.09  -0.04     0.21  -0.06   0.02
   6   8     0.01  -0.03   0.01     0.04   0.07  -0.17     0.04   0.04  -0.12
   7   8    -0.27   0.02   0.08     0.41  -0.09  -0.07    -0.46   0.11   0.05
   8   6     0.27  -0.05  -0.06    -0.37   0.06   0.14     0.27  -0.01  -0.14
   9   1    -0.14   0.35  -0.12    -0.04   0.11  -0.00     0.05  -0.13   0.06
  10   1     0.24  -0.14   0.03     0.06  -0.03   0.03    -0.10   0.06   0.00
  11   1     0.15  -0.00   0.01    -0.04   0.10  -0.02    -0.12   0.08  -0.02
  12   1     0.03  -0.04   0.01    -0.09  -0.03   0.04    -0.09  -0.02   0.04
  13   1     0.30  -0.09  -0.06     0.18  -0.06  -0.04    -0.03  -0.01   0.01
  14   1     0.14   0.07   0.02    -0.07  -0.03   0.02    -0.08  -0.13  -0.02
  15   1    -0.10   0.02   0.07     0.14   0.10   0.02     0.15   0.11   0.05
  16   1    -0.02  -0.01  -0.03    -0.37  -0.13   0.03    -0.44  -0.04   0.08
  17   1    -0.10  -0.17  -0.12    -0.06  -0.02   0.01     0.36   0.08  -0.10
  18   1     0.04  -0.01  -0.02    -0.03   0.02  -0.01    -0.04  -0.01   0.03
  19   1     0.06  -0.01  -0.02    -0.02   0.01  -0.02    -0.00  -0.01   0.02
  20   1     0.02  -0.00  -0.02    -0.11   0.02   0.03     0.07  -0.02  -0.03
                     22                     23                     24
                        a                      a                      a 
 Frequencies --  1104.6570              1112.5149              1123.4420
 Red. masses --     4.3058                 6.2034                 7.6446
 Frc consts  --     0.0000                 0.0000                 0.0000
 IR Inten    --     4.6085                16.8173                22.0220
 Raman Activ --     0.0000                 0.0000                 0.0000
 Depolar     --     0.0000                 0.0000                 0.0000
 Atom AN      X      Y      Z        X      Y      Z        X      Y      Z
   1   6     0.02   0.15  -0.01    -0.03  -0.27   0.01     0.19  -0.22   0.14
   2   6     0.02  -0.19  -0.05    -0.03   0.34   0.09    -0.43   0.20  -0.02
   3   6    -0.03   0.12   0.10     0.06  -0.25  -0.20     0.37   0.12  -0.01
   4   6    -0.06  -0.11  -0.09     0.11   0.22   0.18    -0.14  -0.06  -0.12
   5   6     0.00   0.03   0.02    -0.10  -0.04  -0.05     0.17  -0.09   0.01
   6   8    -0.02  -0.02   0.01     0.03   0.01  -0.01    -0.02   0.03  -0.04
   7   8    -0.03  -0.18  -0.07    -0.02  -0.07  -0.07    -0.04  -0.04   0.10
   8   6     0.09   0.32   0.14     0.06   0.14   0.14    -0.00   0.08  -0.14
   9   1     0.01  -0.07  -0.01    -0.03   0.12   0.01     0.05  -0.09   0.03
  10   1    -0.12   0.11  -0.06     0.21  -0.20   0.10     0.00  -0.04   0.02
  11   1    -0.03  -0.04  -0.01     0.05   0.06   0.01     0.06  -0.12   0.04
  12   1     0.15   0.00  -0.02    -0.28  -0.01   0.03    -0.25   0.17   0.00
  13   1    -0.08  -0.04   0.09     0.11   0.08  -0.16    -0.24   0.10   0.04
  14   1     0.09   0.08   0.02    -0.16  -0.14  -0.05     0.19   0.15  -0.01
  15   1     0.06   0.06   0.02    -0.07  -0.11  -0.05     0.12   0.03  -0.06
  16   1     0.11   0.01  -0.03    -0.14   0.00   0.05    -0.08  -0.12  -0.03
  17   1    -0.01  -0.02   0.00     0.08   0.06  -0.01    -0.15  -0.05   0.05
  18   1    -0.52  -0.02   0.03    -0.23  -0.01  -0.03    -0.13   0.01   0.11
  19   1     0.47  -0.23  -0.15     0.30  -0.11  -0.12    -0.08  -0.04   0.08
  20   1    -0.07  -0.16  -0.06    -0.12  -0.06  -0.02     0.19  -0.06  -0.03
                     25                     26                     27
                        a                      a                      a 
 Frequencies --  1132.5600              1177.2168              1218.5101
 Red. masses --     6.5028                 6.7775                 8.6327
 Frc consts  --     0.0000                 0.0000                 0.0000
 IR Inten    --    48.8372                73.9453               275.0198
 Raman Activ --     0.0000                 0.0000                 0.0000
 Depolar     --     0.0000                 0.0000                 0.0000
 Atom AN      X      Y      Z        X      Y      Z        X      Y      Z
   1   6    -0.12   0.01  -0.01    -0.07  -0.07   0.23    -0.01  -0.01   0.11
   2   6     0.23   0.03  -0.07     0.09   0.10  -0.37    -0.01   0.03  -0.13
   3   6    -0.18  -0.16   0.07    -0.02  -0.18   0.34     0.00  -0.02   0.04
   4   6    -0.08   0.18   0.04    -0.14   0.04  -0.12     0.06  -0.18   0.06
   5   6     0.24  -0.12   0.01     0.20  -0.06   0.08    -0.50   0.28  -0.14
   6   8    -0.03   0.07  -0.11    -0.02  -0.01   0.02     0.07   0.02  -0.11
   7   8    -0.04  -0.11   0.25    -0.13   0.11  -0.14     0.25  -0.20   0.26
   8   6    -0.01   0.17  -0.30     0.05  -0.05   0.07    -0.10   0.06  -0.09
   9   1    -0.06   0.13  -0.04    -0.09   0.11  -0.13    -0.03  -0.00  -0.05
  10   1     0.07  -0.04  -0.00     0.06   0.01  -0.09     0.01   0.02  -0.05
  11   1     0.05   0.02  -0.00     0.20  -0.19   0.04     0.07  -0.09   0.02
  12   1     0.12  -0.06  -0.02     0.12   0.14  -0.10    -0.05   0.10  -0.03
  13   1     0.13  -0.02  -0.04    -0.07   0.02   0.07    -0.02   0.00   0.02
  14   1    -0.12  -0.01   0.02    -0.19   0.15   0.10    -0.12  -0.03   0.02
  15   1    -0.12  -0.09  -0.03     0.13  -0.04  -0.17     0.23   0.12  -0.02
  16   1     0.05   0.02   0.01    -0.13  -0.15  -0.02    -0.04   0.04   0.02
  17   1    -0.13   0.02   0.11     0.26   0.20   0.11     0.40   0.09  -0.13
  18   1    -0.26   0.01   0.23     0.05  -0.01  -0.07    -0.01   0.01   0.08
  19   1    -0.18  -0.08   0.18     0.04   0.03  -0.05    -0.05  -0.05   0.06
  20   1     0.42  -0.12  -0.06    -0.16   0.05   0.01     0.23  -0.06  -0.01
                     28                     29                     30
                        a                      a                      a 
 Frequencies --  1239.1830              1263.7401              1275.8147
 Red. masses --     4.0140                 3.1532                 2.7842
 Frc consts  --     0.0000                 0.0000                 0.0000
 IR Inten    --    27.0180                48.0383                18.2400
 Raman Activ --     0.0000                 0.0000                 0.0000
 Depolar     --     0.0000                 0.0000                 0.0000
 Atom AN      X      Y      Z        X      Y      Z        X      Y      Z
   1   6    -0.08  -0.14  -0.21    -0.01  -0.04   0.09     0.06   0.14   0.11
   2   6     0.05   0.16   0.21     0.04   0.06  -0.09    -0.03  -0.05   0.06
   3   6    -0.03  -0.10   0.01    -0.07   0.05  -0.17    -0.00  -0.13  -0.13
   4   6    -0.30  -0.13  -0.06    -0.14  -0.16   0.16    -0.27  -0.02  -0.02
   5   6     0.08   0.05   0.05     0.20  -0.05   0.06     0.09   0.01   0.04
   6   8    -0.01  -0.00  -0.03    -0.03  -0.01   0.03    -0.00   0.01  -0.02
   7   8     0.00  -0.00  -0.00    -0.07   0.04  -0.06    -0.01   0.00  -0.01
   8   6    -0.01  -0.01  -0.01     0.03  -0.01   0.00    -0.00  -0.00  -0.00
   9   1     0.02   0.03   0.08    -0.03   0.05  -0.04     0.01  -0.08  -0.03
  10   1     0.14  -0.17   0.13     0.02   0.00  -0.03    -0.09   0.12  -0.08
  11   1    -0.08   0.20  -0.04     0.06  -0.06   0.02     0.03  -0.12   0.02
  12   1     0.20  -0.25   0.04    -0.15   0.12  -0.02    -0.38   0.17   0.03
  13   1    -0.25   0.22  -0.11    -0.01   0.03  -0.03     0.46  -0.24  -0.01
  14   1     0.27   0.18  -0.00    -0.30  -0.27  -0.04     0.28   0.11  -0.04
  15   1     0.12   0.04  -0.01     0.42   0.28   0.06    -0.19  -0.13  -0.01
  16   1     0.27   0.14  -0.02     0.43   0.35   0.03     0.24   0.13  -0.01
  17   1     0.35   0.20   0.05    -0.13  -0.11  -0.03     0.29   0.20   0.06
  18   1     0.00   0.00   0.00    -0.01  -0.00  -0.00    -0.01  -0.00   0.00
  19   1    -0.02   0.01   0.01    -0.02   0.02   0.00    -0.01   0.01   0.01
  20   1    -0.01   0.01   0.00    -0.05   0.02  -0.00    -0.02   0.01   0.00
                     31                     32                     33
                        a                      a                      a 
 Frequencies --  1342.6733              1346.6685              1370.5492
 Red. masses --     4.1895                 4.9153                 2.5596
 Frc consts  --     0.0000                 0.0000                 0.0000
 IR Inten    --    19.9623                 2.6289                25.0724
 Raman Activ --     0.0000                 0.0000                 0.0000
 Depolar     --     0.0000                 0.0000                 0.0000
 Atom AN      X      Y      Z        X      Y      Z        X      Y      Z
   1   6     0.03   0.04  -0.03    -0.09  -0.06   0.07    -0.00  -0.00   0.00
   2   6    -0.21   0.21   0.02     0.44  -0.14   0.02     0.01  -0.01  -0.00
   3   6    -0.32  -0.23   0.03    -0.32  -0.05  -0.03     0.01   0.01   0.00
   4   6     0.18   0.05  -0.02     0.14   0.04  -0.04     0.01   0.01   0.01
   5   6    -0.01  -0.03   0.00    -0.02  -0.00  -0.00    -0.09   0.03   0.00
   6   8     0.00   0.00   0.01    -0.00  -0.00   0.01     0.02   0.02  -0.05
   7   8    -0.01   0.01  -0.01    -0.00   0.00  -0.00     0.15  -0.05   0.00
   8   6     0.02  -0.00  -0.00    -0.00  -0.00   0.00     0.29  -0.06  -0.09
   9   1     0.05  -0.09   0.06    -0.07   0.16  -0.06    -0.00   0.00  -0.00
  10   1     0.03  -0.03   0.06    -0.01   0.02  -0.07    -0.00   0.00  -0.00
  11   1     0.03  -0.08  -0.01     0.03   0.07   0.02    -0.00   0.00   0.00
  12   1     0.17  -0.10  -0.01    -0.47   0.20   0.03    -0.01   0.01  -0.00
  13   1     0.39  -0.15  -0.05    -0.29   0.17  -0.02    -0.02   0.01   0.00
  14   1     0.30   0.17  -0.00     0.37   0.18  -0.02    -0.01   0.00   0.00
  15   1     0.48   0.24  -0.05     0.11   0.11   0.06    -0.02  -0.01   0.00
  16   1    -0.14  -0.07   0.00    -0.10  -0.06  -0.01     0.00  -0.04  -0.00
  17   1    -0.14  -0.08  -0.00    -0.11  -0.06  -0.00     0.02  -0.01  -0.04
  18   1    -0.02  -0.00   0.01     0.01   0.00  -0.00    -0.44  -0.07   0.23
  19   1    -0.01   0.00   0.01     0.01  -0.00  -0.01    -0.38   0.11   0.28
  20   1    -0.02   0.01  -0.00     0.01  -0.00   0.00    -0.57   0.20  -0.03
                     34                     35                     36
                        a                      a                      a 
 Frequencies --  1412.4128              1434.2326              1436.6622
 Red. masses --     3.2171                 1.6234                 2.1484
 Frc consts  --     0.0000                 0.0000                 0.0000
 IR Inten    --     2.8278                 9.4155                 3.4247
 Raman Activ --     0.0000                 0.0000                 0.0000
 Depolar     --     0.0000                 0.0000                 0.0000
 Atom AN      X      Y      Z        X      Y      Z        X      Y      Z
   1   6    -0.26   0.32  -0.12    -0.01   0.01  -0.01     0.04  -0.03   0.02
   2   6     0.11  -0.05  -0.01     0.00  -0.00  -0.00    -0.00   0.01   0.01
   3   6    -0.00   0.05  -0.00     0.00   0.00   0.00    -0.02  -0.01   0.01
   4   6    -0.02   0.03   0.03     0.03  -0.04  -0.04    -0.15   0.19   0.18
   5   6     0.01  -0.00   0.00    -0.01   0.00  -0.01     0.05  -0.01   0.05
   6   8    -0.00   0.00  -0.00    -0.00  -0.01   0.01     0.01   0.01  -0.03
   7   8    -0.00   0.00  -0.00    -0.01  -0.02  -0.02    -0.02   0.00  -0.01
   8   6    -0.00   0.00   0.00    -0.08  -0.17  -0.12    -0.02  -0.06   0.00
   9   1     0.11  -0.41   0.23     0.01  -0.01   0.02    -0.03   0.05  -0.07
  10   1     0.38  -0.22   0.22     0.01  -0.01   0.00    -0.04   0.02  -0.01
  11   1     0.33  -0.39  -0.03     0.02  -0.01  -0.00    -0.09   0.03   0.00
  12   1    -0.12  -0.01   0.01    -0.00  -0.00   0.00     0.03   0.01  -0.00
  13   1    -0.11   0.03   0.07    -0.00  -0.00   0.01     0.02   0.00  -0.03
  14   1     0.02  -0.04  -0.01    -0.00  -0.01  -0.00     0.01   0.01   0.00
  15   1    -0.04  -0.02  -0.02    -0.00  -0.00  -0.01     0.02   0.01  -0.00
  16   1     0.06  -0.09  -0.00    -0.07   0.13   0.00     0.31  -0.56  -0.01
  17   1    -0.01  -0.04  -0.09    -0.02   0.03   0.14     0.09  -0.15  -0.60
  18   1     0.00   0.00  -0.01    -0.04   0.01   0.52    -0.07  -0.01   0.04
  19   1     0.00   0.00  -0.00     0.26   0.01  -0.28     0.05   0.11  -0.13
  20   1     0.00  -0.00   0.00     0.12   0.64   0.24     0.11   0.15   0.07
                     37                     38                     39
                        a                      a                      a 
 Frequencies --  1440.2393              1478.7795              1485.5453
 Red. masses --     1.5851                 1.8735                 1.9195
 Frc consts  --     0.0000                 0.0000                 0.0000
 IR Inten    --    17.0610                 0.7666                 0.8690
 Raman Activ --     0.0000                 0.0000                 0.0000
 Depolar     --     0.0000                 0.0000                 0.0000
 Atom AN      X      Y      Z        X      Y      Z        X      Y      Z
   1   6     0.01  -0.00   0.00     0.02   0.03   0.01     0.00  -0.06   0.01
   2   6     0.00   0.00   0.00     0.04   0.11  -0.10     0.06   0.18  -0.14
   3   6    -0.01   0.00   0.00     0.09  -0.15  -0.15    -0.05   0.11   0.09
   4   6    -0.03   0.04   0.03     0.01  -0.01  -0.01    -0.02   0.00   0.01
   5   6     0.02  -0.01   0.01     0.00  -0.00  -0.00     0.00   0.00   0.00
   6   8     0.00  -0.00   0.01    -0.00  -0.00   0.00    -0.00   0.00   0.00
   7   8    -0.03   0.03  -0.04    -0.00   0.00  -0.00     0.00  -0.00   0.00
   8   6    -0.06   0.14  -0.15    -0.00  -0.00  -0.00     0.00  -0.00   0.00
   9   1    -0.00   0.01  -0.01    -0.02  -0.03  -0.08     0.02   0.03   0.06
  10   1    -0.01   0.00   0.00     0.03  -0.01   0.02    -0.04   0.06  -0.13
  11   1    -0.02   0.00   0.00    -0.08  -0.03  -0.00     0.07   0.15   0.01
  12   1     0.00   0.00   0.00    -0.16  -0.34   0.00    -0.24  -0.50   0.01
  13   1     0.00   0.00  -0.00    -0.02  -0.10   0.36    -0.03  -0.15   0.53
  14   1     0.01  -0.00  -0.00    -0.27   0.49   0.02     0.17  -0.31  -0.02
  15   1     0.00   0.00  -0.00    -0.04   0.13   0.54     0.04  -0.07  -0.34
  16   1     0.06  -0.10  -0.00     0.00  -0.01  -0.00     0.03  -0.01  -0.00
  17   1     0.01  -0.03  -0.11    -0.01  -0.01  -0.01     0.01  -0.00  -0.02
  18   1     0.43   0.10   0.39     0.00   0.00   0.01    -0.00  -0.00  -0.00
  19   1     0.15  -0.60   0.30     0.00  -0.00  -0.00    -0.00   0.00   0.00
  20   1    -0.29  -0.06  -0.09     0.00   0.00   0.00    -0.00  -0.00  -0.00
                     40                     41                     42
                        a                      a                      a 
 Frequencies --  1499.3295              1505.0327              1697.8817
 Red. masses --     1.5959                 1.5452                13.2993
 Frc consts  --     0.0000                 0.0000                 0.0000
 IR Inten    --     1.0790                 1.5210               705.0126
 Raman Activ --     0.0000                 0.0000                 0.0000
 Depolar     --     0.0000                 0.0000                 0.0000
 Atom AN      X      Y      Z        X      Y      Z        X      Y      Z
   1   6     0.15   0.14   0.03     0.07  -0.03  -0.20    -0.00   0.00  -0.00
   2   6     0.06   0.04  -0.01     0.03   0.00  -0.05    -0.00  -0.00  -0.00
   3   6    -0.04   0.04   0.04    -0.00  -0.00   0.00     0.01   0.01   0.00
   4   6     0.01  -0.01  -0.01    -0.01  -0.01   0.00     0.06  -0.01  -0.06
   5   6     0.00   0.00  -0.00    -0.00   0.00   0.00    -0.27  -0.26   0.71
   6   8    -0.00  -0.00   0.00     0.00   0.00  -0.00     0.17   0.20  -0.52
   7   8     0.00  -0.00   0.00    -0.00  -0.00   0.00    -0.01   0.03  -0.05
   8   6     0.00  -0.00   0.00     0.00  -0.00  -0.00    -0.01  -0.01   0.02
   9   1    -0.16  -0.01  -0.49     0.07   0.48   0.34     0.00  -0.00  -0.00
  10   1     0.11  -0.17   0.34    -0.48  -0.01   0.49     0.00  -0.00   0.00
  11   1    -0.58  -0.37  -0.00     0.11  -0.34  -0.03    -0.00  -0.00   0.00
  12   1    -0.05  -0.06   0.00    -0.05  -0.01  -0.01     0.00  -0.00  -0.00
  13   1    -0.04   0.01   0.06    -0.01  -0.02   0.05    -0.01   0.00   0.01
  14   1     0.08  -0.12  -0.01    -0.02   0.00   0.00    -0.01  -0.00   0.00
  15   1     0.02  -0.03  -0.14     0.00   0.00   0.01    -0.00   0.00   0.00
  16   1    -0.02   0.04   0.00     0.00   0.00   0.00     0.05   0.02  -0.01
  17   1    -0.01   0.01   0.05     0.04   0.01  -0.01    -0.03  -0.01   0.04
  18   1    -0.00  -0.00  -0.00    -0.00  -0.00  -0.00     0.03   0.00  -0.02
  19   1    -0.00   0.00   0.00    -0.00   0.00   0.00     0.03  -0.00  -0.02
  20   1    -0.00  -0.00  -0.00     0.00  -0.00  -0.00     0.01  -0.01   0.01
                     43                     44                     45
                        a                      a                      a 
 Frequencies --  2968.6595              2972.1802              2984.3849
 Red. masses --     1.9473                 1.8947                 1.5673
 Frc consts  --     0.0000                 0.0000                 0.0000
 IR Inten    --    36.9724                40.4634                71.9912
 Raman Activ --     0.0000                 0.0000                 0.0000
 Depolar     --     0.0000                 0.0000                 0.0000
 Atom AN      X      Y      Z        X      Y      Z        X      Y      Z
   1   6    -0.00  -0.00   0.00    -0.01  -0.01  -0.01    -0.00   0.00   0.01
   2   6     0.01   0.02   0.07     0.10   0.17   0.19    -0.02  -0.03  -0.10
   3   6    -0.10   0.17  -0.20     0.05  -0.07   0.00     0.05  -0.10  -0.16
   4   6     0.01  -0.01   0.02    -0.00   0.00  -0.01    -0.01   0.01   0.02
   5   6     0.00  -0.00   0.00    -0.00   0.00  -0.00     0.00  -0.00  -0.00
   6   8    -0.00   0.00   0.00     0.00  -0.00   0.00    -0.00  -0.00   0.00
   7   8     0.00  -0.00  -0.00    -0.00   0.00  -0.00    -0.00   0.00  -0.00
   8   6    -0.00  -0.00   0.00     0.00  -0.00   0.00     0.00  -0.00   0.00
   9   1     0.01   0.00  -0.00     0.01  -0.00  -0.01     0.00   0.00   0.00
  10   1     0.01   0.01   0.00     0.02   0.06   0.02    -0.01  -0.01  -0.00
  11   1     0.00  -0.00   0.01    -0.00  -0.01   0.05    -0.00   0.00  -0.04
  12   1    -0.01  -0.00  -0.28    -0.02   0.02  -0.47     0.02   0.00   0.31
  13   1    -0.03  -0.06  -0.01    -0.32  -0.64  -0.20     0.06   0.11   0.03
  14   1     0.02  -0.01   0.58     0.01  -0.02   0.11     0.05  -0.06   0.75
  15   1     0.32  -0.59   0.17    -0.17   0.30  -0.10    -0.23   0.42  -0.16
  16   1    -0.00  -0.00  -0.07    -0.00  -0.00   0.02    -0.01   0.00  -0.12
  17   1    -0.03   0.07  -0.02     0.01  -0.02   0.01     0.02  -0.05   0.02
  18   1    -0.00  -0.00   0.00     0.00   0.00   0.00     0.00  -0.00   0.00
  19   1     0.00   0.00   0.00    -0.00  -0.00  -0.00    -0.00  -0.00  -0.00
  20   1     0.00   0.00  -0.00     0.00   0.00  -0.00     0.00   0.01  -0.02
                     46                     47                     48
                        a                      a                      a 
 Frequencies --  2988.7694              2997.6508              3009.1606
 Red. masses --     1.5075                 1.5481                 1.5549
 Frc consts  --     0.0000                 0.0000                 0.0000
 IR Inten    --    67.9302                13.8070                25.3855
 Raman Activ --     0.0000                 0.0000                 0.0000
 Depolar     --     0.0000                 0.0000                 0.0000
 Atom AN      X      Y      Z        X      Y      Z        X      Y      Z
   1   6     0.02   0.01  -0.02     0.00  -0.00   0.00    -0.00  -0.01  -0.01
   2   6    -0.05  -0.13   0.14    -0.00  -0.00   0.00     0.00   0.01   0.01
   3   6     0.03  -0.06   0.01     0.00  -0.00  -0.00    -0.00   0.01   0.03
   4   6    -0.00   0.01  -0.01    -0.00   0.00   0.01    -0.03   0.08   0.20
   5   6     0.00  -0.00  -0.00    -0.00   0.00  -0.00    -0.00   0.00   0.01
   6   8    -0.00  -0.00   0.00    -0.00  -0.00   0.00     0.00   0.00  -0.00
   7   8    -0.00   0.00  -0.00     0.01  -0.00  -0.01    -0.00   0.00   0.00
   8   6    -0.00  -0.00   0.00     0.06   0.06  -0.20     0.00  -0.01   0.01
   9   1    -0.07  -0.01   0.02    -0.00  -0.00   0.00     0.00  -0.00  -0.00
  10   1    -0.00  -0.02  -0.01     0.00   0.00   0.00     0.01   0.02   0.01
  11   1     0.01  -0.00   0.05     0.00  -0.00  -0.00    -0.00  -0.00   0.02
  12   1    -0.05  -0.03  -0.72    -0.00  -0.00  -0.01    -0.00   0.00  -0.03
  13   1     0.26   0.50   0.20     0.00   0.01   0.00    -0.01  -0.02  -0.01
  14   1     0.00  -0.01   0.04     0.00  -0.00   0.01    -0.01   0.01  -0.12
  15   1    -0.12   0.22  -0.07    -0.00   0.01  -0.00     0.02  -0.03   0.02
  16   1    -0.00  -0.00   0.01    -0.00   0.00  -0.03    -0.05   0.04  -0.88
  17   1     0.01  -0.03   0.01     0.00  -0.01   0.00     0.16  -0.32   0.15
  18   1     0.00  -0.00   0.00    -0.02   0.16  -0.03    -0.00   0.02  -0.00
  19   1     0.00   0.00   0.00    -0.08  -0.06  -0.11    -0.00  -0.00  -0.00
  20   1     0.00   0.01  -0.01    -0.13  -0.32   0.88     0.00   0.01  -0.03
                     49                     50                     51
                        a                      a                      a 
 Frequencies --  3013.6799              3018.4812              3019.1195
 Red. masses --     1.8668                 1.7531                 1.9323
 Frc consts  --     0.0000                 0.0000                 0.0000
 IR Inten    --     9.6032                 2.6806                33.8365
 Raman Activ --     0.0000                 0.0000                 0.0000
 Depolar     --     0.0000                 0.0000                 0.0000
 Atom AN      X      Y      Z        X      Y      Z        X      Y      Z
   1   6    -0.00  -0.00   0.00    -0.00  -0.00  -0.00    -0.01  -0.02  -0.00
   2   6    -0.00  -0.00  -0.00    -0.00  -0.00  -0.00    -0.00   0.00  -0.00
   3   6     0.00  -0.00  -0.00    -0.00   0.01  -0.01    -0.01   0.02  -0.02
   4   6    -0.00   0.00  -0.00    -0.03   0.06  -0.05    -0.10   0.20  -0.17
   5   6     0.00  -0.00   0.00    -0.00   0.00  -0.00    -0.00   0.01  -0.01
   6   8     0.00   0.00   0.00    -0.00   0.00  -0.00     0.00  -0.00   0.00
   7   8    -0.01   0.00  -0.00     0.01  -0.00   0.00    -0.00   0.00   0.00
   8   6    -0.13  -0.17  -0.18     0.05  -0.22   0.08    -0.01   0.07  -0.03
   9   1     0.00   0.00  -0.00     0.00  -0.00  -0.00     0.01   0.00  -0.01
  10   1    -0.00  -0.00   0.00     0.01   0.01   0.01     0.02   0.05   0.02
  11   1     0.00  -0.00  -0.00    -0.00  -0.00  -0.00    -0.00  -0.00  -0.00
  12   1     0.00  -0.00   0.00    -0.00   0.00   0.00    -0.00   0.00   0.01
  13   1     0.00   0.00   0.00     0.00   0.00   0.00    -0.00  -0.00  -0.00
  14   1     0.00  -0.00   0.01     0.00  -0.00   0.02     0.00  -0.00   0.05
  15   1    -0.00   0.00  -0.00     0.01  -0.02   0.01     0.04  -0.07   0.02
  16   1    -0.00  -0.00  -0.00     0.00   0.00   0.12     0.01   0.01   0.34
  17   1     0.00  -0.00   0.00     0.10  -0.20   0.07     0.36  -0.72   0.26
  18   1    -0.05   0.18  -0.04    -0.14   0.88  -0.04     0.04  -0.26   0.01
  19   1     0.55   0.45   0.61    -0.10  -0.12  -0.10     0.03   0.03   0.03
  20   1    -0.03  -0.06   0.07     0.03   0.03  -0.15    -0.01  -0.01   0.05
                     52                     53                     54
                        a                      a                      a 
 Frequencies --  3030.8014              3036.9019              3047.9478
 Red. masses --     1.8768                 1.9069                 1.3622
 Frc consts  --     0.0000                 0.0000                 0.0000
 IR Inten    --    81.5192                75.0578                45.2764
 Raman Activ --     0.0000                 0.0000                 0.0000
 Depolar     --     0.0000                 0.0000                 0.0000
 Atom AN      X      Y      Z        X      Y      Z        X      Y      Z
   1   6     0.06  -0.01  -0.27     0.24   0.15   0.03    -0.05   0.16   0.06
   2   6    -0.00  -0.00  -0.03     0.02   0.02   0.00     0.00   0.01   0.01
   3   6    -0.00   0.00  -0.01    -0.00   0.00  -0.00     0.00   0.00  -0.00
   4   6     0.00  -0.00  -0.00    -0.01   0.01  -0.00    -0.00   0.01  -0.01
   5   6    -0.00  -0.00  -0.00    -0.00   0.00  -0.00     0.00   0.00  -0.00
   6   8     0.00  -0.00   0.00     0.00  -0.00  -0.00    -0.00  -0.00   0.00
   7   8     0.00  -0.00  -0.00     0.00  -0.00   0.00    -0.00   0.00  -0.00
   8   6     0.00  -0.00  -0.00    -0.00   0.00  -0.00     0.00  -0.00  -0.00
   9   1    -0.26  -0.04   0.06    -0.71  -0.08   0.27     0.48   0.09  -0.17
  10   1     0.05   0.08  -0.01    -0.17  -0.47  -0.20    -0.30  -0.68  -0.28
  11   1     0.02  -0.03   0.91     0.03   0.03  -0.18    -0.00   0.01   0.25
  12   1     0.00   0.01   0.09     0.00   0.00   0.01    -0.00   0.00  -0.02
  13   1     0.00   0.00  -0.00    -0.04  -0.07  -0.03    -0.01  -0.01  -0.01
  14   1    -0.00  -0.00   0.02     0.00   0.00   0.00     0.00   0.00   0.00
  15   1     0.01  -0.01   0.00     0.01  -0.02   0.01     0.00  -0.00   0.00
  16   1     0.00  -0.00   0.01    -0.00   0.00  -0.00    -0.00   0.00   0.00
  17   1    -0.00   0.01  -0.00     0.02  -0.04   0.02     0.02  -0.04   0.01
  18   1    -0.00   0.00  -0.00     0.00  -0.00   0.00    -0.00   0.00  -0.00
  19   1     0.00   0.00   0.00     0.00   0.00   0.00    -0.00  -0.00  -0.00
  20   1    -0.00  -0.00   0.00    -0.00   0.00  -0.00    -0.00  -0.00   0.00
