      -----------------------------------------------------------      
     |                   =====================                   |     
     |                           x T B                           |     
     |                   =====================                   |     
     |                         S. Grimme                         |     
     |          Mulliken Center for Theoretical Chemistry        |     
     |                    University of Bonn                     |     
      -----------------------------------------------------------      

   * xtb version 6.7.1 (edcfbbe) compiled by 'albert@albert-system' on 2024-07-22

   xtb is free software: you can redistribute it and/or modify it under
   the terms of the GNU Lesser General Public License as published by
   the Free Software Foundation, either version 3 of the License, or
   (at your option) any later version.
   
   xtb is distributed in the hope that it will be useful,
   but WITHOUT ANY WARRANTY; without even the implied warranty of
   MERCHANTABILITY or FITNESS FOR A PARTICULAR PURPOSE.  See the
   GNU Lesser General Public License for more details.
   
   Cite this work as:
   * C. Bannwarth, E. Caldeweyher, S. Ehlert, A. Hansen, P. Pracht,
     J. Seibert, S. Spicher, S. Grimme, WIREs Comput. Mol. Sci., 2020, 11,
     e01493. DOI: 10.1002/wcms.1493
   
   for GFN2-xTB:
   * C. Bannwarth, S. Ehlert and S. Grimme., J. Chem. Theory Comput., 2019,
     15, 1652-1671. DOI: 10.1021/acs.jctc.8b01176
   for GFN1-xTB:
   * S. Grimme, C. Bannwarth, P. Shushkov, J. Chem. Theory Comput., 2017,
     13, 1989-2009. DOI: 10.1021/acs.jctc.7b00118
   for GFN0-xTB:
   * P. Pracht, E. Caldeweyher, S. Ehlert, S. Grimme, ChemRxiv, 2019, preprint.
     DOI: 10.26434/chemrxiv.8326202.v1
   for GFN-FF:
   * S. Spicher and S. Grimme, Angew. Chem. Int. Ed., 2020, 59, 15665-15673.
     DOI: 10.1002/anie.202004239
   
   for ALPB and GBSA implicit solvation:
   * S. Ehlert, M. Stahn, S. Spicher, S. Grimme, J. Chem. Theory Comput.,
     2021, 17, 4250-4261. DOI: 10.1021/acs.jctc.1c00471
   
   for ddCOSMO and CPCM-X implicit solvation:
   * M. Stahn, S. Ehlert, S. Grimme, J. Phys. Chem. A,
     2023, XX, XXXX-XXXX. DOI: 10.1021/acs.jpca.3c04382
   
   for DFT-D4:
   * E. Caldeweyher, C. Bannwarth and S. Grimme, J. Chem. Phys., 2017,
     147, 034112. DOI: 10.1063/1.4993215
   * E. Caldeweyher, S. Ehlert, A. Hansen, H. Neugebauer, S. Spicher,
     C. Bannwarth and S. Grimme, J. Chem. Phys., 2019, 150, 154122.
     DOI: 10.1063/1.5090222
   * E. Caldeweyher, J.-M. Mewes, S. Ehlert and S. Grimme, Phys. Chem. Chem. Phys.
     2020, 22, 8499-8512. DOI: 10.1039/D0CP00502A
   
   for sTDA-xTB:
   * S. Grimme and C. Bannwarth, J. Chem. Phys., 2016, 145, 054103.
     DOI: 10.1063/1.4959605
   
   in the mass-spec context:
   * V. Asgeirsson, C. Bauer and S. Grimme, Chem. Sci., 2017, 8, 4879.
     DOI: 10.1039/c7sc00601b
   * J. Koopman and S. Grimme, ACS Omega 2019, 4, 12, 15120-15133.
     DOI: 10.1021/acsomega.9b02011
   
   for metadynamics refer to:
   * S. Grimme, J. Chem. Theory Comput., 2019, 155, 2847-2862
     DOI: 10.1021/acs.jctc.9b00143
   
   for SPH calculations refer to:
   * S. Spicher and S. Grimme, J. Chem. Theory Comput., 2021, 17, 1701-1714
     DOI: 10.1021/acs.jctc.0c01306
   
   for ONIOM refer to:
   * C. Plett, A. Katbashev, S. Ehlert, S. Grimme, M. Bursch,
     Phys. Chem. Chem. Phys., 2023, 25, 17860-17868. DOI: 10.1039/D3CP02178E
   
   for DIPRO refer to:
   * J. Kohn, N. Gildemeister, S. Grimme, D. Fazzi, A. Hansen,
     J. Chem. Phys., 2023, just accepted.
   
   for PTB refer to:
   * S. Grimme, M. Mueller, A. Hansen, J. Chem. Phys., 2023, 158, 124111.
     DOI: 10.1063/5.0137838
   
   with help from (in alphabetical order)
   P. Atkinson, C. Bannwarth, F. Bohle, G. Brandenburg, E. Caldeweyher
   M. Checinski, S. Dohm, S. Ehlert, S. Ehrlich, I. Gerasimov, C. Hölzer
   A. Katbashev, J. Kohn, J. Koopman, C. Lavigne, S. Lehtola, F. März, M. Müller,
   F. Musil, H. Neugebauer, J. Pisarek, C. Plett, P. Pracht, F. Pultar,
   J. Seibert, P. Shushkov, S. Spicher, M. Stahn, M. Steiner, T. Strunk,
   J. Stückrath, T. Rose, and J. Unsleber
   
 * started run on 2025/04/11 at 16:20:40.713     
   ID    Z sym.   atoms
    1    6 C      1-5
    2    8 O      6, 7
    3    1 H      8-17

           -------------------------------------------------
          |                Calculation Setup                |
           -------------------------------------------------

          program call               : /srv/scratch/z5358697/.xtb/bin/xtb xtb_rrho.coord --gfn2 --bhess vtight --chrg 0 --enso --norestart -I rrho-xcontrol-inp --parallel 1 --alpb water
          hostname                   : k018
          coordinate file            : xtb_rrho.coord
          omp threads                :                     1


           -------------------------------------------------
          |                 G F N 2 - x T B                 |
           -------------------------------------------------

        Reference                      10.1021/acs.jctc.8b01176
      * Hamiltonian:
        H0-scaling (s, p, d)           1.850000    2.230000    2.230000
        zeta-weighting                 0.500000
      * Dispersion:
        s8                             2.700000
        a1                             0.520000
        a2                             5.000000
        s9                             5.000000
      * Repulsion:
        kExp                           1.500000    1.000000
        rExp                           1.000000
      * Coulomb:
        alpha                          2.000000
        third order                    shell-resolved
        anisotropic                    true
        a3                             3.000000
        a5                             4.000000
        cn-shift                       1.200000
        cn-exp                         4.000000
        max-rad                        5.000000

      * Solvation model:               ALPB
        Solvent                        water
        Parameter file                 internal GFN2-xTB/ALPB
        Dielectric constant                8.0200E+01
        Reference state                gsolv [1 M gas/solution]
        Free energy shift                  1.0808E-03 Eh       6.7819E-01 kcal/mol
        Temperature                        2.9815E+02 K
        Density                            1.0000E+00 kg/L
        Solvent mass                       1.8000E+01 g/mol
        Interaction kernel             P16
        Born radius scaling (c1)           1.4744E+00
        Born radii integrator          GBOBC
        Born offset                        0.0000E+00 a0       0.0000E+00 AA
        H-bond correction              true
        Ion screening                  false
        Surface tension                    1.0000E-05 Eh       1.5569E+01 dyn/cm
        Grid points                               974 per atom

          ...................................................
          :                      SETUP                      :
          :.................................................:
          :  # basis functions                  38          :
          :  # atomic orbitals                  38          :
          :  # shells                           24          :
          :  # electrons                        42          :
          :  max. iterations                   250          :
          :  Hamiltonian                  GFN2-xTB          :
          :  restarted?                      false          :
          :  GBSA solvation                   true          :
          :  PC potential                    false          :
          :  electronic temp.          300.0000000     K    :
          :  accuracy                    1.0000000          :
          :  -> integral cutoff          0.2500000E+02      :
          :  -> integral neglect         0.1000000E-07      :
          :  -> SCF convergence          0.1000000E-05 Eh   :
          :  -> wf. convergence          0.1000000E-03 e    :
          :  Broyden damping             0.4000000          :
          :  net charge                          0          :
          :  unpaired electrons                  0          :
          ...................................................

 iter      E             dE          RMSdq      gap      omega  full diag
   1    -24.1690211 -0.241690E+02  0.378E+00    5.67       0.0  T
   2    -24.2198527 -0.508316E-01  0.186E+00    4.76       1.0  T
   3    -24.2219617 -0.210894E-02  0.101E+00    5.09       1.0  T
   4    -24.2234525 -0.149080E-02  0.158E-01    4.87       1.0  T
   5    -24.2235906 -0.138126E-03  0.725E-02    4.91       1.0  T
   6    -24.2235924 -0.180182E-05  0.184E-02    4.90       1.3  T
   7    -24.2235930 -0.605059E-06  0.463E-03    4.91       5.2  T
   8    -24.2235930 -0.310308E-07  0.247E-03    4.91       9.8  T
   9    -24.2235930 -0.590088E-08  0.431E-04    4.91      56.2  T
  10    -24.2235930 -0.747011E-09  0.154E-04    4.91     157.7  T

   *** convergence criteria satisfied after 10 iterations ***

         #    Occupation            Energy/Eh            Energy/eV
      -------------------------------------------------------------
         1        2.0000           -0.7419933             -20.1907
       ...           ...                  ...                  ...
        15        2.0000           -0.4787091             -13.0263
        16        2.0000           -0.4702331             -12.7957
        17        2.0000           -0.4567297             -12.4282
        18        2.0000           -0.4422902             -12.0353
        19        2.0000           -0.4312789             -11.7357
        20        2.0000           -0.4251786             -11.5697
        21        2.0000           -0.4229262             -11.5084 (HOMO)
        22                         -0.2426422              -6.6026 (LUMO)
        23                          0.0513982               1.3986
        24                          0.0903062               2.4574
        25                          0.0934348               2.5425
        26                          0.1274365               3.4677
       ...                                ...                  ...
        38                          0.5856173              15.9355
      -------------------------------------------------------------
                  HL-Gap            0.1802839 Eh            4.9058 eV
             Fermi-level           -0.3327842 Eh           -9.0555 eV

 SCC (total)                   0 d,  0 h,  0 min,  0.019 sec
 SCC setup                      ...        0 min,  0.001 sec (  5.407%)
 Dispersion                     ...        0 min,  0.000 sec (  0.455%)
 classical contributions        ...        0 min,  0.000 sec (  0.112%)
 integral evaluation            ...        0 min,  0.001 sec (  6.846%)
 iterations                     ...        0 min,  0.012 sec ( 65.813%)
 molecular gradient             ...        0 min,  0.004 sec ( 20.382%)
 printout                       ...        0 min,  0.000 sec (  0.887%)

         :::::::::::::::::::::::::::::::::::::::::::::::::::::
         ::                     SUMMARY                     ::
         :::::::::::::::::::::::::::::::::::::::::::::::::::::
         :: total energy             -23.962472729685 Eh    ::
         :: total w/o Gsasa/hb       -23.956852941934 Eh    ::
         :: gradient norm              0.032709032377 Eh/a0 ::
         :: HOMO-LUMO gap              4.905775635944 eV    ::
         ::.................................................::
         :: SCC energy               -24.223556391097 Eh    ::
         :: -> isotropic ES            0.065712022892 Eh    ::
         :: -> anisotropic ES          0.002600931144 Eh    ::
         :: -> anisotropic XC          0.006279755729 Eh    ::
         :: -> dispersion             -0.010226438609 Eh    ::
         :: -> Gsolv                  -0.015095605391 Eh    ::
         ::    -> Gelec               -0.009475817640 Eh    ::
         ::    -> Gsasa                0.002246935279 Eh    ::
         ::    -> Ghb                 -0.008947482728 Eh    ::
         ::    -> Gshift               0.001080759698 Eh    ::
         :: repulsion energy           0.261083661412 Eh    ::
         :: add. restraining           0.000000000000 Eh    ::
         :: total charge               0.000000000000 e     ::
         :::::::::::::::::::::::::::::::::::::::::::::::::::::

metadynamics with 1 initial structures loaded
           -------------------------------------------------
          |           Optimal kpush determination           |
           -------------------------------------------------
      ----------------------------------------------------------- 
     |                   =====================                   |
     |                        A N C O P T                        |
     |                   =====================                   |
     |               Approximate Normal Coordinate               |
     |                Rational Function Optimizer                |
      ----------------------------------------------------------- 
target rmsd / Å         0.100000
unbiased initial rmsd   0.067265
 
iter. min.        max.        rmsd       kpush
final kpush:  0.000000
           -------------------------------------------------
          |            Biased Numerical Hessian             |
           -------------------------------------------------
kpush                :   0.00000
alpha                :   1.00000
step length          :   0.00500
SCC accuracy         :   0.30000
Hessian scale factor :   1.00000
frozen atoms in %    :   0.00000    0
RMS gradient         :   0.00004
estimated CPU  time      0.01 min
estimated wall time      0.01 min

writing file <hessian>.

 projected vibrational frequencies (cm⁻¹)
eigval :       -0.00    -0.00    -0.00     0.00     0.00     0.00
eigval :       51.17    86.92   104.10   223.39   246.48   309.44
eigval :      393.38   472.27   530.12   614.30   674.21   808.58
eigval :      829.39   880.30   933.27   948.27  1025.38  1073.23
eigval :     1096.56  1117.75  1140.00  1176.99  1203.07  1222.92
eigval :     1263.72  1319.33  1345.31  1351.08  1415.49  1424.38
eigval :     1473.91  1488.78  1502.87  1508.47  1708.47  2964.46
eigval :     2966.03  2979.19  2983.25  2995.51  3008.98  3025.21
eigval :     3029.36  3040.68  3342.82
           -------------------------------------------------
          |                Property Printout                |
           -------------------------------------------------

    * Orbital Energies and Occupations

         #    Occupation            Energy/Eh            Energy/eV
      -------------------------------------------------------------
         1        2.0000           -0.7448226             -20.2677
       ...           ...                  ...                  ...
         9        2.0000           -0.5604094             -15.2495
        10        2.0000           -0.5495688             -14.9545
        11        2.0000           -0.5112481             -13.9118
        12        2.0000           -0.5079967             -13.8233
        13        2.0000           -0.4918786             -13.3847
        14        2.0000           -0.4821864             -13.1210
        15        2.0000           -0.4788844             -13.0311
        16        2.0000           -0.4695494             -12.7771
        17        2.0000           -0.4567339             -12.4284
        18        2.0000           -0.4403039             -11.9813
        19        2.0000           -0.4308949             -11.7252
        20        2.0000           -0.4260996             -11.5948
        21        2.0000           -0.4213325             -11.4650 (HOMO)
        22                         -0.2355581              -6.4099 (LUMO)
        23                          0.0543917               1.4801
        24                          0.0984697               2.6795
        25                          0.1005464               2.7360
        26                          0.1337170               3.6386
        27                          0.1440630               3.9202
        28                          0.1508876               4.1059
        29                          0.1696409               4.6162
        30                          0.1880216               5.1163
        31                          0.1946869               5.2977
        32                          0.2043234               5.5599
       ...                                ...                  ...
        38                          0.6146093              16.7244
      -------------------------------------------------------------
                  HL-Gap            0.1857744 Eh            5.0552 eV
             Fermi-level           -0.3284453 Eh           -8.9375 eV

     #   Z          covCN         q      C6AA      α(0)
     1   6 C        3.751    -0.107    22.611     6.781
     2   6 C        3.800    -0.062    21.692     6.631
     3   6 C        3.802    -0.063    21.714     6.634
     4   6 C        3.803    -0.100    22.397     6.738
     5   6 C        2.689     0.373    20.674     7.441
     6   8 O        0.856    -0.492    23.608     6.514
     7   8 O        1.659    -0.422    21.285     6.228
     8   1 H        0.925     0.032     2.564     2.504
     9   1 H        0.925     0.033     2.551     2.498
    10   1 H        0.925     0.041     2.438     2.442
    11   1 H        0.924     0.041     2.435     2.440
    12   1 H        0.924     0.042     2.420     2.433
    13   1 H        0.924     0.051     2.304     2.373
    14   1 H        0.924     0.049     2.336     2.390
    15   1 H        0.924     0.091     1.874     2.141
    16   1 H        0.925     0.082     1.955     2.186
    17   1 H        0.803     0.412     0.463     1.069

 Mol. C6AA /au·bohr⁶  :       2215.285757
 Mol. C8AA /au·bohr⁸  :      47335.375811
 Mol. α(0) /au        :         69.444269


Wiberg/Mayer (AO) data.
largest (>0.10) Wiberg bond orders for each atom

 ---------------------------------------------------------------------------
     #   Z sym  total        # sym  WBO       # sym  WBO       # sym  WBO
 ---------------------------------------------------------------------------
     1   6 C    3.997 --     2 C    1.021     9 H    0.988    10 H    0.986
                             8 H    0.985
     2   6 C    3.997 --     1 C    1.021     3 C    1.009    12 H    0.977
                            11 H    0.976
     3   6 C    3.993 --     2 C    1.009     4 C    0.996    13 H    0.977
                            14 H    0.974
     4   6 C    3.990 --     3 C    0.996     5 C    0.988    16 H    0.967
                            15 H    0.936
     5   6 C    3.902 --     6 O    1.700     7 O    1.170     4 C    0.988
     6   8 O    1.971 --     5 C    1.700     7 O    0.169
     7   8 O    2.177 --     5 C    1.170    17 H    0.805     6 O    0.169
     8   1 H    0.999 --     1 C    0.985
     9   1 H    0.999 --     1 C    0.988
    10   1 H    0.998 --     1 C    0.986
    11   1 H    0.998 --     2 C    0.976
    12   1 H    0.998 --     2 C    0.977
    13   1 H    0.997 --     3 C    0.977
    14   1 H    0.998 --     3 C    0.974
    15   1 H    0.992 --     4 C    0.936
    16   1 H    0.993 --     4 C    0.967
    17   1 H    0.830 --     7 O    0.805
 ---------------------------------------------------------------------------

Topologies differ in total number of bonds
Writing topology from bond orders to xtbtopo.mol

molecular dipole:
                 x           y           z       tot (Debye)
 q only:       -0.053       0.524      -0.826
   full:        0.066       0.448      -0.846       2.440
molecular quadrupole (traceless):
                xx          xy          yy          xz          yz          zz
 q only:        2.830      -1.874       1.300      -4.289       4.316      -4.129
  q+dip:        3.251      -2.092       1.665      -3.911       4.584      -4.916
   full:        3.704      -1.711       1.614      -3.885       5.026      -5.319

           -------------------------------------------------
          |                Geometry Summary                 |
           -------------------------------------------------

      molecular mass/u    :      102.1318968
   center of mass at/Å    :        0.0007361       0.0008714      -0.0018299
  moments of inertia/u·Å² :        0.1264158E+03   0.2849548E+03   0.3126860E+03
rotational constants/cm⁻¹ :        0.1333507E+00   0.5915897E-01   0.5391233E-01

 * 15 selected distances

     #   Z          #   Z                                           value/Å
     1   6 C        2   6 C                                       1.5238336
     2   6 C        3   6 C                                       1.5286129
     3   6 C        4   6 C                                       1.5307927 (max)
     5   6 C        6   8 O                                       1.2125270
     5   6 C        7   8 O                                       1.3268847
     1   6 C        8   1 H                                       1.0875955
     1   6 C        9   1 H                                       1.0883081
     1   6 C       10   1 H                                       1.0872748
     2   6 C       11   1 H                                       1.0917285
     2   6 C       12   1 H                                       1.0921356
     3   6 C       13   1 H                                       1.0903910
     3   6 C       14   1 H                                       1.0923131
     4   6 C       15   1 H                                       1.0927797
     4   6 C       16   1 H                                       1.0896214
     7   8 O       17   1 H                                       0.9767441 (min)

 * 4 distinct bonds (by element types)

   Z      Z             #   av. dist./Å        max./Å        min./Å
   1 H    6 C           9     1.0902386     1.0927797     1.0872748
   6 C    6 C           3     1.5277464     1.5307927     1.5238336
   1 H    8 O           1     0.9767441     0.9767441     0.9767441
   6 C    8 O           2     1.2697059     1.3268847     1.2125270

           -------------------------------------------------
          |               Frequency Printout                |
           -------------------------------------------------
 projected vibrational frequencies (cm⁻¹)
eigval :       -0.00    -0.00    -0.00     0.00     0.00     0.00
eigval :       51.17    86.92   104.10   223.39   246.48   309.44
eigval :      393.38   472.27   530.12   614.30   674.21   808.58
eigval :      829.39   880.30   933.27   948.27  1025.38  1073.23
eigval :     1096.56  1117.75  1140.00  1176.99  1203.07  1222.92
eigval :     1263.72  1319.33  1345.31  1351.08  1415.49  1424.38
eigval :     1473.91  1488.78  1502.87  1508.47  1708.47  2964.46
eigval :     2966.03  2979.19  2983.25  2995.51  3008.98  3025.21
eigval :     3029.36  3040.68  3342.82
 reduced masses (amu)
   1: 13.88   2: 12.97   3: 12.20   4: 10.59   5: 10.36   6: 10.69   7: 13.81   8:  9.78
   9:  8.10  10:  5.95  11:  7.44  12:  6.41  13:  9.41  14:  8.73  15:  9.14  16:  8.65
  17:  6.54  18:  3.88  19:  7.53  20:  7.04  21:  6.82  22:  5.54  23:  6.04  24:  6.02
  25:  6.52  26:  7.05  27:  7.37  28:  5.41  29:  7.40  30:  4.44  31:  2.60  32:  5.79
  33:  4.37  34:  5.17  35:  3.22  36:  1.96  37:  1.88  38:  1.93  39:  1.55  40:  1.57
  41: 13.26  42:  1.80  43:  1.90  44:  1.86  45:  1.58  46:  1.57  47:  1.71  48:  1.89
  49:  1.94  50:  1.30  51:  1.85
 IR intensities (km·mol⁻¹)
   1:  0.68   2:  0.04   3:  0.07   4:  0.36   5:  0.06   6:  1.68   7:  4.86   8:  0.66
   9:  1.02  10:  1.55  11:  2.36  12:  0.92  13:  9.56  14:  5.99  15: 41.26  16: 63.49
  17:243.44  18: 16.03  19: 33.40  20:  3.98  21:  8.30  22: 13.63  23:  8.14  24:223.28
  25:  6.20  26:149.48  27: 21.11  28: 33.17  29:137.01  30: 39.82  31:  0.12  32: 96.57
  33:  5.44  34: 19.29  35:  2.12  36: 14.77  37:  0.99  38:  0.13  39:  3.12  40:  0.41
  41:687.14  42: 11.30  43: 33.59  44: 38.66  45: 68.37  46: 82.91  47: 29.62  48: 83.13
  49: 91.36  50: 40.82  51:181.42
 Raman intensities (Ä⁴*amu⁻¹)
   1:  0.00   2:  0.00   3:  0.00   4:  0.00   5:  0.00   6:  0.00   7:  0.00   8:  0.00
   9:  0.00  10:  0.00  11:  0.00  12:  0.00  13:  0.00  14:  0.00  15:  0.00  16:  0.00
  17:  0.00  18:  0.00  19:  0.00  20:  0.00  21:  0.00  22:  0.00  23:  0.00  24:  0.00
  25:  0.00  26:  0.00  27:  0.00  28:  0.00  29:  0.00  30:  0.00  31:  0.00  32:  0.00
  33:  0.00  34:  0.00  35:  0.00  36:  0.00  37:  0.00  38:  0.00  39:  0.00  40:  0.00
  41:  0.00  42:  0.00  43:  0.00  44:  0.00  45:  0.00  46:  0.00  47:  0.00  48:  0.00
  49:  0.00  50:  0.00  51:  0.00
 output can be read by thermo (or use thermo option).
 writing <g98.out> molden fake output.
 recommended (thermochemical) frequency scaling factor: 1.0
           -------------------------------------------------
          |             Thermodynamic Functions             |
           -------------------------------------------------

Molecule has no symmetry elements
It seems to be the C1 point group
c1  symmetry found (for desy threshold:  0.10E+00) used in thermo

          ...................................................
          :                      SETUP                      :
          :.................................................:
          :  # frequencies                          45      :
          :  # imaginary freq.                       0      :
          :  linear?                             false      :
          :  only rotor calc.                    false      :
          :  symmetry                               c1      :
          :  rotational number                       1      :
          :  scaling factor                  1.0000000      :
          :  rotor cutoff                    0.0000000 cm⁻¹ :
          :  imag. cutoff                 -100.0000000 cm⁻¹ :
          :.................................................:

    mode    ω/cm⁻¹     T·S(HO)/kcal·mol⁻¹    T·S(FR)/kcal·mol⁻¹   T·S(vib)
   ------------------------------------------------------------------------
       1     51.17    -1.42263 (100.00%)    -1.04928 (  0.00%)    -1.42263
       2     86.92    -1.11157 (100.00%)    -0.89250 (  0.00%)    -1.11157
       3    104.10    -1.00658 (100.00%)    -0.83911 (  0.00%)    -1.00658
       4    223.39    -0.57585 (100.00%)    -0.61301 (  0.00%)    -0.57585
       5    246.48    -0.52345 (100.00%)    -0.58389 (  0.00%)    -0.52345
   ------------------------------------------------------------------------

   temp. (K)  partition function   enthalpy   heat capacity  entropy
                                   cal/mol     cal/K/mol   cal/K/mol   J/K/mol
 298.15  VIB   167.                 3350.800     22.796     21.412
         ROT  0.256E+06              888.752      2.981     27.731
         INT  0.429E+08             4239.552     25.777     49.143
         TR   0.999E+27             1481.254      4.968     39.763
         TOT                        5720.8061    30.7453    88.9057   371.9815

       T/K    H(0)-H(T)+PV         H(T)/Eh          T*S/Eh         G(T)/Eh
   ------------------------------------------------------------------------
    298.15    0.911668E-02    0.153322E+00    0.422420E-01    0.111080E+00
   ------------------------------------------------------------------------

         :::::::::::::::::::::::::::::::::::::::::::::::::::::
         ::                  THERMODYNAMIC                  ::
         :::::::::::::::::::::::::::::::::::::::::::::::::::::
         :: total free energy         -23.853113813114 Eh   ::
         ::.................................................::
         :: total energy              -23.964193794486 Eh   ::
         :: zero point energy           0.144205266586 Eh   ::
         :: G(RRHO) w/o ZPVE           -0.033125285215 Eh   ::
         :: G(RRHO) contrib.            0.111079981372 Eh   ::
         :::::::::::::::::::::::::::::::::::::::::::::::::::::

optimized geometry written to: xtbopt.coord


           -------------------------------------------------
          | TOTAL ENERGY              -23.964193794486 Eh   |
          | TOTAL ENTHALPY            -23.810871843036 Eh   |
          | TOTAL FREE ENERGY         -23.853113813114 Eh   |
          | GRADIENT NORM               0.000043963343 Eh/α |
          | HOMO-LUMO GAP               5.055178899229 eV   |
           -------------------------------------------------

------------------------------------------------------------------------
 * finished run on 2025/04/11 at 16:20:41.804     
------------------------------------------------------------------------
 total:
 * wall-time:     0 d,  0 h,  0 min,  1.091 sec
 *  cpu-time:     0 d,  0 h,  0 min,  1.006 sec
 * ratio c/w:     0.922 speedup
 SCF:
 * wall-time:     0 d,  0 h,  0 min,  0.019 sec
 *  cpu-time:     0 d,  0 h,  0 min,  0.012 sec
 * ratio c/w:     0.642 speedup
 analytical hessian:
 * wall-time:     0 d,  0 h,  0 min,  0.862 sec
 *  cpu-time:     0 d,  0 h,  0 min,  0.837 sec
 * ratio c/w:     0.971 speedup

