      -----------------------------------------------------------      
     |                   =====================                   |     
     |                           x T B                           |     
     |                   =====================                   |     
     |                         S. Grimme                         |     
     |          Mulliken Center for Theoretical Chemistry        |     
     |                    University of Bonn                     |     
      -----------------------------------------------------------      

   * xtb version 6.7.1 (edcfbbe) compiled by 'albert@albert-system' on 2024-07-22

   xtb is free software: you can redistribute it and/or modify it under
   the terms of the GNU Lesser General Public License as published by
   the Free Software Foundation, either version 3 of the License, or
   (at your option) any later version.
   
   xtb is distributed in the hope that it will be useful,
   but WITHOUT ANY WARRANTY; without even the implied warranty of
   MERCHANTABILITY or FITNESS FOR A PARTICULAR PURPOSE.  See the
   GNU Lesser General Public License for more details.
   
   Cite this work as:
   * C. Bannwarth, E. Caldeweyher, S. Ehlert, A. Hansen, P. Pracht,
     J. Seibert, S. Spicher, S. Grimme, WIREs Comput. Mol. Sci., 2020, 11,
     e01493. DOI: 10.1002/wcms.1493
   
   for GFN2-xTB:
   * C. Bannwarth, S. Ehlert and S. Grimme., J. Chem. Theory Comput., 2019,
     15, 1652-1671. DOI: 10.1021/acs.jctc.8b01176
   for GFN1-xTB:
   * S. Grimme, C. Bannwarth, P. Shushkov, J. Chem. Theory Comput., 2017,
     13, 1989-2009. DOI: 10.1021/acs.jctc.7b00118
   for GFN0-xTB:
   * P. Pracht, E. Caldeweyher, S. Ehlert, S. Grimme, ChemRxiv, 2019, preprint.
     DOI: 10.26434/chemrxiv.8326202.v1
   for GFN-FF:
   * S. Spicher and S. Grimme, Angew. Chem. Int. Ed., 2020, 59, 15665-15673.
     DOI: 10.1002/anie.202004239
   
   for ALPB and GBSA implicit solvation:
   * S. Ehlert, M. Stahn, S. Spicher, S. Grimme, J. Chem. Theory Comput.,
     2021, 17, 4250-4261. DOI: 10.1021/acs.jctc.1c00471
   
   for ddCOSMO and CPCM-X implicit solvation:
   * M. Stahn, S. Ehlert, S. Grimme, J. Phys. Chem. A,
     2023, XX, XXXX-XXXX. DOI: 10.1021/acs.jpca.3c04382
   
   for DFT-D4:
   * E. Caldeweyher, C. Bannwarth and S. Grimme, J. Chem. Phys., 2017,
     147, 034112. DOI: 10.1063/1.4993215
   * E. Caldeweyher, S. Ehlert, A. Hansen, H. Neugebauer, S. Spicher,
     C. Bannwarth and S. Grimme, J. Chem. Phys., 2019, 150, 154122.
     DOI: 10.1063/1.5090222
   * E. Caldeweyher, J.-M. Mewes, S. Ehlert and S. Grimme, Phys. Chem. Chem. Phys.
     2020, 22, 8499-8512. DOI: 10.1039/D0CP00502A
   
   for sTDA-xTB:
   * S. Grimme and C. Bannwarth, J. Chem. Phys., 2016, 145, 054103.
     DOI: 10.1063/1.4959605
   
   in the mass-spec context:
   * V. Asgeirsson, C. Bauer and S. Grimme, Chem. Sci., 2017, 8, 4879.
     DOI: 10.1039/c7sc00601b
   * J. Koopman and S. Grimme, ACS Omega 2019, 4, 12, 15120-15133.
     DOI: 10.1021/acsomega.9b02011
   
   for metadynamics refer to:
   * S. Grimme, J. Chem. Theory Comput., 2019, 155, 2847-2862
     DOI: 10.1021/acs.jctc.9b00143
   
   for SPH calculations refer to:
   * S. Spicher and S. Grimme, J. Chem. Theory Comput., 2021, 17, 1701-1714
     DOI: 10.1021/acs.jctc.0c01306
   
   for ONIOM refer to:
   * C. Plett, A. Katbashev, S. Ehlert, S. Grimme, M. Bursch,
     Phys. Chem. Chem. Phys., 2023, 25, 17860-17868. DOI: 10.1039/D3CP02178E
   
   for DIPRO refer to:
   * J. Kohn, N. Gildemeister, S. Grimme, D. Fazzi, A. Hansen,
     J. Chem. Phys., 2023, just accepted.
   
   for PTB refer to:
   * S. Grimme, M. Mueller, A. Hansen, J. Chem. Phys., 2023, 158, 124111.
     DOI: 10.1063/5.0137838
   
   with help from (in alphabetical order)
   P. Atkinson, C. Bannwarth, F. Bohle, G. Brandenburg, E. Caldeweyher
   M. Checinski, S. Dohm, S. Ehlert, S. Ehrlich, I. Gerasimov, C. Hölzer
   A. Katbashev, J. Kohn, J. Koopman, C. Lavigne, S. Lehtola, F. März, M. Müller,
   F. Musil, H. Neugebauer, J. Pisarek, C. Plett, P. Pracht, F. Pultar,
   J. Seibert, P. Shushkov, S. Spicher, M. Stahn, M. Steiner, T. Strunk,
   J. Stückrath, T. Rose, and J. Unsleber
   
 * started run on 2025/04/11 at 16:13:11.379     
   ID    Z sym.   atoms
    1    6 C      1-8, 10-16
    2    7 N      9
    3    8 O      17, 18
    4    1 H      19-33

           -------------------------------------------------
          |                Calculation Setup                |
           -------------------------------------------------

          program call               : /srv/scratch/z5358697/.xtb/bin/xtb gas.coord --gfn2 --sp --chrg 0 --norestart --parallel 1
          hostname                   : k114
          coordinate file            : gas.coord
          omp threads                :                     1


           -------------------------------------------------
          |                 G F N 2 - x T B                 |
           -------------------------------------------------

        Reference                      10.1021/acs.jctc.8b01176
      * Hamiltonian:
        H0-scaling (s, p, d)           1.850000    2.230000    2.230000
        zeta-weighting                 0.500000
      * Dispersion:
        s8                             2.700000
        a1                             0.520000
        a2                             5.000000
        s9                             5.000000
      * Repulsion:
        kExp                           1.500000    1.000000
        rExp                           1.000000
      * Coulomb:
        alpha                          2.000000
        third order                    shell-resolved
        anisotropic                    true
        a3                             3.000000
        a5                             4.000000
        cn-shift                       1.200000
        cn-exp                         4.000000
        max-rad                        5.000000


          ...................................................
          :                      SETUP                      :
          :.................................................:
          :  # basis functions                  87          :
          :  # atomic orbitals                  87          :
          :  # shells                           51          :
          :  # electrons                        92          :
          :  max. iterations                   250          :
          :  Hamiltonian                  GFN2-xTB          :
          :  restarted?                      false          :
          :  GBSA solvation                  false          :
          :  PC potential                    false          :
          :  electronic temp.          300.0000000     K    :
          :  accuracy                    1.0000000          :
          :  -> integral cutoff          0.2500000E+02      :
          :  -> integral neglect         0.1000000E-07      :
          :  -> SCF convergence          0.1000000E-05 Eh   :
          :  -> wf. convergence          0.1000000E-03 e    :
          :  Broyden damping             0.4000000          :
          :  net charge                          0          :
          :  unpaired electrons                  0          :
          ...................................................

 iter      E             dE          RMSdq      gap      omega  full diag
   1    -51.5607878 -0.515608E+02  0.397E+00    2.59       0.0  T
   2    -51.6286782 -0.678904E-01  0.234E+00    2.89       1.0  T
   3    -51.6300205 -0.134235E-02  0.119E+00    2.83       1.0  T
   4    -51.6379780 -0.795748E-02  0.286E-01    2.76       1.0  T
   5    -51.6394612 -0.148326E-02  0.929E-02    2.74       1.0  T
   6    -51.6395664 -0.105186E-03  0.418E-02    2.75       1.0  T
   7    -51.6395793 -0.129090E-04  0.173E-02    2.75       1.0  T
   8    -51.6395808 -0.147961E-05  0.634E-03    2.75       2.7  T
   9    -51.6395817 -0.905983E-06  0.263E-03    2.75       6.6  T
  10    -51.6395818 -0.631603E-07  0.112E-03    2.75      15.6  T
  11    -51.6395818 -0.241695E-08  0.491E-04    2.75      35.4  T
  12    -51.6395818 -0.430035E-08  0.224E-04    2.75      77.6  T

   *** convergence criteria satisfied after 12 iterations ***

         #    Occupation            Energy/Eh            Energy/eV
      -------------------------------------------------------------
         1        2.0000           -0.7354062             -20.0114
       ...           ...                  ...                  ...
        40        2.0000           -0.4262280             -11.5983
        41        2.0000           -0.4194697             -11.4144
        42        2.0000           -0.4125672             -11.2265
        43        2.0000           -0.4035607             -10.9814
        44        2.0000           -0.3980304             -10.8310
        45        2.0000           -0.3871470             -10.5348
        46        2.0000           -0.3574491              -9.7267 (HOMO)
        47                         -0.2563180              -6.9748 (LUMO)
        48                         -0.2267566              -6.1704
        49                         -0.2166809              -5.8962
        50                         -0.2043150              -5.5597
        51                         -0.1905155              -5.1842
       ...                                ...                  ...
        87                          0.6754766              18.3807
      -------------------------------------------------------------
                  HL-Gap            0.1011311 Eh            2.7519 eV
             Fermi-level           -0.3068836 Eh           -8.3507 eV

 SCC (total)                   0 d,  0 h,  0 min,  0.050 sec
 SCC setup                      ...        0 min,  0.000 sec (  0.565%)
 Dispersion                     ...        0 min,  0.000 sec (  0.672%)
 classical contributions        ...        0 min,  0.000 sec (  0.092%)
 integral evaluation            ...        0 min,  0.005 sec ( 10.194%)
 iterations                     ...        0 min,  0.029 sec ( 58.007%)
 molecular gradient             ...        0 min,  0.015 sec ( 30.011%)
 printout                       ...        0 min,  0.000 sec (  0.432%)

         :::::::::::::::::::::::::::::::::::::::::::::::::::::
         ::                     SUMMARY                     ::
         :::::::::::::::::::::::::::::::::::::::::::::::::::::
         :: total energy             -50.837332040338 Eh    ::
         :: gradient norm              0.030046689036 Eh/a0 ::
         :: HOMO-LUMO gap              2.751916529018 eV    ::
         ::.................................................::
         :: SCC energy               -51.639049336521 Eh    ::
         :: -> isotropic ES            0.059404139701 Eh    ::
         :: -> anisotropic ES          0.005325975984 Eh    ::
         :: -> anisotropic XC          0.020316847560 Eh    ::
         :: -> dispersion             -0.038045095824 Eh    ::
         :: repulsion energy           0.801717296183 Eh    ::
         :: add. restraining           0.000000000000 Eh    ::
         :: total charge               0.000000000000 e     ::
         :::::::::::::::::::::::::::::::::::::::::::::::::::::

           -------------------------------------------------
          |                Property Printout                |
           -------------------------------------------------

    * Orbital Energies and Occupations

         #    Occupation            Energy/Eh            Energy/eV
      -------------------------------------------------------------
         1        2.0000           -0.7354062             -20.0114
       ...           ...                  ...                  ...
        34        2.0000           -0.4607388             -12.5373
        35        2.0000           -0.4583094             -12.4712
        36        2.0000           -0.4542958             -12.3620
        37        2.0000           -0.4447423             -12.1021
        38        2.0000           -0.4419034             -12.0248
        39        2.0000           -0.4323914             -11.7660
        40        2.0000           -0.4262280             -11.5983
        41        2.0000           -0.4194697             -11.4144
        42        2.0000           -0.4125672             -11.2265
        43        2.0000           -0.4035607             -10.9814
        44        2.0000           -0.3980304             -10.8310
        45        2.0000           -0.3871470             -10.5348
        46        2.0000           -0.3574491              -9.7267 (HOMO)
        47                         -0.2563180              -6.9748 (LUMO)
        48                         -0.2267566              -6.1704
        49                         -0.2166809              -5.8962
        50                         -0.2043150              -5.5597
        51                         -0.1905155              -5.1842
        52                         -0.0964221              -2.6238
        53                         -0.0848413              -2.3086
        54                          0.0126483               0.3442
        55                          0.0693965               1.8884
        56                          0.1036178               2.8196
        57                          0.1150439               3.1305
       ...                                ...                  ...
        87                          0.6754766              18.3807
      -------------------------------------------------------------
                  HL-Gap            0.1011311 Eh            2.7519 eV
             Fermi-level           -0.3068836 Eh           -8.3507 eV

     #   Z          covCN         q      C6AA      α(0)
     1   6 C        3.758    -0.109    22.635     6.783
     2   6 C        2.970     0.010    27.791     8.647
     3   6 C        2.924    -0.050    29.236     8.867
     4   6 C        2.916    -0.037    28.924     8.819
     5   6 C        2.925    -0.057    29.419     8.895
     6   6 C        2.907     0.059    26.667     8.467
     7   6 C        2.969    -0.008    28.210     8.712
     8   6 C        3.757    -0.109    22.629     6.782
     9   7 N        2.700    -0.145    24.141     7.297
    10   6 C        2.900     0.084    26.135     8.382
    11   6 C        2.926    -0.062    29.537     8.913
    12   6 C        2.918    -0.025    28.616     8.772
    13   6 C        2.916    -0.043    29.076     8.842
    14   6 C        2.929    -0.022    28.560     8.764
    15   6 C        2.971    -0.040    29.002     8.834
    16   6 C        2.701     0.361    20.878     7.479
    17   8 O        0.857    -0.443    22.557     6.368
    18   8 O        1.659    -0.377    20.409     6.099
    19   1 H        0.925     0.044     2.391     2.418
    20   1 H        0.925     0.042     2.426     2.436
    21   1 H        0.925     0.054     2.271     2.357
    22   1 H        0.926     0.030     2.585     2.514
    23   1 H        0.926     0.030     2.588     2.516
    24   1 H        0.926     0.029     2.602     2.523
    25   1 H        0.925     0.039     2.460     2.453
    26   1 H        0.925     0.047     2.352     2.399
    27   1 H        0.924     0.056     2.250     2.346
    28   1 H        0.860     0.162     1.322     1.801
    29   1 H        0.926     0.029     2.606     2.524
    30   1 H        0.926     0.036     2.501     2.473
    31   1 H        0.926     0.036     2.496     2.471
    32   1 H        0.926     0.052     2.297     2.370
    33   1 H        0.804     0.327     0.646     1.263

 Mol. C6AA /au·bohr⁶  :      13070.735027
 Mol. C8AA /au·bohr⁸  :     314807.648578
 Mol. α(0) /au        :        180.584212


Wiberg/Mayer (AO) data.
largest (>0.10) Wiberg bond orders for each atom

 ---------------------------------------------------------------------------
     #   Z sym  total        # sym  WBO       # sym  WBO       # sym  WBO
 ---------------------------------------------------------------------------
     1   6 C    3.996 --     2 C    1.028    20 H    0.985    21 H    0.973
                            19 H    0.967
     2   6 C    3.988 --     3 C    1.416     7 C    1.383     1 C    1.028
                             5 C    0.101
     3   6 C    3.986 --     4 C    1.429     2 C    1.416    22 H    0.969
     4   6 C    3.992 --     5 C    1.452     3 C    1.429    23 H    0.971
                             7 C    0.101
     5   6 C    3.985 --     4 C    1.452     6 C    1.372    24 H    0.969
                             2 C    0.101
     6   6 C    3.964 --     5 C    1.372     7 C    1.356     9 N    1.061
     7   6 C    3.983 --     2 C    1.383     6 C    1.356     8 C    1.030
                             4 C    0.101
     8   6 C    3.996 --     7 C    1.030    25 H    0.980    26 H    0.974
                            27 H    0.961
     9   7 N    3.437 --    10 C    1.171     6 C    1.061    28 H    0.935
    10   6 C    3.973 --    11 C    1.322    15 C    1.296     9 N    1.171
    11   6 C    3.983 --    12 C    1.487    10 C    1.322    29 H    0.967
                            14 C    0.103
    12   6 C    3.990 --    11 C    1.487    13 C    1.393    30 H    0.971
    13   6 C    3.980 --    14 C    1.463    12 C    1.393    31 H    0.970
    14   6 C    3.989 --    13 C    1.463    15 C    1.379    32 H    0.967
                            11 C    0.103
    15   6 C    3.980 --    14 C    1.379    10 C    1.296    16 C    1.015
    16   6 C    3.912 --    17 O    1.708    18 O    1.128    15 C    1.015
    17   8 O    1.998 --    16 C    1.708    18 O    0.164
    18   8 O    2.201 --    16 C    1.128    33 H    0.866    17 O    0.164
    19   1 H    0.998 --     1 C    0.967
    20   1 H    0.998 --     1 C    0.985
    21   1 H    0.997 --     1 C    0.973
    22   1 H    0.999 --     3 C    0.969
    23   1 H    0.998 --     4 C    0.971
    24   1 H    0.999 --     5 C    0.969
    25   1 H    0.998 --     8 C    0.980
    26   1 H    0.997 --     8 C    0.974
    27   1 H    0.997 --     8 C    0.961
    28   1 H    0.973 --     9 N    0.935
    29   1 H    0.999 --    11 C    0.967
    30   1 H    0.998 --    12 C    0.971
    31   1 H    0.998 --    13 C    0.970
    32   1 H    0.997 --    14 C    0.967
    33   1 H    0.893 --    18 O    0.866
 ---------------------------------------------------------------------------

Topologies differ in total number of bonds
Writing topology from bond orders to xtbtopo.mol

molecular dipole:
                 x           y           z       tot (Debye)
 q only:       -0.358      -0.982       0.038
   full:       -0.383      -1.070       0.222       2.945
molecular quadrupole (traceless):
                xx          xy          yy          xz          yz          zz
 q only:        0.314      -5.248      -3.058      -0.329       1.464       2.744
  q+dip:       -0.397      -6.711      -0.980      -2.680       2.037       1.377
   full:       -0.169      -5.624      -2.244      -0.201       2.517       2.413


           -------------------------------------------------
          | TOTAL ENERGY              -50.837332040338 Eh   |
          | GRADIENT NORM               0.030046689036 Eh/α |
          | HOMO-LUMO GAP               2.751916529018 eV   |
           -------------------------------------------------

------------------------------------------------------------------------
 * finished run on 2025/04/11 at 16:13:11.555     
------------------------------------------------------------------------
 total:
 * wall-time:     0 d,  0 h,  0 min,  0.176 sec
 *  cpu-time:     0 d,  0 h,  0 min,  0.055 sec
 * ratio c/w:     0.314 speedup
 SCF:
 * wall-time:     0 d,  0 h,  0 min,  0.051 sec
 *  cpu-time:     0 d,  0 h,  0 min,  0.038 sec
 * ratio c/w:     0.758 speedup

