      -----------------------------------------------------------      
     |                   =====================                   |     
     |                           x T B                           |     
     |                   =====================                   |     
     |                         S. Grimme                         |     
     |          Mulliken Center for Theoretical Chemistry        |     
     |                    University of Bonn                     |     
      -----------------------------------------------------------      

   * xtb version 6.7.1 (edcfbbe) compiled by 'albert@albert-system' on 2024-07-22

   xtb is free software: you can redistribute it and/or modify it under
   the terms of the GNU Lesser General Public License as published by
   the Free Software Foundation, either version 3 of the License, or
   (at your option) any later version.
   
   xtb is distributed in the hope that it will be useful,
   but WITHOUT ANY WARRANTY; without even the implied warranty of
   MERCHANTABILITY or FITNESS FOR A PARTICULAR PURPOSE.  See the
   GNU Lesser General Public License for more details.
   
   Cite this work as:
   * C. Bannwarth, E. Caldeweyher, S. Ehlert, A. Hansen, P. Pracht,
     J. Seibert, S. Spicher, S. Grimme, WIREs Comput. Mol. Sci., 2020, 11,
     e01493. DOI: 10.1002/wcms.1493
   
   for GFN2-xTB:
   * C. Bannwarth, S. Ehlert and S. Grimme., J. Chem. Theory Comput., 2019,
     15, 1652-1671. DOI: 10.1021/acs.jctc.8b01176
   for GFN1-xTB:
   * S. Grimme, C. Bannwarth, P. Shushkov, J. Chem. Theory Comput., 2017,
     13, 1989-2009. DOI: 10.1021/acs.jctc.7b00118
   for GFN0-xTB:
   * P. Pracht, E. Caldeweyher, S. Ehlert, S. Grimme, ChemRxiv, 2019, preprint.
     DOI: 10.26434/chemrxiv.8326202.v1
   for GFN-FF:
   * S. Spicher and S. Grimme, Angew. Chem. Int. Ed., 2020, 59, 15665-15673.
     DOI: 10.1002/anie.202004239
   
   for ALPB and GBSA implicit solvation:
   * S. Ehlert, M. Stahn, S. Spicher, S. Grimme, J. Chem. Theory Comput.,
     2021, 17, 4250-4261. DOI: 10.1021/acs.jctc.1c00471
   
   for ddCOSMO and CPCM-X implicit solvation:
   * M. Stahn, S. Ehlert, S. Grimme, J. Phys. Chem. A,
     2023, XX, XXXX-XXXX. DOI: 10.1021/acs.jpca.3c04382
   
   for DFT-D4:
   * E. Caldeweyher, C. Bannwarth and S. Grimme, J. Chem. Phys., 2017,
     147, 034112. DOI: 10.1063/1.4993215
   * E. Caldeweyher, S. Ehlert, A. Hansen, H. Neugebauer, S. Spicher,
     C. Bannwarth and S. Grimme, J. Chem. Phys., 2019, 150, 154122.
     DOI: 10.1063/1.5090222
   * E. Caldeweyher, J.-M. Mewes, S. Ehlert and S. Grimme, Phys. Chem. Chem. Phys.
     2020, 22, 8499-8512. DOI: 10.1039/D0CP00502A
   
   for sTDA-xTB:
   * S. Grimme and C. Bannwarth, J. Chem. Phys., 2016, 145, 054103.
     DOI: 10.1063/1.4959605
   
   in the mass-spec context:
   * V. Asgeirsson, C. Bauer and S. Grimme, Chem. Sci., 2017, 8, 4879.
     DOI: 10.1039/c7sc00601b
   * J. Koopman and S. Grimme, ACS Omega 2019, 4, 12, 15120-15133.
     DOI: 10.1021/acsomega.9b02011
   
   for metadynamics refer to:
   * S. Grimme, J. Chem. Theory Comput., 2019, 155, 2847-2862
     DOI: 10.1021/acs.jctc.9b00143
   
   for SPH calculations refer to:
   * S. Spicher and S. Grimme, J. Chem. Theory Comput., 2021, 17, 1701-1714
     DOI: 10.1021/acs.jctc.0c01306
   
   for ONIOM refer to:
   * C. Plett, A. Katbashev, S. Ehlert, S. Grimme, M. Bursch,
     Phys. Chem. Chem. Phys., 2023, 25, 17860-17868. DOI: 10.1039/D3CP02178E
   
   for DIPRO refer to:
   * J. Kohn, N. Gildemeister, S. Grimme, D. Fazzi, A. Hansen,
     J. Chem. Phys., 2023, just accepted.
   
   for PTB refer to:
   * S. Grimme, M. Mueller, A. Hansen, J. Chem. Phys., 2023, 158, 124111.
     DOI: 10.1063/5.0137838
   
   with help from (in alphabetical order)
   P. Atkinson, C. Bannwarth, F. Bohle, G. Brandenburg, E. Caldeweyher
   M. Checinski, S. Dohm, S. Ehlert, S. Ehrlich, I. Gerasimov, C. Hölzer
   A. Katbashev, J. Kohn, J. Koopman, C. Lavigne, S. Lehtola, F. März, M. Müller,
   F. Musil, H. Neugebauer, J. Pisarek, C. Plett, P. Pracht, F. Pultar,
   J. Seibert, P. Shushkov, S. Spicher, M. Stahn, M. Steiner, T. Strunk,
   J. Stückrath, T. Rose, and J. Unsleber
   
 * started run on 2025/04/11 at 16:26:45.505     
   ID    Z sym.   atoms
    1    6 C      1-5, 8
    2    8 O      6, 7
    3    1 H      9-20

           -------------------------------------------------
          |                Calculation Setup                |
           -------------------------------------------------

          program call               : /srv/scratch/z5358697/.xtb/bin/xtb xtb_rrho.coord --gfn2 --bhess vtight --chrg 0 --enso --norestart -I rrho-xcontrol-inp --parallel 1 --alpb water
          hostname                   : k068
          coordinate file            : xtb_rrho.coord
          omp threads                :                     1


           -------------------------------------------------
          |                 G F N 2 - x T B                 |
           -------------------------------------------------

        Reference                      10.1021/acs.jctc.8b01176
      * Hamiltonian:
        H0-scaling (s, p, d)           1.850000    2.230000    2.230000
        zeta-weighting                 0.500000
      * Dispersion:
        s8                             2.700000
        a1                             0.520000
        a2                             5.000000
        s9                             5.000000
      * Repulsion:
        kExp                           1.500000    1.000000
        rExp                           1.000000
      * Coulomb:
        alpha                          2.000000
        third order                    shell-resolved
        anisotropic                    true
        a3                             3.000000
        a5                             4.000000
        cn-shift                       1.200000
        cn-exp                         4.000000
        max-rad                        5.000000

      * Solvation model:               ALPB
        Solvent                        water
        Parameter file                 internal GFN2-xTB/ALPB
        Dielectric constant                8.0200E+01
        Reference state                gsolv [1 M gas/solution]
        Free energy shift                  1.0808E-03 Eh       6.7819E-01 kcal/mol
        Temperature                        2.9815E+02 K
        Density                            1.0000E+00 kg/L
        Solvent mass                       1.8000E+01 g/mol
        Interaction kernel             P16
        Born radius scaling (c1)           1.4744E+00
        Born radii integrator          GBOBC
        Born offset                        0.0000E+00 a0       0.0000E+00 AA
        H-bond correction              true
        Ion screening                  false
        Surface tension                    1.0000E-05 Eh       1.5569E+01 dyn/cm
        Grid points                               974 per atom

          ...................................................
          :                      SETUP                      :
          :.................................................:
          :  # basis functions                  44          :
          :  # atomic orbitals                  44          :
          :  # shells                           28          :
          :  # electrons                        48          :
          :  max. iterations                   250          :
          :  Hamiltonian                  GFN2-xTB          :
          :  restarted?                      false          :
          :  GBSA solvation                   true          :
          :  PC potential                    false          :
          :  electronic temp.          300.0000000     K    :
          :  accuracy                    1.0000000          :
          :  -> integral cutoff          0.2500000E+02      :
          :  -> integral neglect         0.1000000E-07      :
          :  -> SCF convergence          0.1000000E-05 Eh   :
          :  -> wf. convergence          0.1000000E-03 e    :
          :  Broyden damping             0.4000000          :
          :  net charge                          0          :
          :  unpaired electrons                  0          :
          ...................................................

 iter      E             dE          RMSdq      gap      omega  full diag
   1    -27.3546591 -0.273547E+02  0.399E+00    5.49       0.0  T
   2    -27.4172999 -0.626408E-01  0.199E+00    4.67       1.0  T
   3    -27.4191607 -0.186083E-02  0.102E+00    5.00       1.0  T
   4    -27.4207239 -0.156322E-02  0.170E-01    4.76       1.0  T
   5    -27.4209624 -0.238435E-03  0.702E-02    4.81       1.0  T
   6    -27.4209642 -0.181178E-05  0.205E-02    4.81       1.1  T
   7    -27.4209650 -0.822088E-06  0.387E-03    4.81       5.8  T
   8    -27.4209650 -0.164907E-07  0.213E-03    4.81      10.5  T
   9    -27.4209650 -0.537158E-08  0.261E-04    4.81      85.8  T
  10    -27.4209650 -0.147914E-09  0.118E-04    4.81     189.2  T

   *** convergence criteria satisfied after 10 iterations ***

         #    Occupation            Energy/Eh            Energy/eV
      -------------------------------------------------------------
         1        2.0000           -0.7476022             -20.3433
       ...           ...                  ...                  ...
        18        2.0000           -0.4721810             -12.8487
        19        2.0000           -0.4541817             -12.3589
        20        2.0000           -0.4498820             -12.2419
        21        2.0000           -0.4465864             -12.1522
        22        2.0000           -0.4403650             -11.9829
        23        2.0000           -0.4245919             -11.5537
        24        2.0000           -0.4227666             -11.5041 (HOMO)
        25                         -0.2460707              -6.6959 (LUMO)
        26                         -0.0123091              -0.3349
        27                          0.0746584               2.0316
        28                          0.1034998               2.8164
        29                          0.1110208               3.0210
       ...                                ...                  ...
        44                          0.5866396              15.9633
      -------------------------------------------------------------
                  HL-Gap            0.1766959 Eh            4.8081 eV
             Fermi-level           -0.3344186 Eh           -9.1000 eV

 SCC (total)                   0 d,  0 h,  0 min,  0.032 sec
 SCC setup                      ...        0 min,  0.001 sec (  3.948%)
 Dispersion                     ...        0 min,  0.000 sec (  0.371%)
 classical contributions        ...        0 min,  0.000 sec (  0.075%)
 integral evaluation            ...        0 min,  0.002 sec (  4.863%)
 iterations                     ...        0 min,  0.024 sec ( 75.221%)
 molecular gradient             ...        0 min,  0.005 sec ( 14.999%)
 printout                       ...        0 min,  0.000 sec (  0.477%)

         :::::::::::::::::::::::::::::::::::::::::::::::::::::
         ::                     SUMMARY                     ::
         :::::::::::::::::::::::::::::::::::::::::::::::::::::
         :: total energy             -27.117732929370 Eh    ::
         :: total w/o Gsasa/hb       -27.118042210262 Eh    ::
         :: gradient norm              0.030493640380 Eh/a0 ::
         :: HOMO-LUMO gap              4.808139218399 eV    ::
         ::.................................................::
         :: SCC energy               -27.420983865694 Eh    ::
         :: -> isotropic ES            0.057450478069 Eh    ::
         :: -> anisotropic ES          0.002377133766 Eh    ::
         :: -> anisotropic XC          0.008861304882 Eh    ::
         :: -> dispersion             -0.011163232967 Eh    ::
         :: -> Gsolv                  -0.008583402574 Eh    ::
         ::    -> Gelec               -0.008892683466 Eh    ::
         ::    -> Gsasa                0.001582262458 Eh    ::
         ::    -> Ghb                 -0.002353741264 Eh    ::
         ::    -> Gshift               0.001080759698 Eh    ::
         :: repulsion energy           0.303250936324 Eh    ::
         :: add. restraining           0.000000000000 Eh    ::
         :: total charge               0.000000000000 e     ::
         :::::::::::::::::::::::::::::::::::::::::::::::::::::

metadynamics with 1 initial structures loaded
           -------------------------------------------------
          |           Optimal kpush determination           |
           -------------------------------------------------
      ----------------------------------------------------------- 
     |                   =====================                   |
     |                        A N C O P T                        |
     |                   =====================                   |
     |               Approximate Normal Coordinate               |
     |                Rational Function Optimizer                |
      ----------------------------------------------------------- 
target rmsd / Å         0.100000
unbiased initial rmsd   0.140335
 
iter. min.        max.        rmsd       kpush
      ----------------------------------------------------------- 
     |                   =====================                   |
     |                        A N C O P T                        |
     |                   =====================                   |
     |               Approximate Normal Coordinate               |
     |                Rational Function Optimizer                |
      ----------------------------------------------------------- 
 1    0.000000    0.909091    0.009151   -0.454545
      ----------------------------------------------------------- 
     |                   =====================                   |
     |                        A N C O P T                        |
     |                   =====================                   |
     |               Approximate Normal Coordinate               |
     |                Rational Function Optimizer                |
      ----------------------------------------------------------- 
 2    0.000000    0.454545    0.011721   -0.227273
      ----------------------------------------------------------- 
     |                   =====================                   |
     |                        A N C O P T                        |
     |                   =====================                   |
     |               Approximate Normal Coordinate               |
     |                Rational Function Optimizer                |
      ----------------------------------------------------------- 
 3    0.000000    0.227273    0.014732   -0.113636
      ----------------------------------------------------------- 
     |                   =====================                   |
     |                        A N C O P T                        |
     |                   =====================                   |
     |               Approximate Normal Coordinate               |
     |                Rational Function Optimizer                |
      ----------------------------------------------------------- 
 4    0.000000    0.113636    0.017910   -0.056818
      ----------------------------------------------------------- 
     |                   =====================                   |
     |                        A N C O P T                        |
     |                   =====================                   |
     |               Approximate Normal Coordinate               |
     |                Rational Function Optimizer                |
      ----------------------------------------------------------- 
 5    0.000000    0.056818    0.021047   -0.028409
      ----------------------------------------------------------- 
     |                   =====================                   |
     |                        A N C O P T                        |
     |                   =====================                   |
     |               Approximate Normal Coordinate               |
     |                Rational Function Optimizer                |
      ----------------------------------------------------------- 
 6    0.000000    0.028409    0.024252   -0.014205
      ----------------------------------------------------------- 
     |                   =====================                   |
     |                        A N C O P T                        |
     |                   =====================                   |
     |               Approximate Normal Coordinate               |
     |                Rational Function Optimizer                |
      ----------------------------------------------------------- 
 7    0.000000    0.014205    0.029196   -0.007102
      ----------------------------------------------------------- 
     |                   =====================                   |
     |                        A N C O P T                        |
     |                   =====================                   |
     |               Approximate Normal Coordinate               |
     |                Rational Function Optimizer                |
      ----------------------------------------------------------- 
 8    0.000000    0.007102    0.037258   -0.003551
      ----------------------------------------------------------- 
     |                   =====================                   |
     |                        A N C O P T                        |
     |                   =====================                   |
     |               Approximate Normal Coordinate               |
     |                Rational Function Optimizer                |
      ----------------------------------------------------------- 
 9    0.000000    0.003551    0.054874   -0.001776
      ----------------------------------------------------------- 
     |                   =====================                   |
     |                        A N C O P T                        |
     |                   =====================                   |
     |               Approximate Normal Coordinate               |
     |                Rational Function Optimizer                |
      ----------------------------------------------------------- 
10    0.000000    0.001776    0.078735   -0.000888
final kpush: -0.000888
           -------------------------------------------------
          |            Biased Numerical Hessian             |
           -------------------------------------------------
kpush                :  -0.00089
alpha                :   1.00000
step length          :   0.00500
SCC accuracy         :   0.30000
Hessian scale factor :   1.00000
frozen atoms in %    :   0.00000    0
RMS gradient         :   0.00004
estimated CPU  time      0.02 min
estimated wall time      0.02 min

writing file <hessian>.

 projected vibrational frequencies (cm⁻¹)
eigval :       -0.00    -0.00    -0.00     0.00     0.00     0.00
eigval :       24.13    40.76    74.98    96.40   108.24   201.33
eigval :      230.25   251.52   282.67   382.61   404.58   636.10
eigval :      717.37   776.89   826.96   892.79   940.57   949.50
eigval :     1016.81  1058.56  1077.68  1097.86  1112.36  1120.89
eigval :     1138.16  1192.06  1217.15  1240.62  1259.91  1277.53
eigval :     1312.42  1359.14  1373.52  1411.64  1424.00  1437.99
eigval :     1449.08  1485.68  1491.04  1497.41  1500.99  1699.82
eigval :     2965.85  2976.98  2982.63  2987.77  2988.42  2997.50
eigval :     3004.80  3013.00  3029.59  3034.03  3043.45  3057.21
           -------------------------------------------------
          |                Property Printout                |
           -------------------------------------------------

    * Orbital Energies and Occupations

         #    Occupation            Energy/Eh            Energy/eV
      -------------------------------------------------------------
         1        2.0000           -0.7520681             -20.4648
       ...           ...                  ...                  ...
        12        2.0000           -0.5218565             -14.2004
        13        2.0000           -0.5192365             -14.1291
        14        2.0000           -0.5079228             -13.8213
        15        2.0000           -0.4931417             -13.4191
        16        2.0000           -0.4867176             -13.2443
        17        2.0000           -0.4764430             -12.9647
        18        2.0000           -0.4714433             -12.8286
        19        2.0000           -0.4535313             -12.3412
        20        2.0000           -0.4493136             -12.2264
        21        2.0000           -0.4462391             -12.1428
        22        2.0000           -0.4404122             -11.9842
        23        2.0000           -0.4255277             -11.5792
        24        2.0000           -0.4206167             -11.4456 (HOMO)
        25                         -0.2403081              -6.5391 (LUMO)
        26                          0.0043286               0.1178
        27                          0.0830908               2.2610
        28                          0.1046956               2.8489
        29                          0.1223501               3.3293
        30                          0.1380854               3.7575
        31                          0.1408276               3.8321
        32                          0.1545121               4.2045
        33                          0.1605290               4.3682
        34                          0.1784589               4.8561
        35                          0.1858637               5.0576
       ...                                ...                  ...
        44                          0.6143937              16.7185
      -------------------------------------------------------------
                  HL-Gap            0.1803086 Eh            4.9064 eV
             Fermi-level           -0.3304624 Eh           -8.9923 eV

     #   Z          covCN         q      C6AA      α(0)
     1   6 C        3.752    -0.115    22.761     6.803
     2   6 C        3.801    -0.061    21.667     6.627
     3   6 C        3.806    -0.054    21.538     6.607
     4   6 C        3.804    -0.100    22.412     6.740
     5   6 C        2.720     0.364    20.825     7.470
     6   8 O        0.856    -0.486    23.469     6.495
     7   8 O        1.704    -0.265    18.396     5.791
     8   6 C        3.649     0.009    20.744     6.543
     9   1 H        0.925     0.045     2.378     2.412
    10   1 H        0.925     0.041     2.437     2.441
    11   1 H        0.925     0.039     2.460     2.452
    12   1 H        0.924     0.043     2.403     2.424
    13   1 H        0.924     0.041     2.437     2.441
    14   1 H        0.924     0.045     2.382     2.413
    15   1 H        0.924     0.042     2.420     2.433
    16   1 H        0.925     0.078     2.003     2.213
    17   1 H        0.925     0.079     1.988     2.205
    18   1 H        0.924     0.075     2.026     2.226
    19   1 H        0.924     0.075     2.035     2.231
    20   1 H        0.925     0.103     1.754     2.071

 Mol. C6AA /au·bohr⁶  :       3002.482482
 Mol. C8AA /au·bohr⁸  :      63891.646201
 Mol. α(0) /au        :         81.039158


Wiberg/Mayer (AO) data.
largest (>0.10) Wiberg bond orders for each atom

 ---------------------------------------------------------------------------
     #   Z sym  total        # sym  WBO       # sym  WBO       # sym  WBO
 ---------------------------------------------------------------------------
     1   6 C    3.994 --     2 C    1.018    11 H    0.988    10 H    0.987
                             9 H    0.986
     2   6 C    3.995 --     1 C    1.018     3 C    1.005    13 H    0.978
                            12 H    0.978
     3   6 C    3.991 --     2 C    1.005    15 H    0.977    14 H    0.977
                             4 C    0.974
     4   6 C    3.989 --     5 C    0.980     3 C    0.974    17 H    0.969
                            16 H    0.965
     5   6 C    3.904 --     6 O    1.697     7 O    1.164     4 C    0.980
     6   8 O    1.972 --     5 C    1.697     7 O    0.170
     7   8 O    2.317 --     5 C    1.164     8 C    0.938     6 O    0.170
     8   6 C    3.904 --    20 H    0.977    19 H    0.976    18 H    0.976
                             7 O    0.938
     9   1 H    0.997 --     1 C    0.986
    10   1 H    0.998 --     1 C    0.987
    11   1 H    0.998 --     1 C    0.988
    12   1 H    0.998 --     2 C    0.978
    13   1 H    0.998 --     2 C    0.978
    14   1 H    0.998 --     3 C    0.977
    15   1 H    0.998 --     3 C    0.977
    16   1 H    0.994 --     4 C    0.965
    17   1 H    0.994 --     4 C    0.969
    18   1 H    0.994 --     8 C    0.976
    19   1 H    0.994 --     8 C    0.976
    20   1 H    0.989 --     8 C    0.977
 ---------------------------------------------------------------------------

Topologies differ in total number of bonds
Writing topology from bond orders to xtbtopo.mol

molecular dipole:
                 x           y           z       tot (Debye)
 q only:       -0.238      -0.872       0.715
   full:       -0.193      -0.873       0.702       2.889
molecular quadrupole (traceless):
                xx          xy          yy          xz          yz          zz
 q only:        7.542      -2.761      -5.313       6.367       3.514      -2.229
  q+dip:        5.234      -3.474      -4.316       6.115       3.633      -0.918
   full:        6.098      -3.542      -4.949       5.841       4.373      -1.148

           -------------------------------------------------
          |                Geometry Summary                 |
           -------------------------------------------------

      molecular mass/u    :      116.1585142
   center of mass at/Å    :        0.0068397      -0.0190604      -0.0312537
  moments of inertia/u·Å² :        0.9904635E+02   0.6290515E+03   0.6586624E+03
rotational constants/cm⁻¹ :        0.1701994E+00   0.2679849E-01   0.2559374E-01

 * 18 selected distances

     #   Z          #   Z                                           value/Å
     1   6 C        2   6 C                                       1.5240842
     2   6 C        3   6 C                                       1.5270205
     3   6 C        4   6 C                                       1.5358440 (max)
     5   6 C        6   8 O                                       1.2135382
     5   6 C        7   8 O                                       1.3280713
     7   8 O        8   6 C                                       1.4301664
     1   6 C        9   1 H                                       1.0867835
     1   6 C       10   1 H                                       1.0874113
     1   6 C       11   1 H                                       1.0875100
     2   6 C       12   1 H                                       1.0913886
     2   6 C       13   1 H                                       1.0914679
     3   6 C       14   1 H                                       1.0920212
     3   6 C       15   1 H                                       1.0923630
     4   6 C       16   1 H                                       1.0897546
     4   6 C       17   1 H                                       1.0889542
     8   6 C       18   1 H                                       1.0905141
     8   6 C       19   1 H                                       1.0906047
     8   6 C       20   1 H                                       1.0852710 (min)

 * 3 distinct bonds (by element types)

   Z      Z             #   av. dist./Å        max./Å        min./Å
   1 H    6 C          12     1.0895037     1.0923630     1.0852710
   6 C    6 C           3     1.5289829     1.5358440     1.5240842
   6 C    8 O           3     1.3239253     1.4301664     1.2135382

           -------------------------------------------------
          |               Frequency Printout                |
           -------------------------------------------------
 projected vibrational frequencies (cm⁻¹)
eigval :       -0.00    -0.00    -0.00     0.00     0.00     0.00
eigval :       24.13    40.76    74.98    96.40   108.24   201.33
eigval :      230.25   251.52   282.67   382.61   404.58   636.10
eigval :      717.37   776.89   826.96   892.79   940.57   949.50
eigval :     1016.81  1058.56  1077.68  1097.86  1112.36  1120.89
eigval :     1138.16  1192.06  1217.15  1240.62  1259.91  1277.53
eigval :     1312.42  1359.14  1373.52  1411.64  1424.00  1437.99
eigval :     1449.08  1485.68  1491.04  1497.41  1500.99  1699.82
eigval :     2965.85  2976.98  2982.63  2987.77  2988.42  2997.50
eigval :     3004.80  3013.00  3029.59  3034.03  3043.45  3057.21
 reduced masses (amu)
   1: 11.61   2: 12.60   3: 10.13   4: 11.55   5: 10.97   6: 11.56   7: 11.63   8:  1.38
   9:  6.48  10: 10.22  11:  7.96  12: 10.95  13:  2.84  14:  9.85  15: 10.64  16:  9.51
  17: 10.36  18: 11.36  19: 12.17  20:  1.86  21:  3.44  22:  9.56  23:  5.99  24:  4.11
  25: 11.04  26:  9.41  27:  7.32  28:  8.44  29:  3.94  30:  7.27  31:  6.33  32:  8.54
  33:  6.89  34:  4.31  35:  3.22  36:  1.82  37:  4.18  38:  5.02  39:  2.58  40:  3.18
  41:  1.51  42:  2.18  43:  1.60  44:  1.98  45:  1.82  46:  1.52  47:  1.60  48: 13.30
  49:  1.93  50:  2.02  51:  1.46  52:  1.96  53:  1.49  54:  1.38  55:  1.58  56:  1.93
  57:  1.95  58:  1.85  59:  1.34  60:  1.80
 IR intensities (km·mol⁻¹)
   1:  0.64   2:  0.17   3:  0.24   4:  0.68   5:  1.15   6:  1.06   7:  3.69   8:  0.11
   9:  0.40  10:  0.03  11:  0.14  12:  6.59  13:  1.48  14: 17.07  15:  3.77  16:  6.31
  17:  8.93  18: 20.44  19: 21.04  20:  9.81  21:  7.61  22: 26.04  23:  3.47  24:  2.59
  25: 10.47  26: 16.87  27: 89.70  28:  5.88  29:  2.56  30: 19.90  31: 29.14  32:215.54
  33:180.43  34: 45.74  35: 24.46  36:  0.45  37: 31.25  38:  1.08  39: 17.82  40:  0.66
  41: 12.80  42:  6.79  43:  2.47  44:  0.88  45:  0.62  46:  1.75  47:  0.75  48:655.34
  49:  3.17  50:114.37  51: 16.25  52: 14.36  53: 71.17  54: 17.34  55: 35.45  56: 36.97
  57: 86.78  58: 77.50  59: 43.16  60:  2.50
 Raman intensities (Ä⁴*amu⁻¹)
   1:  0.00   2:  0.00   3:  0.00   4:  0.00   5:  0.00   6:  0.00   7:  0.00   8:  0.00
   9:  0.00  10:  0.00  11:  0.00  12:  0.00  13:  0.00  14:  0.00  15:  0.00  16:  0.00
  17:  0.00  18:  0.00  19:  0.00  20:  0.00  21:  0.00  22:  0.00  23:  0.00  24:  0.00
  25:  0.00  26:  0.00  27:  0.00  28:  0.00  29:  0.00  30:  0.00  31:  0.00  32:  0.00
  33:  0.00  34:  0.00  35:  0.00  36:  0.00  37:  0.00  38:  0.00  39:  0.00  40:  0.00
  41:  0.00  42:  0.00  43:  0.00  44:  0.00  45:  0.00  46:  0.00  47:  0.00  48:  0.00
  49:  0.00  50:  0.00  51:  0.00  52:  0.00  53:  0.00  54:  0.00  55:  0.00  56:  0.00
  57:  0.00  58:  0.00  59:  0.00  60:  0.00
 output can be read by thermo (or use thermo option).
 writing <g98.out> molden fake output.
 recommended (thermochemical) frequency scaling factor: 1.0
           -------------------------------------------------
          |             Thermodynamic Functions             |
           -------------------------------------------------

Molecule has no symmetry elements
It seems to be the C1 point group
c1  symmetry found (for desy threshold:  0.10E+00) used in thermo

          ...................................................
          :                      SETUP                      :
          :.................................................:
          :  # frequencies                          54      :
          :  # imaginary freq.                       0      :
          :  linear?                             false      :
          :  only rotor calc.                    false      :
          :  symmetry                               c1      :
          :  rotational number                       1      :
          :  scaling factor                  1.0000000      :
          :  rotor cutoff                    0.0000000 cm⁻¹ :
          :  imag. cutoff                 -100.0000000 cm⁻¹ :
          :.................................................:

    mode    ω/cm⁻¹     T·S(HO)/kcal·mol⁻¹    T·S(FR)/kcal·mol⁻¹   T·S(vib)
   ------------------------------------------------------------------------
       1     24.13    -1.86682 (100.00%)    -1.27191 (  0.00%)    -1.86682
       2     40.76    -1.55681 (100.00%)    -1.11678 (  0.00%)    -1.55681
       3     74.98    -1.19800 (100.00%)    -0.93636 (  0.00%)    -1.19800
       4     96.40    -1.05119 (100.00%)    -0.86195 (  0.00%)    -1.05119
       5    108.24    -0.98397 (100.00%)    -0.82766 (  0.00%)    -0.98397
       6    201.33    -0.63236 (100.00%)    -0.64386 (  0.00%)    -0.63236
       7    230.25    -0.55963 (100.00%)    -0.60410 (  0.00%)    -0.55963
       8    251.52    -0.51279 (100.00%)    -0.57793 (  0.00%)    -0.51279
       9    282.67    -0.45243 (100.00%)    -0.54334 (  0.00%)    -0.45243
   ------------------------------------------------------------------------

   temp. (K)  partition function   enthalpy   heat capacity  entropy
                                   cal/mol     cal/K/mol   cal/K/mol   J/K/mol
 298.15  VIB  0.875E+04             4708.729     28.393     33.831
         ROT  0.489E+06              888.752      2.981     29.016
         INT  0.428E+10             5597.481     31.374     62.847
         TR   0.121E+28             1481.254      4.968     40.146
         TOT                        7078.7352    36.3417   102.9930   430.9229

       T/K    H(0)-H(T)+PV         H(T)/Eh          T*S/Eh         G(T)/Eh
   ------------------------------------------------------------------------
    298.15    0.112807E-01    0.182533E+00    0.489353E-01    0.133598E+00
   ------------------------------------------------------------------------

         :::::::::::::::::::::::::::::::::::::::::::::::::::::
         ::                  THERMODYNAMIC                  ::
         :::::::::::::::::::::::::::::::::::::::::::::::::::::
         :: total free energy         -26.986203847532 Eh   ::
         ::.................................................::
         :: total energy              -27.119801793004 Eh   ::
         :: zero point energy           0.171252576663 Eh   ::
         :: G(RRHO) w/o ZPVE           -0.037654631192 Eh   ::
         :: G(RRHO) contrib.            0.133597945471 Eh   ::
         :::::::::::::::::::::::::::::::::::::::::::::::::::::

optimized geometry written to: xtbopt.coord


           -------------------------------------------------
          | TOTAL ENERGY              -27.119801793004 Eh   |
          | TOTAL ENTHALPY            -26.937268533800 Eh   |
          | TOTAL FREE ENERGY         -26.986203847532 Eh   |
          | GRADIENT NORM               0.000044462772 Eh/α |
          | HOMO-LUMO GAP               4.906446464281 eV   |
           -------------------------------------------------

------------------------------------------------------------------------
 * finished run on 2025/04/11 at 16:26:48.870     
------------------------------------------------------------------------
 total:
 * wall-time:     0 d,  0 h,  0 min,  3.365 sec
 *  cpu-time:     0 d,  0 h,  0 min,  3.185 sec
 * ratio c/w:     0.947 speedup
 SCF:
 * wall-time:     0 d,  0 h,  0 min,  0.032 sec
 *  cpu-time:     0 d,  0 h,  0 min,  0.015 sec
 * ratio c/w:     0.456 speedup
 analytical hessian:
 * wall-time:     0 d,  0 h,  0 min,  1.200 sec
 *  cpu-time:     0 d,  0 h,  0 min,  1.188 sec
 * ratio c/w:     0.990 speedup

