! r2scan-3c def2/J RI DEFGRID2 scfconv6 printgap
%output
    printlevel normal
end
%cpcm
    smd true
    smdsolvent "water"
end
* xyz 0 1
C -3.5363431402 -0.6501894981 0.4554011465
C -2.1789083962 0.034564448 0.5491274402
C -1.2176983691 -0.4893001914 -0.5286324334
C 0.0970570211 0.2327538214 -0.4097397273
O 0.3793363759 1.2586435708 -0.9940586533
O 0.9013252507 -0.3644568576 0.4600491584
C 2.1860055291 0.2235981861 0.7249873009
C 3.2282321531 -0.2677319481 -0.2678963731
H -3.4310358847 -1.7234288546 0.5904867246
H -4.2016719938 -0.2680376014 1.2246747946
H -3.9894679211 -0.4665040505 -0.515365081
H -1.7410054265 -0.1456987306 1.5327123191
H -2.2979976543 1.1129134062 0.4240016323
H -1.6342403922 -0.298472734 -1.5172322116
H -1.0535723378 -1.5565372369 -0.386553189
H 2.0885062004 1.3123153376 0.6740417975
H 2.4275102263 -0.0892060076 1.74129831
H 2.9694896753 0.0607156607 -1.2720910783
H 4.1980950479 0.1401873842 -0.0026661849
H 3.2778351527 -1.3530847062 -0.2519073514
*
