19
 xtb: 6.7.1 (edcfbbe)
C           -3.16152813372223       -0.79988680708183       -0.20632064265539
C           -2.16299345486795        0.19689540924956        0.37489424607292
C           -0.77624246776831        0.07685584629894       -0.25522157442454
C            0.21757063621395        1.08062244975593        0.32027456806755
C            1.61886512015674        0.98562507008729       -0.31044127900039
C            2.27018042488971       -0.29141534106505       -0.06607357430294
C            2.80078215053478       -1.35416757763713        0.15143974942077
H           -4.14461681311118       -0.70403635503294        0.26602135886097
H           -2.81841906305542       -1.83015324028295       -0.05897701444831
H           -3.29103853963696       -0.64285045963630       -1.28306485524454
H           -2.53673915533288        1.21927140935014        0.23201796887453
H           -2.07843187617259        0.04540136727451        1.45892646611826
H           -0.85448042461447        0.22522181141163       -1.34130684683734
H           -0.39831036306950       -0.94353704574603       -0.10457031733620
H            0.30250503920837        0.94150381374985        1.40475634885254
H           -0.15137698960713        2.09954136512397        0.15390294076949
H            2.25608483723275        1.78642863170087        0.08327282486678
H            1.54497005103675        1.14592430876375       -1.39362688316059
H            3.27384031919433       -2.29178154776640        0.34000360275131
