      -----------------------------------------------------------      
     |                   =====================                   |     
     |                           x T B                           |     
     |                   =====================                   |     
     |                         S. Grimme                         |     
     |          Mulliken Center for Theoretical Chemistry        |     
     |                    University of Bonn                     |     
      -----------------------------------------------------------      

   * xtb version 6.7.1 (edcfbbe) compiled by 'albert@albert-system' on 2024-07-22

   xtb is free software: you can redistribute it and/or modify it under
   the terms of the GNU Lesser General Public License as published by
   the Free Software Foundation, either version 3 of the License, or
   (at your option) any later version.
   
   xtb is distributed in the hope that it will be useful,
   but WITHOUT ANY WARRANTY; without even the implied warranty of
   MERCHANTABILITY or FITNESS FOR A PARTICULAR PURPOSE.  See the
   GNU Lesser General Public License for more details.
   
   Cite this work as:
   * C. Bannwarth, E. Caldeweyher, S. Ehlert, A. Hansen, P. Pracht,
     J. Seibert, S. Spicher, S. Grimme, WIREs Comput. Mol. Sci., 2020, 11,
     e01493. DOI: 10.1002/wcms.1493
   
   for GFN2-xTB:
   * C. Bannwarth, S. Ehlert and S. Grimme., J. Chem. Theory Comput., 2019,
     15, 1652-1671. DOI: 10.1021/acs.jctc.8b01176
   for GFN1-xTB:
   * S. Grimme, C. Bannwarth, P. Shushkov, J. Chem. Theory Comput., 2017,
     13, 1989-2009. DOI: 10.1021/acs.jctc.7b00118
   for GFN0-xTB:
   * P. Pracht, E. Caldeweyher, S. Ehlert, S. Grimme, ChemRxiv, 2019, preprint.
     DOI: 10.26434/chemrxiv.8326202.v1
   for GFN-FF:
   * S. Spicher and S. Grimme, Angew. Chem. Int. Ed., 2020, 59, 15665-15673.
     DOI: 10.1002/anie.202004239
   
   for ALPB and GBSA implicit solvation:
   * S. Ehlert, M. Stahn, S. Spicher, S. Grimme, J. Chem. Theory Comput.,
     2021, 17, 4250-4261. DOI: 10.1021/acs.jctc.1c00471
   
   for ddCOSMO and CPCM-X implicit solvation:
   * M. Stahn, S. Ehlert, S. Grimme, J. Phys. Chem. A,
     2023, XX, XXXX-XXXX. DOI: 10.1021/acs.jpca.3c04382
   
   for DFT-D4:
   * E. Caldeweyher, C. Bannwarth and S. Grimme, J. Chem. Phys., 2017,
     147, 034112. DOI: 10.1063/1.4993215
   * E. Caldeweyher, S. Ehlert, A. Hansen, H. Neugebauer, S. Spicher,
     C. Bannwarth and S. Grimme, J. Chem. Phys., 2019, 150, 154122.
     DOI: 10.1063/1.5090222
   * E. Caldeweyher, J.-M. Mewes, S. Ehlert and S. Grimme, Phys. Chem. Chem. Phys.
     2020, 22, 8499-8512. DOI: 10.1039/D0CP00502A
   
   for sTDA-xTB:
   * S. Grimme and C. Bannwarth, J. Chem. Phys., 2016, 145, 054103.
     DOI: 10.1063/1.4959605
   
   in the mass-spec context:
   * V. Asgeirsson, C. Bauer and S. Grimme, Chem. Sci., 2017, 8, 4879.
     DOI: 10.1039/c7sc00601b
   * J. Koopman and S. Grimme, ACS Omega 2019, 4, 12, 15120-15133.
     DOI: 10.1021/acsomega.9b02011
   
   for metadynamics refer to:
   * S. Grimme, J. Chem. Theory Comput., 2019, 155, 2847-2862
     DOI: 10.1021/acs.jctc.9b00143
   
   for SPH calculations refer to:
   * S. Spicher and S. Grimme, J. Chem. Theory Comput., 2021, 17, 1701-1714
     DOI: 10.1021/acs.jctc.0c01306
   
   for ONIOM refer to:
   * C. Plett, A. Katbashev, S. Ehlert, S. Grimme, M. Bursch,
     Phys. Chem. Chem. Phys., 2023, 25, 17860-17868. DOI: 10.1039/D3CP02178E
   
   for DIPRO refer to:
   * J. Kohn, N. Gildemeister, S. Grimme, D. Fazzi, A. Hansen,
     J. Chem. Phys., 2023, just accepted.
   
   for PTB refer to:
   * S. Grimme, M. Mueller, A. Hansen, J. Chem. Phys., 2023, 158, 124111.
     DOI: 10.1063/5.0137838
   
   with help from (in alphabetical order)
   P. Atkinson, C. Bannwarth, F. Bohle, G. Brandenburg, E. Caldeweyher
   M. Checinski, S. Dohm, S. Ehlert, S. Ehrlich, I. Gerasimov, C. Hölzer
   A. Katbashev, J. Kohn, J. Koopman, C. Lavigne, S. Lehtola, F. März, M. Müller,
   F. Musil, H. Neugebauer, J. Pisarek, C. Plett, P. Pracht, F. Pultar,
   J. Seibert, P. Shushkov, S. Spicher, M. Stahn, M. Steiner, T. Strunk,
   J. Stückrath, T. Rose, and J. Unsleber
   
 * started run on 2025/04/11 at 16:12:36.835     
   ID    Z sym.   atoms
    1    6 C      1-7
    2    1 H      8-19

           -------------------------------------------------
          |                Calculation Setup                |
           -------------------------------------------------

          program call               : /srv/scratch/z5358697/.xtb/bin/xtb gas.coord --gfn2 --sp --chrg 0 --norestart --parallel 1
          hostname                   : k113
          coordinate file            : gas.coord
          omp threads                :                     1


           -------------------------------------------------
          |                 G F N 2 - x T B                 |
           -------------------------------------------------

        Reference                      10.1021/acs.jctc.8b01176
      * Hamiltonian:
        H0-scaling (s, p, d)           1.850000    2.230000    2.230000
        zeta-weighting                 0.500000
      * Dispersion:
        s8                             2.700000
        a1                             0.520000
        a2                             5.000000
        s9                             5.000000
      * Repulsion:
        kExp                           1.500000    1.000000
        rExp                           1.000000
      * Coulomb:
        alpha                          2.000000
        third order                    shell-resolved
        anisotropic                    true
        a3                             3.000000
        a5                             4.000000
        cn-shift                       1.200000
        cn-exp                         4.000000
        max-rad                        5.000000


          ...................................................
          :                      SETUP                      :
          :.................................................:
          :  # basis functions                  40          :
          :  # atomic orbitals                  40          :
          :  # shells                           26          :
          :  # electrons                        40          :
          :  max. iterations                   250          :
          :  Hamiltonian                  GFN2-xTB          :
          :  restarted?                      false          :
          :  GBSA solvation                  false          :
          :  PC potential                    false          :
          :  electronic temp.          300.0000000     K    :
          :  accuracy                    1.0000000          :
          :  -> integral cutoff          0.2500000E+02      :
          :  -> integral neglect         0.1000000E-07      :
          :  -> SCF convergence          0.1000000E-05 Eh   :
          :  -> wf. convergence          0.1000000E-03 e    :
          :  Broyden damping             0.4000000          :
          :  net charge                          0          :
          :  unpaired electrons                  0          :
          ...................................................

 iter      E             dE          RMSdq      gap      omega  full diag
   1    -21.3974828 -0.213975E+02  0.443E+00    7.05       0.0  T
   2    -21.4298648 -0.323820E-01  0.265E+00    6.97       1.0  T
   3    -21.3959104  0.339544E-01  0.164E+00    7.00       1.0  T
   4    -21.4320571 -0.361466E-01  0.593E-01    6.88       1.0  T
   5    -21.4371211 -0.506400E-02  0.833E-02    6.89       1.0  T
   6    -21.4371448 -0.236974E-04  0.329E-02    6.89       1.0  T
   7    -21.4371462 -0.141185E-05  0.121E-02    6.89       1.9  T
   8    -21.4371465 -0.301045E-06  0.148E-03    6.89      15.5  T
   9    -21.4371465 -0.719289E-08  0.689E-04    6.89      33.3  T
  10    -21.4371465 -0.946443E-10  0.186E-04    6.89     123.6  T

   *** convergence criteria satisfied after 10 iterations ***

         #    Occupation            Energy/Eh            Energy/eV
      -------------------------------------------------------------
         1        2.0000           -0.6271513             -17.0657
       ...           ...                  ...                  ...
        14        2.0000           -0.4571621             -12.4400
        15        2.0000           -0.4372372             -11.8978
        16        2.0000           -0.4352569             -11.8439
        17        2.0000           -0.4330179             -11.7830
        18        2.0000           -0.4230943             -11.5130
        19        2.0000           -0.3991965             -10.8627
        20        2.0000           -0.3975608             -10.8182 (HOMO)
        21                         -0.1442646              -3.9256 (LUMO)
        22                         -0.1394053              -3.7934
        23                          0.0531608               1.4466
        24                          0.0997135               2.7133
        25                          0.1115695               3.0360
       ...                                ...                  ...
        40                          1.4426239              39.2558
      -------------------------------------------------------------
                  HL-Gap            0.2532962 Eh            6.8925 eV
             Fermi-level           -0.2709127 Eh           -7.3719 eV

 SCC (total)                   0 d,  0 h,  0 min,  0.107 sec
 SCC setup                      ...        0 min,  0.000 sec (  0.192%)
 Dispersion                     ...        0 min,  0.000 sec (  0.095%)
 classical contributions        ...        0 min,  0.000 sec (  0.020%)
 integral evaluation            ...        0 min,  0.001 sec (  1.208%)
 iterations                     ...        0 min,  0.101 sec ( 94.505%)
 molecular gradient             ...        0 min,  0.004 sec (  3.803%)
 printout                       ...        0 min,  0.000 sec (  0.163%)

         :::::::::::::::::::::::::::::::::::::::::::::::::::::
         ::                     SUMMARY                     ::
         :::::::::::::::::::::::::::::::::::::::::::::::::::::
         :: total energy             -21.039776813474 Eh    ::
         :: gradient norm              0.002382869808 Eh/a0 ::
         :: HOMO-LUMO gap              6.892539207592 eV    ::
         ::.................................................::
         :: SCC energy               -21.437186749983 Eh    ::
         :: -> isotropic ES            0.004465643240 Eh    ::
         :: -> anisotropic ES          0.004260386840 Eh    ::
         :: -> anisotropic XC          0.018408911158 Eh    ::
         :: -> dispersion             -0.010603362587 Eh    ::
         :: repulsion energy           0.397409936509 Eh    ::
         :: add. restraining           0.000000000000 Eh    ::
         :: total charge               0.000000000000 e     ::
         :::::::::::::::::::::::::::::::::::::::::::::::::::::

           -------------------------------------------------
          |                Property Printout                |
           -------------------------------------------------

    * Orbital Energies and Occupations

         #    Occupation            Energy/Eh            Energy/eV
      -------------------------------------------------------------
         1        2.0000           -0.6271513             -17.0657
       ...           ...                  ...                  ...
         8        2.0000           -0.5199163             -14.1476
         9        2.0000           -0.5003612             -13.6155
        10        2.0000           -0.4953822             -13.4800
        11        2.0000           -0.4896158             -13.3231
        12        2.0000           -0.4687094             -12.7542
        13        2.0000           -0.4674371             -12.7196
        14        2.0000           -0.4571621             -12.4400
        15        2.0000           -0.4372372             -11.8978
        16        2.0000           -0.4352569             -11.8439
        17        2.0000           -0.4330179             -11.7830
        18        2.0000           -0.4230943             -11.5130
        19        2.0000           -0.3991965             -10.8627
        20        2.0000           -0.3975608             -10.8182 (HOMO)
        21                         -0.1442646              -3.9256 (LUMO)
        22                         -0.1394053              -3.7934
        23                          0.0531608               1.4466
        24                          0.0997135               2.7133
        25                          0.1115695               3.0360
        26                          0.1158183               3.1516
        27                          0.1388543               3.7784
        28                          0.1543974               4.2014
        29                          0.1717018               4.6722
        30                          0.1729522               4.7063
        31                          0.1841650               5.0114
       ...                                ...                  ...
        40                          1.4426239              39.2558
      -------------------------------------------------------------
                  HL-Gap            0.2532962 Eh            6.8925 eV
             Fermi-level           -0.2709127 Eh           -7.3719 eV

     #   Z          covCN         q      C6AA      α(0)
     1   6 C        3.752    -0.102    22.512     6.766
     2   6 C        3.801    -0.053    21.525     6.606
     3   6 C        3.803    -0.058    21.618     6.619
     4   6 C        3.807    -0.052    21.505     6.601
     5   6 C        3.805    -0.040    21.282     6.568
     6   6 C        1.967    -0.027    31.790     9.105
     7   6 C        1.909    -0.117    34.370     9.468
     8   1 H        0.925     0.034     2.537     2.491
     9   1 H        0.925     0.033     2.538     2.491
    10   1 H        0.925     0.034     2.536     2.491
    11   1 H        0.924     0.029     2.602     2.523
    12   1 H        0.924     0.029     2.602     2.523
    13   1 H        0.924     0.030     2.588     2.516
    14   1 H        0.924     0.030     2.588     2.516
    15   1 H        0.924     0.033     2.548     2.496
    16   1 H        0.924     0.033     2.548     2.496
    17   1 H        0.924     0.048     2.341     2.393
    18   1 H        0.924     0.048     2.341     2.393
    19   1 H        0.928     0.069     2.094     2.263

 Mol. C6AA /au·bohr⁶  :       2875.429595
 Mol. C8AA /au·bohr⁸  :      63736.703894
 Mol. α(0) /au        :         81.323727


Wiberg/Mayer (AO) data.
largest (>0.10) Wiberg bond orders for each atom

 ---------------------------------------------------------------------------
     #   Z sym  total        # sym  WBO       # sym  WBO       # sym  WBO
 ---------------------------------------------------------------------------
     1   6 C    3.997 --     2 C    1.019    10 H    0.988     8 H    0.988
                             9 H    0.987
     2   6 C    3.997 --     1 C    1.019     3 C    1.007    12 H    0.979
                            11 H    0.979
     3   6 C    3.997 --     2 C    1.007     4 C    1.007    14 H    0.977
                            13 H    0.977
     4   6 C    3.996 --     3 C    1.007     5 C    0.985    15 H    0.978
                            16 H    0.978
     5   6 C    3.998 --     6 C    1.053     4 C    0.985    18 H    0.956
                            17 H    0.956
     6   6 C    3.978 --     7 C    2.895     5 C    1.053
     7   6 C    3.973 --     6 C    2.895    19 H    0.972
     8   1 H    0.999 --     1 C    0.988
     9   1 H    0.998 --     1 C    0.987
    10   1 H    0.999 --     1 C    0.988
    11   1 H    0.999 --     2 C    0.979
    12   1 H    0.999 --     2 C    0.979
    13   1 H    0.999 --     3 C    0.977
    14   1 H    0.999 --     3 C    0.977
    15   1 H    0.999 --     4 C    0.978
    16   1 H    0.999 --     4 C    0.978
    17   1 H    0.998 --     5 C    0.956
    18   1 H    0.998 --     5 C    0.956
    19   1 H    0.995 --     7 C    0.972
 ---------------------------------------------------------------------------

Topologies differ in total number of bonds
Writing topology from bond orders to xtbtopo.mol

molecular dipole:
                 x           y           z       tot (Debye)
 q only:       -0.271       0.106      -0.082
   full:       -0.271       0.105      -0.081       0.768
molecular quadrupole (traceless):
                xx          xy          yy          xz          yz          zz
 q only:       -1.078       0.092       0.601      -0.037      -0.404       0.477
  q+dip:       -0.685      -1.715       0.447       1.493      -0.319       0.238
   full:       -1.135      -0.609       0.629       0.571      -0.267       0.506


           -------------------------------------------------
          | TOTAL ENERGY              -21.039776813474 Eh   |
          | GRADIENT NORM               0.002382869808 Eh/α |
          | HOMO-LUMO GAP               6.892539207592 eV   |
           -------------------------------------------------

------------------------------------------------------------------------
 * finished run on 2025/04/11 at 16:12:37.049     
------------------------------------------------------------------------
 total:
 * wall-time:     0 d,  0 h,  0 min,  0.214 sec
 *  cpu-time:     0 d,  0 h,  0 min,  0.031 sec
 * ratio c/w:     0.146 speedup
 SCF:
 * wall-time:     0 d,  0 h,  0 min,  0.107 sec
 *  cpu-time:     0 d,  0 h,  0 min,  0.012 sec
 * ratio c/w:     0.113 speedup

