      -----------------------------------------------------------      
     |                   =====================                   |     
     |                           x T B                           |     
     |                   =====================                   |     
     |                         S. Grimme                         |     
     |          Mulliken Center for Theoretical Chemistry        |     
     |                    University of Bonn                     |     
      -----------------------------------------------------------      

   * xtb version 6.7.1 (edcfbbe) compiled by 'albert@albert-system' on 2024-07-22

   xtb is free software: you can redistribute it and/or modify it under
   the terms of the GNU Lesser General Public License as published by
   the Free Software Foundation, either version 3 of the License, or
   (at your option) any later version.
   
   xtb is distributed in the hope that it will be useful,
   but WITHOUT ANY WARRANTY; without even the implied warranty of
   MERCHANTABILITY or FITNESS FOR A PARTICULAR PURPOSE.  See the
   GNU Lesser General Public License for more details.
   
   Cite this work as:
   * C. Bannwarth, E. Caldeweyher, S. Ehlert, A. Hansen, P. Pracht,
     J. Seibert, S. Spicher, S. Grimme, WIREs Comput. Mol. Sci., 2020, 11,
     e01493. DOI: 10.1002/wcms.1493
   
   for GFN2-xTB:
   * C. Bannwarth, S. Ehlert and S. Grimme., J. Chem. Theory Comput., 2019,
     15, 1652-1671. DOI: 10.1021/acs.jctc.8b01176
   for GFN1-xTB:
   * S. Grimme, C. Bannwarth, P. Shushkov, J. Chem. Theory Comput., 2017,
     13, 1989-2009. DOI: 10.1021/acs.jctc.7b00118
   for GFN0-xTB:
   * P. Pracht, E. Caldeweyher, S. Ehlert, S. Grimme, ChemRxiv, 2019, preprint.
     DOI: 10.26434/chemrxiv.8326202.v1
   for GFN-FF:
   * S. Spicher and S. Grimme, Angew. Chem. Int. Ed., 2020, 59, 15665-15673.
     DOI: 10.1002/anie.202004239
   
   for ALPB and GBSA implicit solvation:
   * S. Ehlert, M. Stahn, S. Spicher, S. Grimme, J. Chem. Theory Comput.,
     2021, 17, 4250-4261. DOI: 10.1021/acs.jctc.1c00471
   
   for ddCOSMO and CPCM-X implicit solvation:
   * M. Stahn, S. Ehlert, S. Grimme, J. Phys. Chem. A,
     2023, XX, XXXX-XXXX. DOI: 10.1021/acs.jpca.3c04382
   
   for DFT-D4:
   * E. Caldeweyher, C. Bannwarth and S. Grimme, J. Chem. Phys., 2017,
     147, 034112. DOI: 10.1063/1.4993215
   * E. Caldeweyher, S. Ehlert, A. Hansen, H. Neugebauer, S. Spicher,
     C. Bannwarth and S. Grimme, J. Chem. Phys., 2019, 150, 154122.
     DOI: 10.1063/1.5090222
   * E. Caldeweyher, J.-M. Mewes, S. Ehlert and S. Grimme, Phys. Chem. Chem. Phys.
     2020, 22, 8499-8512. DOI: 10.1039/D0CP00502A
   
   for sTDA-xTB:
   * S. Grimme and C. Bannwarth, J. Chem. Phys., 2016, 145, 054103.
     DOI: 10.1063/1.4959605
   
   in the mass-spec context:
   * V. Asgeirsson, C. Bauer and S. Grimme, Chem. Sci., 2017, 8, 4879.
     DOI: 10.1039/c7sc00601b
   * J. Koopman and S. Grimme, ACS Omega 2019, 4, 12, 15120-15133.
     DOI: 10.1021/acsomega.9b02011
   
   for metadynamics refer to:
   * S. Grimme, J. Chem. Theory Comput., 2019, 155, 2847-2862
     DOI: 10.1021/acs.jctc.9b00143
   
   for SPH calculations refer to:
   * S. Spicher and S. Grimme, J. Chem. Theory Comput., 2021, 17, 1701-1714
     DOI: 10.1021/acs.jctc.0c01306
   
   for ONIOM refer to:
   * C. Plett, A. Katbashev, S. Ehlert, S. Grimme, M. Bursch,
     Phys. Chem. Chem. Phys., 2023, 25, 17860-17868. DOI: 10.1039/D3CP02178E
   
   for DIPRO refer to:
   * J. Kohn, N. Gildemeister, S. Grimme, D. Fazzi, A. Hansen,
     J. Chem. Phys., 2023, just accepted.
   
   for PTB refer to:
   * S. Grimme, M. Mueller, A. Hansen, J. Chem. Phys., 2023, 158, 124111.
     DOI: 10.1063/5.0137838
   
   with help from (in alphabetical order)
   P. Atkinson, C. Bannwarth, F. Bohle, G. Brandenburg, E. Caldeweyher
   M. Checinski, S. Dohm, S. Ehlert, S. Ehrlich, I. Gerasimov, C. Hölzer
   A. Katbashev, J. Kohn, J. Koopman, C. Lavigne, S. Lehtola, F. März, M. Müller,
   F. Musil, H. Neugebauer, J. Pisarek, C. Plett, P. Pracht, F. Pultar,
   J. Seibert, P. Shushkov, S. Spicher, M. Stahn, M. Steiner, T. Strunk,
   J. Stückrath, T. Rose, and J. Unsleber
   
 * started run on 2025/04/11 at 16:11:51.932     
   ID    Z sym.   atoms
    1    6 C      1-5
    2   35 Br     6
    3    1 H      7-17

           -------------------------------------------------
          |                Calculation Setup                |
           -------------------------------------------------

          program call               : /srv/scratch/z5358697/.xtb/bin/xtb solv.coord --gfn2 --sp --chrg 0 --norestart --parallel 1 --alpb water reference -I xtb_sp-xcontrol-inp
          hostname                   : k124
          coordinate file            : solv.coord
          omp threads                :                     1


           -------------------------------------------------
          |                 G F N 2 - x T B                 |
           -------------------------------------------------

        Reference                      10.1021/acs.jctc.8b01176
      * Hamiltonian:
        H0-scaling (s, p, d)           1.850000    2.230000    2.230000
        zeta-weighting                 0.500000
      * Dispersion:
        s8                             2.700000
        a1                             0.520000
        a2                             5.000000
        s9                             5.000000
      * Repulsion:
        kExp                           1.500000    1.000000
        rExp                           1.000000
      * Coulomb:
        alpha                          2.000000
        third order                    shell-resolved
        anisotropic                    true
        a3                             3.000000
        a5                             4.000000
        cn-shift                       1.200000
        cn-exp                         4.000000
        max-rad                        5.000000

      * Solvation model:               ALPB
        Solvent                        water
        Parameter file                 internal GFN2-xTB/ALPB
        Dielectric constant                8.0200E+01
        Reference state                gsolv=reference [X=1]
        Free energy shift                  2.8945E-03 Eh       1.8164E+00 kcal/mol
        Temperature                        2.9815E+02 K
        Density                            1.0000E+00 kg/L
        Solvent mass                       1.8000E+01 g/mol
        Interaction kernel             P16
        Born radius scaling (c1)           1.4744E+00
        Born radii integrator          GBOBC
        Born offset                        0.0000E+00 a0       0.0000E+00 AA
        H-bond correction              true
        Ion screening                  false
        Surface tension                    1.0000E-05 Eh       1.5569E+01 dyn/cm
        Grid points                               974 per atom

          ...................................................
          :                      SETUP                      :
          :.................................................:
          :  # basis functions                  41          :
          :  # atomic orbitals                  40          :
          :  # shells                           24          :
          :  # electrons                        38          :
          :  max. iterations                   250          :
          :  Hamiltonian                  GFN2-xTB          :
          :  restarted?                      false          :
          :  GBSA solvation                   true          :
          :  PC potential                    false          :
          :  electronic temp.          300.0000000     K    :
          :  accuracy                    1.0000000          :
          :  -> integral cutoff          0.2500000E+02      :
          :  -> integral neglect         0.1000000E-07      :
          :  -> SCF convergence          0.1000000E-05 Eh   :
          :  -> wf. convergence          0.1000000E-03 e    :
          :  Broyden damping             0.4000000          :
          :  net charge                          0          :
          :  unpaired electrons                  0          :
          ...................................................

 iter      E             dE          RMSdq      gap      omega  full diag
   1    -20.6045594 -0.206046E+02  0.370E+00    5.97       0.0  T
   2    -20.6432294 -0.386700E-01  0.254E+00    5.27       1.0  T
   3    -20.6454483 -0.221891E-02  0.872E-01    5.36       1.0  T
   4    -20.6467984 -0.135003E-02  0.423E-01    5.21       1.0  T
   5    -20.6469934 -0.195056E-03  0.272E-01    5.21       1.0  T
   6    -20.6471548 -0.161369E-03  0.165E-01    5.18       1.0  T
   7    -20.6472299 -0.751150E-04  0.903E-02    5.16       1.0  T
   8    -20.6472543 -0.244311E-04  0.179E-02    5.15       1.4  T
   9    -20.6472548 -0.434662E-06  0.821E-03    5.15       3.0  T
  10    -20.6472549 -0.869372E-07  0.205E-03    5.15      11.8  T
  11    -20.6472549 -0.615713E-08  0.135E-03    5.15      17.9  T
  12    -20.6472549 -0.396588E-08  0.539E-04    5.15      45.0  T
  13    -20.6472549 -0.377639E-09  0.201E-04    5.15     120.7  T

   *** convergence criteria satisfied after 13 iterations ***

         #    Occupation            Energy/Eh            Energy/eV
      -------------------------------------------------------------
         1        2.0000           -0.8396545             -22.8482
       ...           ...                  ...                  ...
        13        2.0000           -0.4584534             -12.4752
        14        2.0000           -0.4487142             -12.2101
        15        2.0000           -0.4422096             -12.0331
        16        2.0000           -0.4321032             -11.7581
        17        2.0000           -0.4232479             -11.5172
        18        2.0000           -0.4096248             -11.1465
        19        2.0000           -0.4080997             -11.1050 (HOMO)
        20                         -0.2187978              -5.9538 (LUMO)
        21                          0.0178877               0.4867
        22                          0.0337306               0.9179
        23                          0.0423478               1.1523
        24                          0.0518305               1.4104
       ...                                ...                  ...
        40                          0.3596938               9.7878
      -------------------------------------------------------------
                  HL-Gap            0.1893019 Eh            5.1512 eV
             Fermi-level           -0.3134488 Eh           -8.5294 eV

 SCC (total)                   0 d,  0 h,  0 min,  0.014 sec
 SCC setup                      ...        0 min,  0.001 sec (  7.426%)
 Dispersion                     ...        0 min,  0.000 sec (  0.582%)
 classical contributions        ...        0 min,  0.000 sec (  0.132%)
 integral evaluation            ...        0 min,  0.002 sec ( 16.295%)
 iterations                     ...        0 min,  0.007 sec ( 45.465%)
 molecular gradient             ...        0 min,  0.004 sec ( 28.780%)
 printout                       ...        0 min,  0.000 sec (  1.221%)

         :::::::::::::::::::::::::::::::::::::::::::::::::::::
         ::                     SUMMARY                     ::
         :::::::::::::::::::::::::::::::::::::::::::::::::::::
         :: total energy             -20.403039886825 Eh    ::
         :: total w/o Gsasa/hb       -20.403894710647 Eh    ::
         :: gradient norm              0.000107767861 Eh/a0 ::
         :: HOMO-LUMO gap              5.151165856639 eV    ::
         ::.................................................::
         :: SCC energy               -20.647227685636 Eh    ::
         :: -> isotropic ES            0.011224360849 Eh    ::
         :: -> anisotropic ES          0.003881303586 Eh    ::
         :: -> anisotropic XC          0.008887856068 Eh    ::
         :: -> dispersion             -0.010507672333 Eh    ::
         :: -> Gsolv                  -0.001681674685 Eh    ::
         ::    -> Gelec               -0.002536498507 Eh    ::
         ::    -> Gsasa               -0.001038273381 Eh    ::
         ::    -> Ghb                 -0.001001451957 Eh    ::
         ::    -> Gshift               0.002894549160 Eh    ::
         :: repulsion energy           0.244187798811 Eh    ::
         :: add. restraining           0.000000000000 Eh    ::
         :: total charge              -0.000000000000 e     ::
         :::::::::::::::::::::::::::::::::::::::::::::::::::::

           -------------------------------------------------
          |                Property Printout                |
           -------------------------------------------------

    * Orbital Energies and Occupations

         #    Occupation            Energy/Eh            Energy/eV
      -------------------------------------------------------------
         1        2.0000           -0.8396545             -22.8482
       ...           ...                  ...                  ...
         7        2.0000           -0.5301004             -14.4248
         8        2.0000           -0.5255204             -14.3001
         9        2.0000           -0.5085593             -13.8386
        10        2.0000           -0.4985339             -13.5658
        11        2.0000           -0.4871606             -13.2563
        12        2.0000           -0.4766241             -12.9696
        13        2.0000           -0.4584534             -12.4752
        14        2.0000           -0.4487142             -12.2101
        15        2.0000           -0.4422096             -12.0331
        16        2.0000           -0.4321032             -11.7581
        17        2.0000           -0.4232479             -11.5172
        18        2.0000           -0.4096248             -11.1465
        19        2.0000           -0.4080997             -11.1050 (HOMO)
        20                         -0.2187978              -5.9538 (LUMO)
        21                          0.0178877               0.4867
        22                          0.0337306               0.9179
        23                          0.0423478               1.1523
        24                          0.0518305               1.4104
        25                          0.0625431               1.7019
        26                          0.0956523               2.6028
        27                          0.1093699               2.9761
        28                          0.1336490               3.6368
        29                          0.1475780               4.0158
        30                          0.1609999               4.3810
       ...                                ...                  ...
        40                          0.3596938               9.7878
      -------------------------------------------------------------
                  HL-Gap            0.1893019 Eh            5.1512 eV
             Fermi-level           -0.3134488 Eh           -8.5294 eV

     #   Z          covCN         q      C6AA      α(0)
     1   6 C        3.752    -0.112    22.705     6.795
     2   6 C        3.800    -0.056    21.590     6.616
     3   6 C        3.802    -0.062    21.699     6.632
     4   6 C        3.851    -0.064    21.687     6.624
     5   6 C        3.739     0.022    20.280     6.426
     6  35 Br       0.966    -0.246   191.867    22.334
     7   1 H        0.925     0.039     2.460     2.453
     8   1 H        0.925     0.038     2.480     2.463
     9   1 H        0.925     0.038     2.482     2.464
    10   1 H        0.924     0.036     2.503     2.474
    11   1 H        0.924     0.033     2.549     2.497
    12   1 H        0.924     0.039     2.456     2.451
    13   1 H        0.924     0.043     2.413     2.429
    14   1 H        0.924     0.055     2.253     2.347
    15   1 H        0.924     0.059     2.213     2.326
    16   1 H        0.926     0.070     2.081     2.256
    17   1 H        0.926     0.068     2.103     2.268

 Mol. C6AA /au·bohr⁶  :       2903.998734
 Mol. C8AA /au·bohr⁸  :      86032.828703
 Mol. α(0) /au        :         81.852490


Wiberg/Mayer (AO) data.
largest (>0.10) Wiberg bond orders for each atom

 ---------------------------------------------------------------------------
     #   Z sym  total        # sym  WBO       # sym  WBO       # sym  WBO
 ---------------------------------------------------------------------------
     1   6 C    3.996 --     2 C    1.019     9 H    0.988     8 H    0.988
                             7 H    0.987
     2   6 C    3.997 --     1 C    1.019     3 C    1.010    11 H    0.979
                            10 H    0.978
     3   6 C    3.995 --     2 C    1.010     4 C    1.001    12 H    0.980
                            13 H    0.975
     4   6 C    3.991 --     5 C    1.022     3 C    1.001    14 H    0.974
                            15 H    0.964
     5   6 C    3.935 --     4 C    1.022    17 H    0.976    16 H    0.975
                             6 Br   0.943
     6  35 Br   1.001 --     5 C    0.943
     7   1 H    0.998 --     1 C    0.987
     8   1 H    0.999 --     1 C    0.988
     9   1 H    0.999 --     1 C    0.988
    10   1 H    0.999 --     2 C    0.978
    11   1 H    0.999 --     2 C    0.979
    12   1 H    0.998 --     3 C    0.980
    13   1 H    0.998 --     3 C    0.975
    14   1 H    0.997 --     4 C    0.974
    15   1 H    0.996 --     4 C    0.964
    16   1 H    0.995 --     5 C    0.975
    17   1 H    0.995 --     5 C    0.976
 ---------------------------------------------------------------------------

Topologies differ in total number of bonds
Writing topology from bond orders to xtbtopo.mol

molecular dipole:
                 x           y           z       tot (Debye)
 q only:       -0.554       0.946       0.231
   full:       -0.622       1.453       0.364       4.123
molecular quadrupole (traceless):
                xx          xy          yy          xz          yz          zz
 q only:       -1.563       2.134       2.093       0.589       0.380      -0.531
  q+dip:       -2.324       3.999       1.095       1.303      -0.127       1.229
   full:       -2.394       3.953       1.981       1.163       0.224       0.413


           -------------------------------------------------
          | TOTAL ENERGY              -20.403039886825 Eh   |
          | GRADIENT NORM               0.000107767861 Eh/α |
          | HOMO-LUMO GAP               5.151165856639 eV   |
           -------------------------------------------------

------------------------------------------------------------------------
 * finished run on 2025/04/11 at 16:11:51.984     
------------------------------------------------------------------------
 total:
 * wall-time:     0 d,  0 h,  0 min,  0.052 sec
 *  cpu-time:     0 d,  0 h,  0 min,  0.021 sec
 * ratio c/w:     0.412 speedup
 SCF:
 * wall-time:     0 d,  0 h,  0 min,  0.015 sec
 *  cpu-time:     0 d,  0 h,  0 min,  0.014 sec
 * ratio c/w:     0.952 speedup

