      -----------------------------------------------------------      
     |                   =====================                   |     
     |                           x T B                           |     
     |                   =====================                   |     
     |                         S. Grimme                         |     
     |          Mulliken Center for Theoretical Chemistry        |     
     |                    University of Bonn                     |     
      -----------------------------------------------------------      

   * xtb version 6.7.1 (edcfbbe) compiled by 'albert@albert-system' on 2024-07-22

   xtb is free software: you can redistribute it and/or modify it under
   the terms of the GNU Lesser General Public License as published by
   the Free Software Foundation, either version 3 of the License, or
   (at your option) any later version.
   
   xtb is distributed in the hope that it will be useful,
   but WITHOUT ANY WARRANTY; without even the implied warranty of
   MERCHANTABILITY or FITNESS FOR A PARTICULAR PURPOSE.  See the
   GNU Lesser General Public License for more details.
   
   Cite this work as:
   * C. Bannwarth, E. Caldeweyher, S. Ehlert, A. Hansen, P. Pracht,
     J. Seibert, S. Spicher, S. Grimme, WIREs Comput. Mol. Sci., 2020, 11,
     e01493. DOI: 10.1002/wcms.1493
   
   for GFN2-xTB:
   * C. Bannwarth, S. Ehlert and S. Grimme., J. Chem. Theory Comput., 2019,
     15, 1652-1671. DOI: 10.1021/acs.jctc.8b01176
   for GFN1-xTB:
   * S. Grimme, C. Bannwarth, P. Shushkov, J. Chem. Theory Comput., 2017,
     13, 1989-2009. DOI: 10.1021/acs.jctc.7b00118
   for GFN0-xTB:
   * P. Pracht, E. Caldeweyher, S. Ehlert, S. Grimme, ChemRxiv, 2019, preprint.
     DOI: 10.26434/chemrxiv.8326202.v1
   for GFN-FF:
   * S. Spicher and S. Grimme, Angew. Chem. Int. Ed., 2020, 59, 15665-15673.
     DOI: 10.1002/anie.202004239
   
   for ALPB and GBSA implicit solvation:
   * S. Ehlert, M. Stahn, S. Spicher, S. Grimme, J. Chem. Theory Comput.,
     2021, 17, 4250-4261. DOI: 10.1021/acs.jctc.1c00471
   
   for ddCOSMO and CPCM-X implicit solvation:
   * M. Stahn, S. Ehlert, S. Grimme, J. Phys. Chem. A,
     2023, XX, XXXX-XXXX. DOI: 10.1021/acs.jpca.3c04382
   
   for DFT-D4:
   * E. Caldeweyher, C. Bannwarth and S. Grimme, J. Chem. Phys., 2017,
     147, 034112. DOI: 10.1063/1.4993215
   * E. Caldeweyher, S. Ehlert, A. Hansen, H. Neugebauer, S. Spicher,
     C. Bannwarth and S. Grimme, J. Chem. Phys., 2019, 150, 154122.
     DOI: 10.1063/1.5090222
   * E. Caldeweyher, J.-M. Mewes, S. Ehlert and S. Grimme, Phys. Chem. Chem. Phys.
     2020, 22, 8499-8512. DOI: 10.1039/D0CP00502A
   
   for sTDA-xTB:
   * S. Grimme and C. Bannwarth, J. Chem. Phys., 2016, 145, 054103.
     DOI: 10.1063/1.4959605
   
   in the mass-spec context:
   * V. Asgeirsson, C. Bauer and S. Grimme, Chem. Sci., 2017, 8, 4879.
     DOI: 10.1039/c7sc00601b
   * J. Koopman and S. Grimme, ACS Omega 2019, 4, 12, 15120-15133.
     DOI: 10.1021/acsomega.9b02011
   
   for metadynamics refer to:
   * S. Grimme, J. Chem. Theory Comput., 2019, 155, 2847-2862
     DOI: 10.1021/acs.jctc.9b00143
   
   for SPH calculations refer to:
   * S. Spicher and S. Grimme, J. Chem. Theory Comput., 2021, 17, 1701-1714
     DOI: 10.1021/acs.jctc.0c01306
   
   for ONIOM refer to:
   * C. Plett, A. Katbashev, S. Ehlert, S. Grimme, M. Bursch,
     Phys. Chem. Chem. Phys., 2023, 25, 17860-17868. DOI: 10.1039/D3CP02178E
   
   for DIPRO refer to:
   * J. Kohn, N. Gildemeister, S. Grimme, D. Fazzi, A. Hansen,
     J. Chem. Phys., 2023, just accepted.
   
   for PTB refer to:
   * S. Grimme, M. Mueller, A. Hansen, J. Chem. Phys., 2023, 158, 124111.
     DOI: 10.1063/5.0137838
   
   with help from (in alphabetical order)
   P. Atkinson, C. Bannwarth, F. Bohle, G. Brandenburg, E. Caldeweyher
   M. Checinski, S. Dohm, S. Ehlert, S. Ehrlich, I. Gerasimov, C. Hölzer
   A. Katbashev, J. Kohn, J. Koopman, C. Lavigne, S. Lehtola, F. März, M. Müller,
   F. Musil, H. Neugebauer, J. Pisarek, C. Plett, P. Pracht, F. Pultar,
   J. Seibert, P. Shushkov, S. Spicher, M. Stahn, M. Steiner, T. Strunk,
   J. Stückrath, T. Rose, and J. Unsleber
   
 * started run on 2025/04/11 at 16:15:25.987     
   ID    Z sym.   atoms
    1    6 C      1-4, 7, 10, 12
    2    7 N      5, 9
    3    8 O      6, 8
    4   16 S      11
    5    1 H      13-26

           -------------------------------------------------
          |                Calculation Setup                |
           -------------------------------------------------

          program call               : /srv/scratch/z5358697/.xtb/bin/xtb gas.coord --gfn2 --sp --chrg 0 --norestart --parallel 1
          hostname                   : k073
          coordinate file            : gas.coord
          omp threads                :                     1


           -------------------------------------------------
          |                 G F N 2 - x T B                 |
           -------------------------------------------------

        Reference                      10.1021/acs.jctc.8b01176
      * Hamiltonian:
        H0-scaling (s, p, d)           1.850000    2.230000    2.230000
        zeta-weighting                 0.500000
      * Dispersion:
        s8                             2.700000
        a1                             0.520000
        a2                             5.000000
        s9                             5.000000
      * Repulsion:
        kExp                           1.500000    1.000000
        rExp                           1.000000
      * Coulomb:
        alpha                          2.000000
        third order                    shell-resolved
        anisotropic                    true
        a3                             3.000000
        a5                             4.000000
        cn-shift                       1.200000
        cn-exp                         4.000000
        max-rad                        5.000000


          ...................................................
          :                      SETUP                      :
          :.................................................:
          :  # basis functions                  68          :
          :  # atomic orbitals                  67          :
          :  # shells                           39          :
          :  # electrons                        70          :
          :  max. iterations                   250          :
          :  Hamiltonian                  GFN2-xTB          :
          :  restarted?                      false          :
          :  GBSA solvation                  false          :
          :  PC potential                    false          :
          :  electronic temp.          300.0000000     K    :
          :  accuracy                    1.0000000          :
          :  -> integral cutoff          0.2500000E+02      :
          :  -> integral neglect         0.1000000E-07      :
          :  -> SCF convergence          0.1000000E-05 Eh   :
          :  -> wf. convergence          0.1000000E-03 e    :
          :  Broyden damping             0.4000000          :
          :  net charge                          0          :
          :  unpaired electrons                  0          :
          ...................................................

 iter      E             dE          RMSdq      gap      omega  full diag
   1    -39.6384291 -0.396384E+02  0.445E+00    3.54       0.0  T
   2    -39.7329681 -0.945390E-01  0.248E+00    3.08       1.0  T
   3    -39.7353765 -0.240846E-02  0.108E+00    2.61       1.0  T
   4    -39.7376151 -0.223854E-02  0.514E-01    2.66       1.0  T
   5    -39.7400671 -0.245201E-02  0.166E-01    2.62       1.0  T
   6    -39.7400984 -0.313577E-04  0.681E-02    2.64       1.0  T
   7    -39.7401231 -0.246717E-04  0.278E-02    2.64       1.0  T
   8    -39.7401270 -0.389339E-05  0.140E-02    2.64       1.4  T
   9    -39.7401273 -0.279195E-06  0.390E-03    2.64       5.0  T
  10    -39.7401273 -0.495574E-07  0.211E-03    2.64       9.3  T
  11    -39.7401273 -0.943957E-08  0.645E-04    2.64      30.4  T
  12    -39.7401273 -0.106334E-08  0.296E-04    2.64      66.2  T

   *** convergence criteria satisfied after 12 iterations ***

         #    Occupation            Energy/Eh            Energy/eV
      -------------------------------------------------------------
         1        2.0000           -0.7357126             -20.0198
       ...           ...                  ...                  ...
        29        2.0000           -0.4608127             -12.5394
        30        2.0000           -0.4531154             -12.3299
        31        2.0000           -0.4285502             -11.6614
        32        2.0000           -0.4099403             -11.1550
        33        2.0000           -0.4053477             -11.0301
        34        2.0000           -0.3860757             -10.5057
        35        2.0000           -0.3544196              -9.6442 (HOMO)
        36                         -0.2573491              -7.0028 (LUMO)
        37                         -0.1883635              -5.1256
        38                         -0.1855115              -5.0480
        39                         -0.1509734              -4.1082
        40                         -0.0925125              -2.5174
       ...                                ...                  ...
        67                          0.6642714              18.0757
      -------------------------------------------------------------
                  HL-Gap            0.0970705 Eh            2.6414 eV
             Fermi-level           -0.3058843 Eh           -8.3235 eV

 SCC (total)                   0 d,  0 h,  0 min,  0.034 sec
 SCC setup                      ...        0 min,  0.000 sec (  0.732%)
 Dispersion                     ...        0 min,  0.000 sec (  0.511%)
 classical contributions        ...        0 min,  0.000 sec (  0.140%)
 integral evaluation            ...        0 min,  0.009 sec ( 26.743%)
 iterations                     ...        0 min,  0.014 sec ( 40.717%)
 molecular gradient             ...        0 min,  0.010 sec ( 30.491%)
 printout                       ...        0 min,  0.000 sec (  0.584%)

         :::::::::::::::::::::::::::::::::::::::::::::::::::::
         ::                     SUMMARY                     ::
         :::::::::::::::::::::::::::::::::::::::::::::::::::::
         :: total energy             -39.308101518959 Eh    ::
         :: gradient norm              0.041833313905 Eh/a0 ::
         :: HOMO-LUMO gap              2.641422710603 eV    ::
         ::.................................................::
         :: SCC energy               -39.739984970942 Eh    ::
         :: -> isotropic ES            0.066176659588 Eh    ::
         :: -> anisotropic ES          0.001060115467 Eh    ::
         :: -> anisotropic XC          0.024253543009 Eh    ::
         :: -> dispersion             -0.022757901873 Eh    ::
         :: repulsion energy           0.431883451983 Eh    ::
         :: add. restraining           0.000000000000 Eh    ::
         :: total charge              -0.000000000000 e     ::
         :::::::::::::::::::::::::::::::::::::::::::::::::::::

           -------------------------------------------------
          |                Property Printout                |
           -------------------------------------------------

    * Orbital Energies and Occupations

         #    Occupation            Energy/Eh            Energy/eV
      -------------------------------------------------------------
         1        2.0000           -0.7357126             -20.0198
       ...           ...                  ...                  ...
        23        2.0000           -0.4902308             -13.3399
        24        2.0000           -0.4847934             -13.1919
        25        2.0000           -0.4771665             -12.9844
        26        2.0000           -0.4764426             -12.9647
        27        2.0000           -0.4667022             -12.6996
        28        2.0000           -0.4627959             -12.5933
        29        2.0000           -0.4608127             -12.5394
        30        2.0000           -0.4531154             -12.3299
        31        2.0000           -0.4285502             -11.6614
        32        2.0000           -0.4099403             -11.1550
        33        2.0000           -0.4053477             -11.0301
        34        2.0000           -0.3860757             -10.5057
        35        2.0000           -0.3544196              -9.6442 (HOMO)
        36                         -0.2573491              -7.0028 (LUMO)
        37                         -0.1883635              -5.1256
        38                         -0.1855115              -5.0480
        39                         -0.1509734              -4.1082
        40                         -0.0925125              -2.5174
        41                         -0.0057772              -0.1572
        42                          0.0067606               0.1840
        43                          0.0189630               0.5160
        44                          0.0236270               0.6429
        45                          0.0627017               1.7062
        46                          0.1025066               2.7893
       ...                                ...                  ...
        67                          0.6642714              18.0757
      -------------------------------------------------------------
                  HL-Gap            0.0970705 Eh            2.6414 eV
             Fermi-level           -0.3058843 Eh           -8.3235 eV

     #   Z          covCN         q      C6AA      α(0)
     1   6 C        3.809    -0.097    22.349     6.729
     2   6 C        3.890     0.066    19.420     6.265
     3   6 C        3.778    -0.109    22.609     6.774
     4   6 C        2.939     0.070    26.428     8.431
     5   7 N        1.830    -0.085    23.648     7.206
     6   8 O        1.770    -0.253    18.176     5.757
     7   6 C        2.638     0.404    20.185     7.349
     8   8 O        0.857    -0.458    22.878     6.413
     9   7 N        2.686    -0.185    25.015     7.428
    10   6 C        3.691    -0.045    21.565     6.645
    11  16 S        2.122    -0.167   148.099    20.482
    12   6 C        3.744    -0.057    21.671     6.641
    13   1 H        0.925     0.048     2.344     2.394
    14   1 H        0.925     0.054     2.275     2.359
    15   1 H        0.925     0.047     2.352     2.398
    16   1 H        0.925     0.043     2.413     2.429
    17   1 H        0.925     0.053     2.280     2.361
    18   1 H        0.925     0.048     2.347     2.396
    19   1 H        0.925     0.064     2.151     2.293
    20   1 H        0.860     0.183     1.199     1.715
    21   1 H        0.925     0.057     2.232     2.336
    22   1 H        0.925     0.056     2.252     2.347
    23   1 H        0.925     0.090     1.876     2.142
    24   1 H        0.925     0.055     2.259     2.350
    25   1 H        0.925     0.051     2.306     2.375
    26   1 H        0.926     0.067     2.124     2.279

 Mol. C6AA /au·bohr⁶  :       7094.632344
 Mol. C8AA /au·bohr⁸  :     175490.011442
 Mol. α(0) /au        :        128.296495


Wiberg/Mayer (AO) data.
largest (>0.10) Wiberg bond orders for each atom

 ---------------------------------------------------------------------------
     #   Z sym  total        # sym  WBO       # sym  WBO       # sym  WBO
 ---------------------------------------------------------------------------
     1   6 C    3.994 --     2 C    1.002    15 H    0.984    14 H    0.980
                            13 H    0.979
     2   6 C    3.976 --     4 C    1.009     1 C    1.002     3 C    1.000
                            11 S    0.895
     3   6 C    3.994 --     2 C    1.000    17 H    0.982    16 H    0.982
                            18 H    0.978
     4   6 C    3.964 --     5 N    1.869     2 C    1.009    19 H    0.941
     5   7 N    3.011 --     4 C    1.869     6 O    0.951
     6   8 O    2.238 --     7 C    1.021     5 N    0.951     8 O    0.129
     7   6 C    3.939 --     8 O    1.637     9 N    1.222     6 O    1.021
     8   8 O    1.981 --     7 C    1.637     9 N    0.170     6 O    0.129
     9   7 N    3.411 --     7 C    1.222    10 C    1.001    20 H    0.938
                             8 O    0.170
    10   6 C    3.956 --     9 N    1.001    22 H    0.978    21 H    0.978
                            23 H    0.976
    11  16 S    2.139 --    12 C    1.014     2 C    0.895
    12   6 C    3.980 --    11 S    1.014    25 H    0.983    24 H    0.983
                            26 H    0.976
    13   1 H    0.997 --     1 C    0.979
    14   1 H    0.997 --     1 C    0.980
    15   1 H    0.998 --     1 C    0.984
    16   1 H    0.998 --     3 C    0.982
    17   1 H    0.997 --     3 C    0.982
    18   1 H    0.998 --     3 C    0.978
    19   1 H    0.996 --     4 C    0.941
    20   1 H    0.967 --     9 N    0.938
    21   1 H    0.996 --    10 C    0.978
    22   1 H    0.997 --    10 C    0.978
    23   1 H    0.992 --    10 C    0.976
    24   1 H    0.997 --    12 C    0.983
    25   1 H    0.997 --    12 C    0.983
    26   1 H    0.995 --    12 C    0.976
 ---------------------------------------------------------------------------

Topologies differ in total number of bonds
Writing topology from bond orders to xtbtopo.mol

molecular dipole:
                 x           y           z       tot (Debye)
 q only:        0.303      -0.723      -0.770
   full:        0.543      -1.038      -0.816       3.629
molecular quadrupole (traceless):
                xx          xy          yy          xz          yz          zz
 q only:       15.934       3.722      -8.905       8.597       2.309      -7.029
  q+dip:       18.104       5.868     -10.082       8.590       4.426      -8.022
   full:       18.149       5.489      -9.301       9.776       4.514      -8.848


           -------------------------------------------------
          | TOTAL ENERGY              -39.308101518959 Eh   |
          | GRADIENT NORM               0.041833313905 Eh/α |
          | HOMO-LUMO GAP               2.641422710603 eV   |
           -------------------------------------------------

------------------------------------------------------------------------
 * finished run on 2025/04/11 at 16:15:26.069     
------------------------------------------------------------------------
 total:
 * wall-time:     0 d,  0 h,  0 min,  0.081 sec
 *  cpu-time:     0 d,  0 h,  0 min,  0.040 sec
 * ratio c/w:     0.489 speedup
 SCF:
 * wall-time:     0 d,  0 h,  0 min,  0.034 sec
 *  cpu-time:     0 d,  0 h,  0 min,  0.029 sec
 * ratio c/w:     0.851 speedup

