 Entering Gaussian System
 *********************************************
 Gaussian 98:
 frequency output generated by the xtb code
 *********************************************
                         Standard orientation:
 --------------------------------------------------------------------
  Center     Atomic     Atomic              Coordinates (Angstroms)
  Number     Number      Type              X           Y           Z
 --------------------------------------------------------------------
    1          6             0        3.464641    0.254343    0.143847
    2          6             0        2.207771   -0.495533   -0.281826
    3          6             0        0.938125    0.196933    0.209828
    4          6             0       -0.320427   -0.549406   -0.228109
    5          6             0       -1.617964    0.029574    0.347435
    6          6             0       -1.912453    1.422362   -0.205601
    7          6             0       -2.785669   -0.907515    0.040183
    8          1             0        3.461847    1.263479   -0.262153
    9          1             0        3.518213    0.322334    1.228171
   10          1             0        4.355026   -0.257409   -0.213139
   11          1             0        2.240803   -1.512935    0.114814
   12          1             0        2.179101   -0.566841   -1.371517
   13          1             0        0.960866    0.256753    1.300817
   14          1             0        0.920838    1.216366   -0.179050
   15          1             0       -0.380933   -0.546846   -1.319173
   16          1             0       -0.233421   -1.590796    0.092832
   17          1             0       -1.509794    0.102673    1.435881
   18          1             0       -2.861268    1.787607    0.180794
   19          1             0       -1.137783    2.129056    0.078546
   20          1             0       -1.973307    1.391887   -1.291455
   21          1             0       -2.606751   -1.895831    0.457333
   22          1             0       -2.915669   -1.007204   -1.035342
   23          1             0       -3.709148   -0.518931    0.462968
 --------------------------------------------------------------------
     1 basis functions        1 primitive gaussians
     1 alpha electrons        1 beta electrons
 
 Harmonic frequencies (cm**-1), IR intensities (km*mol⁻¹),
 Raman scattering activities (A**4/amu), Raman depolarization ratios,
 reduced masses (AMU), force constants (mDyne/A) and normal coordinates:
                      1                      2                      3
                        a                      a                      a 
 Frequencies --    50.3038                77.1214               121.1958
 Red. masses --     6.0912                 7.9052                 7.1677
 Frc consts  --     0.0000                 0.0000                 0.0000
 IR Inten    --     0.0114                 0.0269                 0.0617
 Raman Activ --     0.0000                 0.0000                 0.0000
 Depolar     --     0.0000                 0.0000                 0.0000
 Atom AN      X      Y      Z        X      Y      Z        X      Y      Z
   1   6    -0.04   0.19  -0.24     0.03  -0.20   0.27     0.10  -0.04  -0.28
   2   6    -0.00  -0.18   0.29     0.02  -0.08   0.09    -0.01  -0.16   0.27
   3   6    -0.03   0.07  -0.14     0.00   0.26  -0.44     0.07  -0.07   0.35
   4   6    -0.01  -0.11   0.10     0.00   0.17  -0.30     0.03   0.29  -0.17
   5   6    -0.02  -0.09   0.04     0.05  -0.01  -0.02    -0.02   0.08  -0.08
   6   6     0.17   0.04   0.27    -0.20   0.00   0.15    -0.29   0.04  -0.02
   7   6    -0.06   0.06  -0.29     0.09  -0.12   0.18     0.12  -0.11  -0.05
   8   1    -0.03  -0.03  -0.28     0.10  -0.09  -0.00     0.02  -0.06  -0.21
   9   1    -0.01   0.28  -0.08    -0.09   0.03   0.08     0.09   0.13  -0.09
  10   1    -0.00  -0.01   0.03     0.01  -0.14   0.20     0.00  -0.07  -0.06
  11   1     0.02   0.03   0.28    -0.08   0.01   0.11     0.02  -0.02   0.16
  12   1    -0.01  -0.26   0.10     0.09  -0.11   0.03    -0.08  -0.13   0.09
  13   1    -0.03   0.17  -0.05    -0.05   0.20  -0.13    -0.03  -0.14   0.11
  14   1     0.00  -0.03  -0.18     0.04   0.03  -0.25     0.09   0.02   0.21
  15   1    -0.02  -0.10   0.03    -0.05   0.07  -0.08     0.05   0.24  -0.05
  16   1     0.02  -0.01   0.09     0.04   0.05  -0.11    -0.03   0.04  -0.19
  17   1    -0.04  -0.09   0.02     0.08  -0.02  -0.01     0.01   0.02  -0.02
  18   1     0.02  -0.01   0.02    -0.03  -0.02   0.13    -0.03   0.02   0.12
  19   1     0.03  -0.01   0.19    -0.04   0.01  -0.01    -0.04   0.01  -0.13
  20   1     0.14   0.08   0.07    -0.15   0.02   0.05    -0.23  -0.01   0.00
  21   1    -0.04  -0.02  -0.16     0.08  -0.03   0.02     0.06  -0.01   0.02
  22   1     0.00   0.10  -0.09    -0.04  -0.02   0.06     0.06  -0.07  -0.01
  23   1    -0.02   0.00  -0.07     0.04  -0.07   0.12     0.01  -0.05  -0.05
                      4                      5                      6
                        a                      a                      a 
 Frequencies --   135.9257               205.3541               229.2751
 Red. masses --     7.8837                 1.7331                 1.7868
 Frc consts  --     0.0000                 0.0000                 0.0000
 IR Inten    --     0.1164                 0.0316                 0.0030
 Raman Activ --     0.0000                 0.0000                 0.0000
 Depolar     --     0.0000                 0.0000                 0.0000
 Atom AN      X      Y      Z        X      Y      Z        X      Y      Z
   1   6    -0.17   0.35   0.12     0.02  -0.03  -0.03     0.06   0.01  -0.04
   2   6     0.12  -0.11   0.06    -0.01  -0.01   0.05     0.03  -0.07   0.17
   3   6    -0.04  -0.35  -0.05    -0.00  -0.02   0.09     0.02   0.08  -0.05
   4   6    -0.05  -0.14  -0.36     0.01   0.06  -0.09     0.03  -0.03   0.07
   5   6     0.11  -0.03  -0.09     0.02   0.02  -0.04    -0.01  -0.01  -0.02
   6   6     0.18   0.02   0.01    -0.02  -0.01  -0.12    -0.06  -0.03  -0.03
   7   6    -0.13   0.17   0.24    -0.01  -0.00   0.14    -0.05   0.05  -0.07
   8   1    -0.13   0.08  -0.02     0.02  -0.02  -0.03    -0.20   0.12   0.28
   9   1    -0.10   0.16   0.03     0.01   0.02  -0.01     0.26  -0.31  -0.00
  10   1     0.02   0.17   0.10    -0.00  -0.03  -0.00    -0.01   0.21  -0.37
  11   1     0.11  -0.02   0.05    -0.00  -0.00   0.02     0.01   0.00   0.11
  12   1     0.07  -0.06   0.02    -0.02  -0.01   0.02     0.00  -0.09   0.05
  13   1    -0.06  -0.17  -0.01    -0.02  -0.06   0.03    -0.01   0.12  -0.02
  14   1     0.01  -0.07   0.06     0.01   0.01   0.07     0.02  -0.01  -0.10
  15   1    -0.02   0.06  -0.10     0.02   0.06  -0.03     0.01  -0.07   0.02
  16   1    -0.05  -0.07  -0.20    -0.00   0.00  -0.07     0.02   0.01   0.07
  17   1     0.11  -0.02  -0.03     0.03   0.02  -0.02    -0.01  -0.00  -0.00
  18   1     0.12   0.07   0.12    -0.18  -0.15  -0.32     0.10   0.08   0.19
  19   1     0.13  -0.04  -0.10    -0.19   0.08   0.25     0.10  -0.05  -0.23
  20   1    -0.09   0.00   0.01     0.35   0.04  -0.06    -0.27  -0.06   0.01
  21   1    -0.05   0.04   0.05     0.19  -0.10  -0.29     0.08  -0.07  -0.25
  22   1    -0.14   0.06   0.08    -0.30   0.29   0.05    -0.17   0.23  -0.02
  23   1     0.02   0.10   0.15     0.08  -0.20   0.41     0.04  -0.10   0.19
                      7                      8                      9
                        a                      a                      a 
 Frequencies --   236.0383               300.3483               307.4331
 Red. masses --     2.4544                 8.6055                 8.4836
 Frc consts  --     0.0000                 0.0000                 0.0000
 IR Inten    --     0.0028                 0.1035                 0.0152
 Raman Activ --     0.0000                 0.0000                 0.0000
 Depolar     --     0.0000                 0.0000                 0.0000
 Atom AN      X      Y      Z        X      Y      Z        X      Y      Z
   1   6    -0.07   0.03  -0.02     0.02   0.13   0.08    -0.46   0.02   0.03
   2   6    -0.01  -0.15   0.15     0.29  -0.24  -0.15    -0.24  -0.18  -0.11
   3   6    -0.02  -0.01  -0.09     0.22  -0.29  -0.14    -0.05  -0.03   0.01
   4   6    -0.03   0.08  -0.18    -0.04  -0.05   0.19    -0.02   0.07   0.08
   5   6     0.02   0.04  -0.03    -0.05   0.21   0.05     0.10   0.17   0.07
   6   6     0.02   0.07   0.05    -0.46   0.14   0.04     0.19   0.16  -0.03
   7   6     0.08  -0.07   0.10     0.08   0.09  -0.10     0.45  -0.19  -0.05
   8   1    -0.23   0.11   0.24    -0.07   0.03   0.02    -0.19   0.01   0.01
   9   1     0.18  -0.25   0.00    -0.07   0.05   0.03    -0.19   0.01   0.01
  10   1    -0.02   0.22  -0.30     0.08   0.12   0.09    -0.07   0.08   0.05
  11   1     0.01  -0.01   0.12     0.13  -0.07  -0.05    -0.07  -0.05  -0.03
  12   1     0.00  -0.12   0.05     0.12  -0.06  -0.05    -0.07  -0.04  -0.03
  13   1    -0.05   0.03  -0.03     0.12  -0.06  -0.04     0.01  -0.01   0.00
  14   1     0.03  -0.02  -0.06     0.06  -0.09  -0.05     0.01  -0.01   0.00
  15   1    -0.02   0.08  -0.05    -0.03  -0.11   0.05    -0.02   0.00   0.02
  16   1    -0.02   0.01  -0.11    -0.08   0.01   0.14    -0.02   0.02   0.04
  17   1     0.03   0.01  -0.01    -0.04   0.08   0.02     0.01   0.06   0.02
  18   1    -0.12  -0.09  -0.19    -0.19  -0.08  -0.01     0.10   0.10   0.03
  19   1    -0.13   0.07   0.26    -0.23   0.13   0.04     0.11   0.01  -0.07
  20   1     0.28   0.10  -0.00    -0.10   0.05   0.01     0.00   0.02  -0.00
  21   1    -0.06   0.07   0.27     0.04   0.02  -0.06     0.29  -0.06  -0.09
  22   1     0.17  -0.25   0.03     0.06   0.06  -0.04     0.13   0.00  -0.02
  23   1    -0.03   0.09  -0.18    -0.00  -0.02  -0.04     0.08  -0.22   0.03
                     10                     11                     12
                        a                      a                      a 
 Frequencies --   415.1605               433.3327               483.8311
 Red. masses --     7.7619                 8.1693                 8.0695
 Frc consts  --     0.0000                 0.0000                 0.0000
 IR Inten    --     0.4806                 0.3376                 1.4945
 Raman Activ --     0.0000                 0.0000                 0.0000
 Depolar     --     0.0000                 0.0000                 0.0000
 Atom AN      X      Y      Z        X      Y      Z        X      Y      Z
   1   6    -0.25  -0.01   0.01    -0.10  -0.07  -0.04     0.23   0.01   0.00
   2   6    -0.08  -0.15  -0.08    -0.21   0.12   0.09     0.02   0.18   0.12
   3   6     0.15   0.14   0.02    -0.17   0.02   0.10    -0.29  -0.18  -0.13
   4   6     0.16   0.20   0.01     0.20  -0.35  -0.08    -0.31  -0.13  -0.11
   5   6     0.19  -0.14   0.30     0.38   0.01  -0.24     0.06   0.12   0.40
   6   6    -0.06  -0.40  -0.06    -0.21   0.03   0.07     0.01  -0.09  -0.05
   7   6    -0.02   0.30  -0.08     0.22   0.24   0.01     0.28   0.13  -0.07
   8   1    -0.13   0.00   0.01     0.01  -0.02  -0.02     0.14   0.00  -0.01
   9   1    -0.12  -0.01   0.01     0.01  -0.01  -0.01     0.14  -0.00  -0.00
  10   1    -0.02   0.07   0.04    -0.07  -0.07  -0.03    -0.01  -0.08  -0.05
  11   1    -0.05  -0.03  -0.00    -0.08   0.03   0.01     0.03   0.05   0.04
  12   1    -0.03  -0.05  -0.02    -0.09   0.05   0.03     0.03   0.03   0.03
  13   1     0.07   0.03   0.00    -0.09   0.00   0.03    -0.14  -0.06  -0.03
  14   1     0.09   0.04   0.01    -0.12   0.00   0.02    -0.13  -0.05  -0.02
  15   1     0.00   0.19   0.00     0.13  -0.23  -0.03    -0.20   0.07  -0.02
  16   1     0.10   0.02  -0.13     0.04  -0.06   0.12    -0.11  -0.07  -0.13
  17   1     0.05  -0.05   0.08     0.17   0.00  -0.07     0.04   0.04   0.11
  18   1    -0.07  -0.15  -0.10    -0.10  -0.19   0.11    -0.02  -0.00  -0.09
  19   1    -0.09  -0.01  -0.09    -0.17   0.12   0.04    -0.03   0.05  -0.11
  20   1     0.01  -0.26  -0.01    -0.13   0.09   0.02     0.02  -0.19  -0.01
  21   1    -0.19   0.03  -0.08    -0.00   0.07   0.03     0.08  -0.00  -0.11
  22   1     0.07   0.18  -0.04     0.03   0.04   0.01     0.23   0.14  -0.05
  23   1     0.01   0.20  -0.08     0.10   0.15   0.01     0.00  -0.06  -0.11
                     13                     14                     15
                        a                      a                      a 
 Frequencies --   772.5316               822.7657               878.9782
 Red. masses --     1.8657                 2.9896                 7.9856
 Frc consts  --     0.0000                 0.0000                 0.0000
 IR Inten    --    11.0804                 0.6442                 1.7288
 Raman Activ --     0.0000                 0.0000                 0.0000
 Depolar     --     0.0000                 0.0000                 0.0000
 Atom AN      X      Y      Z        X      Y      Z        X      Y      Z
   1   6    -0.01  -0.01   0.01     0.03  -0.03   0.07    -0.08  -0.06   0.01
   2   6    -0.00  -0.07   0.13     0.02  -0.14   0.17    -0.01   0.03   0.07
   3   6     0.01  -0.10   0.16    -0.02   0.06  -0.08     0.11   0.08  -0.04
   4   6     0.03  -0.09   0.08    -0.10   0.21  -0.17     0.30  -0.26  -0.18
   5   6     0.01  -0.00  -0.02    -0.03   0.02  -0.01     0.04  -0.00   0.31
   6   6    -0.01   0.05  -0.03     0.01  -0.14   0.07    -0.06   0.42  -0.05
   7   6     0.00  -0.00  -0.00     0.04   0.04   0.01    -0.28  -0.21   0.06
   8   1    -0.11  -0.05  -0.11    -0.22  -0.09  -0.18    -0.10  -0.04  -0.06
   9   1     0.10   0.13  -0.01     0.21   0.21  -0.01     0.05   0.05  -0.01
  10   1    -0.00   0.02  -0.04     0.01   0.07  -0.09    -0.03   0.01  -0.04
  11   1     0.04  -0.16  -0.35    -0.08  -0.17  -0.30    -0.08  -0.01  -0.03
  12   1    -0.06   0.39   0.01     0.09   0.33   0.02     0.04   0.06   0.01
  13   1    -0.02   0.45   0.01    -0.17  -0.14  -0.01    -0.01  -0.07  -0.00
  14   1    -0.00  -0.19  -0.41     0.19   0.07   0.12    -0.00   0.05   0.08
  15   1     0.07   0.26   0.02    -0.06  -0.33  -0.04     0.05  -0.07  -0.05
  16   1    -0.07  -0.11  -0.24     0.03   0.17   0.32     0.17  -0.06  -0.05
  17   1    -0.03   0.02  -0.00     0.06  -0.04  -0.01     0.11  -0.01   0.07
  18   1    -0.01  -0.01   0.01     0.01   0.02  -0.03    -0.05   0.16  -0.12
  19   1    -0.01   0.02   0.00     0.04  -0.07   0.01    -0.05   0.20  -0.14
  20   1    -0.02   0.04  -0.01     0.04  -0.09   0.02     0.01  -0.08  -0.01
  21   1     0.01   0.00   0.01     0.00   0.01   0.00    -0.12  -0.12  -0.11
  22   1    -0.01  -0.01   0.00     0.02   0.01   0.00     0.13   0.08  -0.03
  23   1     0.01  -0.00   0.01     0.01   0.02  -0.01    -0.18  -0.15  -0.13
                     16                     17                     18
                        a                      a                      a 
 Frequencies --   932.5902               942.6291               946.8484
 Red. masses --     3.2976                 5.4564                 2.7751
 Frc consts  --     0.0000                 0.0000                 0.0000
 IR Inten    --     0.5903                 4.7910                 2.6611
 Raman Activ --     0.0000                 0.0000                 0.0000
 Depolar     --     0.0000                 0.0000                 0.0000
 Atom AN      X      Y      Z        X      Y      Z        X      Y      Z
   1   6    -0.09  -0.05   0.15    -0.34   0.10   0.02     0.05  -0.02   0.00
   2   6    -0.04   0.07   0.04    -0.07   0.21   0.14     0.01  -0.03  -0.02
   3   6     0.03  -0.01  -0.25     0.21  -0.31  -0.13    -0.05   0.03   0.01
   4   6     0.01  -0.04   0.27     0.11   0.16  -0.01    -0.01  -0.00   0.02
   5   6     0.07  -0.05  -0.02     0.01   0.04   0.01     0.08   0.10  -0.00
   6   6     0.07   0.02  -0.11    -0.04   0.00   0.07     0.17   0.07   0.19
   7   6     0.03  -0.03  -0.05    -0.02  -0.04  -0.05    -0.12   0.04  -0.22
   8   1    -0.15  -0.10  -0.17     0.29   0.03   0.02    -0.05  -0.01  -0.01
   9   1     0.30   0.19   0.01     0.14  -0.09  -0.00    -0.01   0.02   0.00
  10   1    -0.13  -0.05  -0.17    -0.38  -0.36  -0.17     0.06   0.06   0.02
  11   1    -0.23   0.02   0.02     0.20   0.06   0.03    -0.04  -0.01  -0.00
  12   1     0.31   0.02   0.00     0.03   0.06   0.04     0.01  -0.01  -0.01
  13   1     0.19  -0.23  -0.05     0.05  -0.01  -0.04    -0.01  -0.00   0.00
  14   1    -0.13   0.08   0.15     0.16  -0.10  -0.10    -0.06   0.01   0.02
  15   1    -0.13   0.23   0.08     0.04  -0.06  -0.00    -0.00   0.02   0.01
  16   1     0.05  -0.08  -0.18    -0.04   0.06   0.09    -0.02  -0.01  -0.01
  17   1    -0.16   0.10   0.00    -0.01  -0.08   0.01    -0.10  -0.28   0.03
  18   1     0.02  -0.15   0.12    -0.02   0.09  -0.08    -0.07  -0.14  -0.09
  19   1    -0.05   0.05   0.05     0.02  -0.01  -0.04    -0.14   0.34  -0.26
  20   1    -0.08   0.19  -0.03     0.05  -0.13   0.02    -0.02  -0.40   0.06
  21   1    -0.03   0.01   0.03    -0.02   0.00   0.03     0.25   0.16   0.18
  22   1    -0.10  -0.04   0.00    -0.09  -0.05   0.00    -0.29  -0.32   0.01
  23   1     0.07   0.07   0.06     0.04   0.04   0.04     0.01  -0.08   0.13
                     19                     20                     21
                        a                      a                      a 
 Frequencies --   980.5616               988.0815              1038.1620
 Red. masses --     5.4286                 4.5663                 3.3486
 Frc consts  --     0.0000                 0.0000                 0.0000
 IR Inten    --     2.2836                 0.6020                 1.9683
 Raman Activ --     0.0000                 0.0000                 0.0000
 Depolar     --     0.0000                 0.0000                 0.0000
 Atom AN      X      Y      Z        X      Y      Z        X      Y      Z
   1   6    -0.11  -0.04   0.02     0.01  -0.06   0.03    -0.06  -0.01  -0.12
   2   6     0.03   0.07   0.02     0.01   0.04  -0.03     0.06  -0.01   0.15
   3   6     0.16   0.06   0.01     0.02   0.04   0.00     0.07   0.09  -0.09
   4   6     0.09  -0.17  -0.11     0.12  -0.18  -0.03     0.11  -0.18  -0.01
   5   6    -0.23   0.16  -0.06    -0.22  -0.08  -0.01    -0.11  -0.11   0.16
   6   6     0.03  -0.28   0.06    -0.31   0.05   0.11    -0.05   0.06  -0.12
   7   6    -0.15   0.32   0.08     0.27   0.15  -0.03     0.10   0.14  -0.09
   8   1    -0.03  -0.03  -0.04    -0.11  -0.04  -0.05     0.06   0.04   0.07
   9   1     0.05   0.02  -0.00     0.04   0.06   0.00    -0.15  -0.10  -0.02
  10   1    -0.07  -0.05  -0.05     0.03   0.06  -0.01     0.01  -0.02   0.05
  11   1    -0.04   0.03   0.03    -0.13   0.03   0.04     0.17  -0.04  -0.08
  12   1     0.07   0.00   0.00     0.09  -0.04  -0.01    -0.18   0.12   0.04
  13   1     0.11   0.00   0.00     0.09  -0.01  -0.00    -0.29  -0.09  -0.01
  14   1    -0.00   0.02   0.01    -0.13   0.02   0.02     0.25   0.06   0.07
  15   1     0.12  -0.00  -0.03     0.12   0.03  -0.01    -0.36   0.00   0.02
  16   1     0.02  -0.06  -0.07    -0.01  -0.07  -0.08     0.35  -0.05  -0.10
  17   1     0.01   0.10  -0.03    -0.09  -0.19   0.01    -0.33   0.04   0.07
  18   1     0.02  -0.09   0.06    -0.01   0.48  -0.24     0.01  -0.01   0.05
  19   1     0.03  -0.13   0.08     0.17  -0.25   0.01    -0.00  -0.03   0.06
  20   1     0.00   0.00   0.02     0.17  -0.17   0.02    -0.04   0.17  -0.03
  21   1     0.42   0.17   0.03     0.05   0.08   0.08     0.13   0.10   0.10
  22   1     0.20  -0.04   0.00    -0.09  -0.03   0.02    -0.12  -0.11   0.01
  23   1    -0.29  -0.38  -0.11     0.17   0.15   0.10     0.07   0.03   0.08
                     22                     23                     24
                        a                      a                      a 
 Frequencies --  1082.3461              1105.4824              1113.8895
 Red. masses --     9.1712                 8.2801                 7.3818
 Frc consts  --     0.0000                 0.0000                 0.0000
 IR Inten    --     1.1588                 1.9597                 2.2672
 Raman Activ --     0.0000                 0.0000                 0.0000
 Depolar     --     0.0000                 0.0000                 0.0000
 Atom AN      X      Y      Z        X      Y      Z        X      Y      Z
   1   6    -0.29  -0.31  -0.17     0.03   0.22   0.14     0.23   0.05   0.02
   2   6     0.38   0.32   0.16    -0.15  -0.22  -0.13    -0.42   0.15   0.12
   3   6     0.29   0.14   0.11     0.25   0.29   0.17     0.42  -0.16  -0.12
   4   6    -0.32  -0.13  -0.10    -0.40  -0.24  -0.09    -0.01  -0.09  -0.08
   5   6     0.01   0.05  -0.03    -0.07  -0.22  -0.06     0.08   0.20   0.05
   6   6     0.05  -0.02   0.01     0.03   0.14  -0.04    -0.03  -0.10   0.03
   7   6     0.06  -0.08  -0.02     0.13   0.07   0.06    -0.06  -0.09  -0.09
   8   1    -0.22  -0.08  -0.04     0.19   0.04   0.01    -0.04   0.03   0.04
   9   1    -0.20  -0.06  -0.04     0.19   0.03   0.03    -0.05   0.04   0.01
  10   1     0.01   0.03   0.01    -0.13  -0.11  -0.07     0.15   0.13   0.08
  11   1     0.05   0.09   0.07    -0.01  -0.05  -0.03    -0.33   0.03   0.04
  12   1     0.09   0.07   0.05    -0.02  -0.04  -0.03    -0.34   0.04   0.04
  13   1     0.07   0.07   0.03     0.24   0.07   0.04     0.12  -0.05  -0.03
  14   1    -0.02   0.03   0.02     0.24   0.08   0.05     0.12  -0.04  -0.03
  15   1    -0.14  -0.06  -0.02    -0.12  -0.05  -0.02    -0.14  -0.04  -0.01
  16   1    -0.24  -0.03   0.00    -0.03  -0.06  -0.05    -0.18  -0.04  -0.01
  17   1     0.04  -0.00  -0.01     0.08  -0.17  -0.02    -0.02   0.13   0.01
  18   1    -0.00  -0.06   0.02    -0.02  -0.04  -0.02     0.01   0.01   0.01
  19   1    -0.02   0.04  -0.02    -0.04   0.11  -0.06     0.03  -0.08   0.04
  20   1    -0.01  -0.02   0.01    -0.03  -0.01  -0.01     0.02  -0.00   0.01
  21   1    -0.10  -0.04  -0.01     0.02   0.01  -0.01    -0.05  -0.01   0.02
  22   1    -0.04   0.02  -0.00     0.07   0.05   0.01    -0.11  -0.06  -0.01
  23   1     0.07   0.08   0.02     0.03   0.03  -0.00     0.02   0.02   0.03
                     25                     26                     27
                        a                      a                      a 
 Frequencies --  1163.0738              1187.0017              1194.4904
 Red. masses --     7.9592                 6.2693                 6.9333
 Frc consts  --     0.0000                 0.0000                 0.0000
 IR Inten    --     2.6323                 6.6953                 1.7358
 Raman Activ --     0.0000                 0.0000                 0.0000
 Depolar     --     0.0000                 0.0000                 0.0000
 Atom AN      X      Y      Z        X      Y      Z        X      Y      Z
   1   6    -0.07   0.10   0.07     0.01   0.04   0.01     0.00  -0.07   0.16
   2   6     0.11  -0.22  -0.14    -0.02  -0.05  -0.02    -0.01   0.11  -0.25
   3   6    -0.09   0.26   0.16     0.03   0.03  -0.01     0.03  -0.13   0.26
   4   6     0.03  -0.20  -0.11     0.16  -0.11  -0.14     0.07   0.11  -0.33
   5   6     0.21   0.42   0.14    -0.45   0.21  -0.11    -0.11  -0.07   0.38
   6   6    -0.08  -0.18   0.08     0.22  -0.07   0.17     0.05   0.02  -0.22
   7   6    -0.11  -0.18  -0.21     0.21  -0.10   0.14     0.05   0.04  -0.10
   8   1     0.12   0.01  -0.01     0.04   0.01   0.01    -0.11  -0.07  -0.09
   9   1     0.12  -0.00   0.01     0.02  -0.00   0.00     0.14   0.12   0.02
  10   1    -0.11  -0.10  -0.06    -0.02  -0.02  -0.01    -0.02   0.02  -0.07
  11   1     0.09  -0.05  -0.03    -0.03  -0.02  -0.01    -0.02   0.10   0.12
  12   1     0.10  -0.05  -0.04    -0.01  -0.00  -0.01     0.01  -0.17  -0.05
  13   1    -0.06   0.05   0.04    -0.07  -0.01  -0.00     0.02   0.18   0.05
  14   1    -0.04   0.07   0.04    -0.02   0.01   0.00    -0.09  -0.11  -0.14
  15   1    -0.09  -0.01  -0.02     0.18  -0.03  -0.05     0.05  -0.21  -0.08
  16   1    -0.07  -0.06  -0.04     0.00  -0.03  -0.03     0.01   0.09   0.14
  17   1     0.03   0.34   0.02    -0.40   0.20  -0.01    -0.16  -0.09   0.11
  18   1     0.03   0.09   0.00    -0.03  -0.20   0.02     0.03  -0.11   0.12
  19   1     0.07  -0.17   0.08    -0.09   0.18  -0.09    -0.05   0.02   0.08
  20   1     0.07  -0.02   0.02    -0.06  -0.20   0.05    -0.09   0.24  -0.05
  21   1    -0.09  -0.02   0.04    -0.21  -0.10  -0.06     0.03   0.05   0.07
  22   1    -0.23  -0.13  -0.02     0.06   0.19   0.01    -0.10  -0.08   0.00
  23   1     0.05   0.04   0.05     0.11   0.18  -0.02     0.06   0.03   0.07
                     28                     29                     30
                        a                      a                      a 
 Frequencies --  1229.2662              1264.0939              1279.9537
 Red. masses --     4.7403                 3.4225                 2.9333
 Frc consts  --     0.0000                 0.0000                 0.0000
 IR Inten    --     2.1941                 2.4004                 0.4673
 Raman Activ --     0.0000                 0.0000                 0.0000
 Depolar     --     0.0000                 0.0000                 0.0000
 Atom AN      X      Y      Z        X      Y      Z        X      Y      Z
   1   6    -0.01   0.16  -0.24     0.05  -0.13  -0.04     0.01   0.07  -0.16
   2   6     0.01  -0.19   0.28    -0.17   0.13   0.08    -0.05   0.03   0.02
   3   6    -0.00   0.09  -0.10    -0.22  -0.05  -0.06    -0.03  -0.18   0.25
   4   6     0.02   0.01  -0.10    -0.17  -0.09  -0.02    -0.02   0.07  -0.09
   5   6    -0.09  -0.01   0.27    -0.13   0.07   0.12     0.05  -0.07  -0.11
   6   6     0.03  -0.01  -0.16     0.03  -0.01   0.01    -0.02   0.02   0.10
   7   6     0.03   0.01  -0.08     0.03  -0.05  -0.13    -0.02   0.01   0.01
   8   1     0.20   0.12   0.14    -0.09  -0.02   0.01     0.09   0.07   0.08
   9   1    -0.18  -0.19  -0.03    -0.04   0.04  -0.01    -0.11  -0.09  -0.03
  10   1    -0.00  -0.07   0.10     0.10   0.10   0.04     0.03  -0.01   0.06
  11   1    -0.21  -0.14  -0.14     0.29   0.04   0.00    -0.40  -0.00   0.02
  12   1     0.21   0.19   0.05     0.11   0.02   0.02     0.51   0.01  -0.01
  13   1     0.21  -0.07  -0.02     0.39  -0.01  -0.02     0.09   0.15   0.05
  14   1    -0.22   0.05   0.06     0.37   0.00  -0.00     0.06  -0.12  -0.13
  15   1     0.30  -0.04  -0.04     0.32   0.02  -0.02    -0.32  -0.09  -0.00
  16   1    -0.21   0.00   0.04     0.35   0.00  -0.03     0.33   0.06   0.03
  17   1     0.01  -0.13   0.07     0.24   0.20  -0.01    -0.06   0.21  -0.04
  18   1     0.03  -0.06   0.09    -0.01  -0.05   0.01    -0.02   0.04  -0.06
  19   1    -0.03  -0.00   0.07    -0.01   0.01   0.01     0.01   0.02  -0.06
  20   1    -0.06   0.16  -0.04    -0.01  -0.01   0.01     0.03  -0.08   0.02
  21   1     0.01   0.03   0.05    -0.01   0.03   0.06     0.02  -0.00  -0.02
  22   1    -0.07  -0.05   0.00    -0.11  -0.05  -0.01     0.02   0.01  -0.00
  23   1     0.05   0.02   0.06     0.09   0.08   0.06    -0.01   0.00  -0.02
                     31                     32                     33
                        a                      a                      a 
 Frequencies --  1286.1021              1312.2814              1338.3098
 Red. masses --     1.8057                 3.7430                 4.5809
 Frc consts  --     0.0000                 0.0000                 0.0000
 IR Inten    --     0.1103                 2.0091                11.2206
 Raman Activ --     0.0000                 0.0000                 0.0000
 Depolar     --     0.0000                 0.0000                 0.0000
 Atom AN      X      Y      Z        X      Y      Z        X      Y      Z
   1   6    -0.00   0.00   0.03    -0.03   0.08   0.05     0.01  -0.03  -0.00
   2   6     0.04  -0.10   0.13     0.22  -0.02  -0.06    -0.09   0.00   0.01
   3   6     0.03   0.00  -0.01     0.14  -0.06  -0.03     0.01   0.06  -0.03
   4   6     0.03   0.11  -0.12    -0.08   0.03   0.10     0.01   0.06  -0.06
   5   6    -0.06  -0.05  -0.06    -0.29  -0.15   0.07     0.14  -0.50   0.05
   6   6     0.02  -0.02   0.06     0.06   0.02   0.03    -0.01   0.07   0.12
   7   6     0.01   0.00  -0.00     0.03  -0.00  -0.16    -0.05   0.10  -0.06
   8   1    -0.01  -0.01  -0.01     0.02  -0.00  -0.04    -0.00  -0.00   0.01
   9   1     0.03   0.00   0.01     0.01  -0.04   0.01     0.01   0.03  -0.00
  10   1    -0.01  -0.03   0.01    -0.09  -0.08  -0.05     0.03   0.03   0.01
  11   1     0.24  -0.06  -0.07    -0.33  -0.00   0.02     0.15   0.01  -0.00
  12   1    -0.31   0.07   0.03    -0.21  -0.03  -0.01     0.05   0.01  -0.00
  13   1     0.46  -0.01  -0.01    -0.31   0.01   0.00    -0.00  -0.03  -0.01
  14   1    -0.58  -0.01   0.01    -0.11  -0.01   0.01     0.03   0.02   0.01
  15   1    -0.31  -0.10  -0.02     0.13   0.02   0.02     0.13  -0.03  -0.02
  16   1     0.25   0.07   0.04     0.16  -0.00  -0.04    -0.37   0.01   0.06
  17   1     0.05   0.15  -0.03     0.52   0.30  -0.06    -0.22   0.59  -0.01
  18   1     0.01   0.05  -0.03    -0.01  -0.02  -0.02    -0.02   0.13  -0.12
  19   1    -0.02   0.04  -0.03    -0.04   0.08  -0.03    -0.04   0.12  -0.12
  20   1    -0.00  -0.04   0.01    -0.03  -0.01   0.01     0.01   0.01   0.02
  21   1     0.02   0.01  -0.00     0.07   0.07   0.09     0.12   0.06   0.03
  22   1     0.00   0.01  -0.00    -0.06  -0.03  -0.02     0.04  -0.06  -0.01
  23   1     0.01   0.03  -0.00     0.10   0.09   0.09     0.00  -0.05   0.06
                     34                     35                     36
                        a                      a                      a 
 Frequencies --  1355.7469              1377.3759              1406.1554
 Red. masses --     4.6840                 5.5400                 3.3629
 Frc consts  --     0.0000                 0.0000                 0.0000
 IR Inten    --     6.3018                 0.1014                 1.3075
 Raman Activ --     0.0000                 0.0000                 0.0000
 Depolar     --     0.0000                 0.0000                 0.0000
 Atom AN      X      Y      Z        X      Y      Z        X      Y      Z
   1   6     0.03  -0.08  -0.05     0.04  -0.02  -0.01     0.01   0.01   0.00
   2   6    -0.36  -0.02  -0.01    -0.25  -0.03  -0.01     0.02   0.01  -0.00
   3   6     0.15   0.06   0.04     0.40  -0.00  -0.02    -0.04  -0.01  -0.00
   4   6     0.26   0.00   0.05    -0.38   0.01   0.02     0.01  -0.03  -0.00
   5   6    -0.30   0.00   0.00     0.18   0.05  -0.01     0.03   0.12  -0.01
   6   6     0.07  -0.03  -0.02    -0.04  -0.02  -0.00     0.04  -0.31   0.09
   7   6     0.05  -0.01  -0.05    -0.05  -0.03   0.01    -0.22  -0.20  -0.03
   8   1     0.03   0.02   0.06    -0.01   0.01   0.03    -0.01  -0.00  -0.01
   9   1     0.03   0.07  -0.01    -0.01   0.03  -0.00    -0.01  -0.01   0.00
  10   1     0.10   0.10   0.06     0.03   0.02   0.01    -0.01  -0.01  -0.01
  11   1     0.35   0.02   0.01     0.20   0.01   0.01    -0.03  -0.00  -0.00
  12   1     0.37   0.02  -0.01     0.19   0.03  -0.01    -0.01  -0.01   0.00
  13   1    -0.19  -0.03   0.02    -0.33  -0.00   0.00     0.03   0.03  -0.00
  14   1    -0.12  -0.00  -0.02    -0.36  -0.00   0.01     0.07   0.01   0.02
  15   1    -0.31   0.00   0.03     0.33  -0.01  -0.02    -0.02   0.03   0.00
  16   1    -0.23  -0.03  -0.02     0.34   0.03  -0.03     0.01  -0.00   0.01
  17   1     0.38  -0.05  -0.04    -0.16  -0.01   0.02    -0.03  -0.13   0.01
  18   1     0.00  -0.03  -0.01     0.02   0.05   0.03     0.06   0.31  -0.17
  19   1    -0.04   0.05   0.01     0.01  -0.02   0.01    -0.18   0.25  -0.18
  20   1    -0.06   0.03  -0.00     0.05  -0.00  -0.00    -0.05   0.39  -0.00
  21   1     0.01   0.02   0.04     0.03  -0.01  -0.01     0.30   0.09   0.12
  22   1    -0.03   0.02  -0.01     0.04   0.01  -0.00     0.26   0.24  -0.06
  23   1     0.04   0.04   0.02     0.01   0.03   0.00     0.16   0.28   0.10
                     37                     38                     39
                        a                      a                      a 
 Frequencies --  1411.8505              1419.1678              1487.1224
 Red. masses --     3.2114                 3.1103                 1.7788
 Frc consts  --     0.0000                 0.0000                 0.0000
 IR Inten    --     0.3729                 0.7311                 0.2405
 Raman Activ --     0.0000                 0.0000                 0.0000
 Depolar     --     0.0000                 0.0000                 0.0000
 Atom AN      X      Y      Z        X      Y      Z        X      Y      Z
   1   6     0.37   0.19   0.11    -0.02  -0.01  -0.00    -0.00  -0.01  -0.01
   2   6    -0.10   0.01   0.01     0.00   0.01  -0.00     0.01   0.05   0.03
   3   6     0.01   0.02   0.01     0.02  -0.02  -0.01     0.03   0.07   0.05
   4   6     0.03  -0.01  -0.01    -0.04  -0.02   0.01    -0.02  -0.16  -0.11
   5   6    -0.01  -0.01   0.00    -0.03   0.03  -0.01     0.01   0.01  -0.00
   6   6     0.00  -0.01   0.00     0.06  -0.27   0.11     0.11   0.03  -0.00
   7   6     0.02   0.02   0.00     0.25   0.18   0.07    -0.06   0.05   0.01
   8   1    -0.46  -0.07  -0.20     0.02   0.00   0.01    -0.00   0.02   0.05
   9   1    -0.46  -0.22   0.05     0.02   0.01  -0.00    -0.00   0.05  -0.00
  10   1    -0.27  -0.36  -0.22     0.01   0.02   0.01    -0.01  -0.02  -0.01
  11   1     0.10  -0.02  -0.06    -0.02   0.00   0.00    -0.02  -0.05  -0.13
  12   1     0.10  -0.06  -0.00    -0.00  -0.00  -0.00    -0.00  -0.14   0.01
  13   1     0.00   0.00   0.00    -0.03   0.02  -0.00    -0.02  -0.22   0.01
  14   1     0.00   0.01  -0.00     0.00   0.00   0.02    -0.02  -0.08  -0.20
  15   1    -0.03  -0.00   0.00     0.03   0.04   0.00    -0.02   0.46  -0.00
  16   1    -0.04  -0.00  -0.00     0.07   0.01   0.03     0.04   0.13   0.43
  17   1     0.01   0.00  -0.00     0.04  -0.03  -0.01     0.00  -0.01  -0.00
  18   1     0.00   0.01  -0.01     0.04   0.28  -0.19    -0.08   0.03  -0.24
  19   1    -0.01   0.01  -0.00    -0.16   0.24  -0.17     0.00  -0.08   0.21
  20   1    -0.01   0.01   0.00    -0.07   0.35   0.00    -0.37  -0.06   0.02
  21   1    -0.02  -0.01  -0.01    -0.33  -0.11  -0.14    -0.00  -0.06  -0.16
  22   1    -0.02  -0.02   0.00    -0.31  -0.23   0.07     0.16  -0.20  -0.00
  23   1    -0.01  -0.02  -0.01    -0.18  -0.29  -0.16     0.07   0.04   0.13
                     40                     41                     42
                        a                      a                      a 
 Frequencies --  1492.1162              1495.3251              1498.3918
 Red. masses --     2.0190                 1.7923                 1.5744
 Frc consts  --     0.0000                 0.0000                 0.0000
 IR Inten    --     3.4025                 1.5022                 0.3235
 Raman Activ --     0.0000                 0.0000                 0.0000
 Depolar     --     0.0000                 0.0000                 0.0000
 Atom AN      X      Y      Z        X      Y      Z        X      Y      Z
   1   6    -0.00  -0.01  -0.00    -0.01  -0.04  -0.02    -0.01   0.00  -0.00
   2   6     0.03   0.03   0.02     0.01   0.19   0.13    -0.00   0.06   0.03
   3   6    -0.02   0.20   0.13     0.03   0.03   0.02    -0.01  -0.04  -0.03
   4   6    -0.03   0.13   0.11    -0.01  -0.02  -0.02     0.01   0.01   0.01
   5   6     0.03   0.02   0.00    -0.01  -0.02  -0.00    -0.01  -0.03   0.02
   6   6     0.04  -0.02   0.00    -0.08   0.00   0.02     0.01  -0.03  -0.12
   7   6    -0.01  -0.01   0.02     0.05  -0.04  -0.03    -0.03  -0.00   0.16
   8   1     0.01   0.01   0.03     0.01   0.06   0.15     0.00   0.00   0.01
   9   1    -0.02   0.04  -0.00    -0.01   0.16  -0.01     0.02  -0.00  -0.00
  10   1    -0.01  -0.00  -0.02    -0.02  -0.02  -0.02     0.01   0.00   0.02
  11   1    -0.02  -0.02  -0.06    -0.01  -0.20  -0.53    -0.00  -0.06  -0.15
  12   1    -0.02  -0.07   0.01     0.01  -0.56   0.04     0.01  -0.16   0.01
  13   1     0.02  -0.53   0.03    -0.02  -0.04   0.00    -0.00   0.13  -0.01
  14   1     0.02  -0.18  -0.49    -0.03  -0.01  -0.04     0.03   0.05   0.12
  15   1     0.05  -0.38   0.00    -0.01   0.08  -0.00    -0.00  -0.04  -0.00
  16   1    -0.00  -0.11  -0.37    -0.00   0.02   0.07    -0.03  -0.02  -0.04
  17   1    -0.01  -0.01   0.00     0.00   0.00  -0.00     0.02   0.04  -0.00
  18   1    -0.01   0.06  -0.09     0.02  -0.07   0.13     0.17   0.22   0.20
  19   1    -0.04   0.01   0.08     0.04   0.02  -0.19    -0.22   0.13   0.26
  20   1    -0.14  -0.00   0.01     0.25   0.06  -0.02     0.01  -0.20  -0.00
  21   1     0.04  -0.01  -0.04    -0.03   0.07   0.18     0.33  -0.11  -0.39
  22   1    -0.03  -0.02   0.01    -0.10   0.19  -0.01    -0.17  -0.21   0.05
  23   1    -0.01   0.04  -0.05    -0.05  -0.07  -0.06    -0.01   0.35  -0.32
                     43                     44                     45
                        a                      a                      a 
 Frequencies --  1500.5552              1500.9483              1503.3611
 Red. masses --     1.5568                 1.6764                 1.6273
 Frc consts  --     0.0000                 0.0000                 0.0000
 IR Inten    --     1.1501                 0.0657                 0.0933
 Raman Activ --     0.0000                 0.0000                 0.0000
 Depolar     --     0.0000                 0.0000                 0.0000
 Atom AN      X      Y      Z        X      Y      Z        X      Y      Z
   1   6    -0.02   0.12  -0.16     0.03   0.02  -0.08    -0.10   0.13   0.09
   2   6    -0.01   0.06  -0.01     0.02  -0.08  -0.07    -0.05   0.07   0.05
   3   6     0.00  -0.03  -0.01    -0.00   0.07   0.05     0.02   0.00  -0.00
   4   6     0.00   0.03   0.03    -0.01  -0.08  -0.06    -0.02  -0.01  -0.01
   5   6     0.00   0.02  -0.00     0.01  -0.05   0.01     0.04  -0.02   0.00
   6   6     0.03  -0.00   0.01    -0.05   0.01  -0.02     0.04   0.02   0.01
   7   6    -0.02   0.04  -0.02     0.08  -0.10   0.04     0.05  -0.07   0.00
   8   1    -0.39   0.05   0.10    -0.20   0.06   0.16     0.13  -0.20  -0.51
   9   1     0.43  -0.19  -0.02     0.13   0.04  -0.01     0.12  -0.53   0.03
  10   1     0.04  -0.33   0.57    -0.03  -0.20   0.20     0.16   0.22   0.11
  11   1     0.02  -0.03  -0.10    -0.01   0.09   0.24     0.03  -0.03  -0.11
  12   1    -0.01  -0.13  -0.00    -0.03   0.24  -0.02     0.03  -0.11   0.01
  13   1    -0.02   0.09  -0.00    -0.00  -0.23   0.01    -0.01  -0.02  -0.00
  14   1     0.02   0.03   0.08     0.01  -0.08  -0.21    -0.01  -0.01  -0.02
  15   1     0.01  -0.12   0.00     0.00   0.26   0.00     0.01   0.04   0.00
  16   1    -0.00  -0.04  -0.12    -0.00   0.08   0.25     0.00   0.02   0.04
  17   1    -0.00  -0.01   0.00     0.00   0.02   0.00    -0.01   0.01   0.00
  18   1    -0.03  -0.00  -0.07     0.05   0.01   0.12    -0.05  -0.00  -0.13
  19   1     0.01  -0.02   0.03    -0.02   0.04  -0.05     0.02  -0.05   0.07
  20   1    -0.08   0.01   0.01     0.14  -0.01  -0.01    -0.16  -0.01   0.01
  21   1    -0.07  -0.02  -0.03     0.16   0.08   0.15     0.06   0.07   0.16
  22   1     0.12  -0.08  -0.01    -0.32   0.28   0.02    -0.18   0.22   0.00
  23   1     0.04  -0.04   0.13    -0.12   0.07  -0.34    -0.08  -0.01  -0.18
                     46                     47                     48
                        a                      a                      a 
 Frequencies --  1504.8570              1509.9066              2915.4104
 Red. masses --     1.6084                 1.5291                 1.7423
 Frc consts  --     0.0000                 0.0000                 0.0000
 IR Inten    --     1.0246                 1.2918                91.9375
 Raman Activ --     0.0000                 0.0000                 0.0000
 Depolar     --     0.0000                 0.0000                 0.0000
 Atom AN      X      Y      Z        X      Y      Z        X      Y      Z
   1   6    -0.04   0.07   0.03     0.00  -0.00  -0.00     0.00   0.00   0.00
   2   6    -0.01   0.01   0.00    -0.00  -0.01   0.00    -0.00  -0.00  -0.00
   3   6     0.00   0.07   0.05     0.01   0.00  -0.01    -0.00   0.00   0.01
   4   6     0.01  -0.04  -0.03     0.01   0.01  -0.00     0.00  -0.01   0.01
   5   6    -0.08   0.02  -0.00    -0.02   0.02   0.07    -0.03  -0.02  -0.26
   6   6    -0.14  -0.04  -0.01    -0.02   0.07   0.15    -0.00   0.01   0.00
   7   6    -0.05   0.09   0.01    -0.04  -0.01   0.11    -0.00  -0.00   0.01
   8   1     0.03  -0.09  -0.23    -0.01   0.01   0.01     0.00  -0.00   0.00
   9   1     0.07  -0.26   0.01     0.00   0.01  -0.00    -0.00  -0.00  -0.00
  10   1     0.07   0.08   0.08    -0.00  -0.01   0.00    -0.00   0.00   0.00
  11   1     0.01   0.02   0.03     0.01  -0.01  -0.01    -0.00   0.00  -0.00
  12   1     0.00   0.04  -0.00     0.00  -0.01   0.00    -0.00   0.00   0.01
  13   1     0.00  -0.22   0.01    -0.01   0.02  -0.00     0.00  -0.00  -0.02
  14   1     0.01  -0.08  -0.21    -0.04   0.01   0.03     0.00  -0.01   0.00
  15   1    -0.02   0.12  -0.00     0.02  -0.03  -0.00    -0.00  -0.00  -0.05
  16   1     0.01   0.03   0.11    -0.02  -0.01  -0.02    -0.00   0.05  -0.01
  17   1     0.03  -0.01  -0.00     0.03  -0.01   0.02     0.09   0.06   0.95
  18   1     0.12  -0.03   0.34    -0.25  -0.35  -0.26     0.02  -0.00  -0.01
  19   1    -0.03   0.12  -0.25     0.33  -0.21  -0.38    -0.02  -0.01  -0.00
  20   1     0.48   0.06  -0.03     0.01   0.29  -0.00    -0.00   0.00  -0.03
  21   1    -0.05  -0.09  -0.21     0.24  -0.08  -0.29    -0.01   0.02  -0.01
  22   1     0.20  -0.28   0.00    -0.12  -0.17   0.03    -0.01  -0.01  -0.03
  23   1     0.10   0.04   0.19     0.01   0.27  -0.22     0.02  -0.01  -0.01
                     49                     50                     51
                        a                      a                      a 
 Frequencies --  2950.3409              2955.3397              2963.7261
 Red. masses --     1.9115                 1.9477                 1.9186
 Frc consts  --     0.0000                 0.0000                 0.0000
 IR Inten    --    48.5628                 1.7382               208.5836
 Raman Activ --     0.0000                 0.0000                 0.0000
 Depolar     --     0.0000                 0.0000                 0.0000
 Atom AN      X      Y      Z        X      Y      Z        X      Y      Z
   1   6    -0.00   0.00  -0.00    -0.00   0.01  -0.01    -0.00   0.00  -0.01
   2   6     0.00  -0.04   0.06     0.01  -0.13   0.19     0.01  -0.09   0.14
   3   6    -0.00   0.05  -0.12    -0.00   0.03  -0.11     0.00  -0.04   0.22
   4   6     0.02  -0.16   0.18    -0.01   0.10  -0.10     0.01  -0.07   0.04
   5   6     0.00  -0.00   0.02    -0.00   0.00  -0.01     0.00  -0.00   0.01
   6   6     0.00  -0.00  -0.01    -0.00  -0.00   0.00     0.00   0.00  -0.00
   7   6    -0.00   0.00  -0.00     0.00  -0.00   0.00    -0.00   0.00  -0.00
   8   1    -0.00  -0.01   0.00    -0.00  -0.05   0.02    -0.00  -0.03   0.01
   9   1     0.00   0.00   0.01     0.00   0.01   0.04     0.00   0.00   0.05
  10   1     0.00  -0.00  -0.00     0.00   0.00  -0.00    -0.00   0.00  -0.00
  11   1    -0.01   0.16  -0.05    -0.02   0.53  -0.19    -0.01   0.36  -0.13
  12   1    -0.00  -0.02  -0.18    -0.01  -0.05  -0.50    -0.01  -0.03  -0.35
  13   1     0.01   0.03   0.40     0.01   0.02   0.35    -0.02  -0.03  -0.73
  14   1     0.00  -0.21   0.07     0.01  -0.14   0.04    -0.00   0.16  -0.03
  15   1    -0.03  -0.02  -0.48     0.01   0.01   0.24    -0.00  -0.01  -0.03
  16   1    -0.05   0.61  -0.18     0.03  -0.36   0.11    -0.02   0.27  -0.09
  17   1    -0.01  -0.00  -0.05     0.00   0.00   0.04    -0.00  -0.00  -0.03
  18   1    -0.01   0.00   0.00     0.01  -0.00  -0.00    -0.01   0.00   0.00
  19   1     0.00   0.00   0.00     0.00   0.00   0.00    -0.00  -0.00  -0.00
  20   1     0.00   0.00   0.01    -0.00  -0.00  -0.01    -0.00   0.00   0.01
  21   1     0.00  -0.01   0.00    -0.00   0.01  -0.00     0.00  -0.01   0.00
  22   1    -0.00   0.00   0.00     0.00  -0.00  -0.00    -0.00  -0.00  -0.00
  23   1     0.00  -0.00  -0.00     0.00  -0.00   0.00    -0.00   0.00   0.00
                     52                     53                     54
                        a                      a                      a 
 Frequencies --  2969.5092              2976.5059              2984.4612
 Red. masses --     1.5089                 1.4768                 1.5968
 Frc consts  --     0.0000                 0.0000                 0.0000
 IR Inten    --    44.4073               100.9584               103.1713
 Raman Activ --     0.0000                 0.0000                 0.0000
 Depolar     --     0.0000                 0.0000                 0.0000
 Atom AN      X      Y      Z        X      Y      Z        X      Y      Z
   1   6    -0.00   0.00   0.00     0.01  -0.01  -0.01    -0.01   0.01   0.00
   2   6     0.00  -0.06  -0.03     0.00   0.15   0.12     0.00  -0.04   0.00
   3   6     0.00  -0.01   0.04    -0.00  -0.03   0.02     0.00  -0.22   0.01
   4   6     0.00   0.12   0.16     0.00   0.04   0.05     0.00  -0.03   0.01
   5   6    -0.00   0.00   0.01    -0.00   0.00   0.00     0.00  -0.00  -0.00
   6   6    -0.00  -0.00  -0.00     0.00   0.00  -0.00     0.01   0.01   0.00
   7   6     0.00  -0.01  -0.01     0.00  -0.00  -0.00    -0.00   0.00   0.00
   8   1    -0.00  -0.01   0.01     0.00   0.01  -0.01     0.00  -0.04   0.02
   9   1    -0.00   0.00  -0.01     0.01   0.00   0.03    -0.00  -0.00  -0.02
  10   1     0.01  -0.01  -0.00    -0.05   0.03   0.02     0.02  -0.01  -0.01
  11   1    -0.01   0.23  -0.10     0.02  -0.54   0.25    -0.00   0.12  -0.06
  12   1     0.01   0.00   0.20    -0.02  -0.01  -0.69     0.00  -0.00   0.04
  13   1    -0.00  -0.00  -0.11    -0.00  -0.00  -0.00     0.01  -0.02   0.31
  14   1     0.00   0.04  -0.01    -0.00   0.13  -0.05    -0.02   0.83  -0.35
  15   1    -0.04   0.03  -0.76    -0.02   0.01  -0.25    -0.00  -0.00  -0.00
  16   1     0.04  -0.47   0.18     0.01  -0.17   0.07    -0.01   0.09  -0.03
  17   1    -0.00   0.00  -0.01     0.00   0.00   0.00     0.00  -0.00   0.01
  18   1     0.00   0.00  -0.00     0.00   0.00  -0.00    -0.01   0.00   0.00
  19   1    -0.00  -0.00  -0.00    -0.01  -0.01  -0.00    -0.03  -0.02  -0.01
  20   1    -0.00   0.00   0.01     0.00   0.00   0.01     0.00   0.00  -0.00
  21   1    -0.00   0.02  -0.01    -0.00   0.01  -0.00     0.00  -0.00   0.00
  22   1     0.00   0.00   0.03     0.00   0.00   0.01     0.00   0.00   0.00
  23   1    -0.01   0.00   0.00    -0.00   0.00   0.00     0.01  -0.00  -0.00
                     55                     56                     57
                        a                      a                      a 
 Frequencies --  3022.5212              3023.8078              3024.2780
 Red. masses --     1.9146                 1.9457                 1.9518
 Frc consts  --     0.0000                 0.0000                 0.0000
 IR Inten    --     9.7942                88.5416                94.4471
 Raman Activ --     0.0000                 0.0000                 0.0000
 Depolar     --     0.0000                 0.0000                 0.0000
 Atom AN      X      Y      Z        X      Y      Z        X      Y      Z
   1   6    -0.00   0.00  -0.00     0.00  -0.00  -0.00    -0.01   0.15  -0.25
   2   6    -0.00   0.00   0.00    -0.00   0.00  -0.00    -0.00   0.02  -0.03
   3   6     0.00   0.00   0.00     0.00   0.00  -0.00    -0.00   0.00  -0.00
   4   6     0.00  -0.00   0.00    -0.00   0.00  -0.00    -0.00  -0.00  -0.00
   5   6    -0.00   0.00   0.00     0.00   0.00  -0.02     0.00  -0.00  -0.00
   6   6    -0.03   0.04   0.20     0.15  -0.03  -0.14    -0.00  -0.00  -0.00
   7   6    -0.02   0.07  -0.19    -0.09   0.14  -0.12     0.00  -0.00   0.00
   8   1     0.00  -0.01   0.00     0.00   0.01  -0.00     0.01  -0.62   0.23
   9   1     0.00   0.00   0.00     0.00  -0.00   0.01     0.02   0.06   0.68
  10   1     0.00  -0.00  -0.00    -0.01   0.00   0.00    -0.01   0.03  -0.04
  11   1    -0.00  -0.00   0.00     0.00  -0.00   0.00     0.00  -0.05   0.02
  12   1     0.00  -0.00  -0.00    -0.00   0.00   0.00    -0.00   0.00   0.06
  13   1    -0.00   0.00  -0.00     0.00   0.00   0.00    -0.00   0.00   0.01
  14   1     0.00  -0.00   0.00    -0.00  -0.01   0.00     0.00  -0.01   0.00
  15   1    -0.00  -0.00  -0.00    -0.00   0.00   0.01     0.00  -0.00   0.00
  16   1    -0.00   0.01  -0.00     0.00  -0.02   0.01    -0.00   0.00  -0.00
  17   1    -0.00  -0.00   0.00     0.00   0.00   0.04    -0.00   0.00  -0.00
  18   1     0.20  -0.07  -0.06    -0.50   0.18   0.19     0.00  -0.00  -0.00
  19   1    -0.06  -0.04   0.01    -0.09  -0.10  -0.06     0.00   0.00   0.00
  20   1    -0.04  -0.03  -0.64     0.04   0.01   0.38     0.00   0.00   0.01
  21   1     0.07  -0.33   0.12     0.08  -0.46   0.19    -0.00   0.00  -0.00
  22   1     0.06   0.06   0.56     0.03   0.05   0.34     0.00  -0.00  -0.00
  23   1    -0.06   0.04  -0.00     0.19  -0.07  -0.11    -0.00   0.00   0.00
                     58                     59                     60
                        a                      a                      a 
 Frequencies --  3025.0888              3027.3412              3029.8642
 Red. masses --     1.9260                 1.9195                 1.7513
 Frc consts  --     0.0000                 0.0000                 0.0000
 IR Inten    --   115.8688                93.8658                94.7198
 Raman Activ --     0.0000                 0.0000                 0.0000
 Depolar     --     0.0000                 0.0000                 0.0000
 Atom AN      X      Y      Z        X      Y      Z        X      Y      Z
   1   6    -0.00  -0.00   0.00    -0.14   0.21   0.13     0.00  -0.01  -0.00
   2   6     0.00  -0.00  -0.00    -0.00   0.02   0.01     0.00  -0.00   0.00
   3   6     0.00  -0.00  -0.00    -0.00   0.01   0.00    -0.00  -0.00   0.00
   4   6     0.00  -0.00  -0.00    -0.00   0.00   0.00     0.00  -0.00  -0.00
   5   6     0.00  -0.01  -0.02    -0.00   0.00  -0.00    -0.01   0.00  -0.01
   6   6    -0.01  -0.02  -0.09    -0.00  -0.00  -0.00    -0.22  -0.00  -0.08
   7   6     0.15  -0.15  -0.17    -0.00   0.00  -0.00    -0.04   0.10  -0.05
   8   1    -0.00   0.01  -0.00    -0.01  -0.45   0.22     0.00   0.02  -0.01
   9   1    -0.00  -0.00  -0.00    -0.04   0.01  -0.48     0.00  -0.00   0.01
  10   1     0.00  -0.00  -0.00     0.54  -0.30  -0.21    -0.01   0.00   0.00
  11   1    -0.00   0.00  -0.00     0.00  -0.05   0.02     0.00   0.00  -0.00
  12   1    -0.00  -0.00   0.00    -0.00   0.00  -0.05     0.00  -0.00  -0.00
  13   1     0.00  -0.00   0.00     0.00   0.00  -0.03     0.00  -0.00   0.00
  14   1    -0.00   0.01  -0.00     0.00  -0.03   0.02    -0.00   0.02  -0.01
  15   1    -0.00  -0.00   0.03    -0.00   0.00  -0.00    -0.00   0.00  -0.00
  16   1    -0.00   0.02  -0.01    -0.00  -0.00   0.00     0.00  -0.00   0.00
  17   1     0.00   0.00   0.03     0.00   0.00  -0.00     0.00   0.00   0.01
  18   1    -0.03   0.01  -0.00     0.00  -0.00  -0.00     0.57  -0.22  -0.26
  19   1     0.05   0.04   0.00     0.00   0.00   0.00     0.21   0.21   0.08
  20   1     0.02   0.01   0.33     0.00   0.00   0.02    -0.01   0.02   0.47
  21   1    -0.03   0.27  -0.15     0.00  -0.01   0.01     0.07  -0.37   0.16
  22   1     0.08   0.02   0.50    -0.00   0.00  -0.00    -0.00   0.02   0.05
  23   1    -0.57   0.24   0.25     0.00   0.00  -0.00     0.06  -0.01  -0.04
                     61                     62                     63
                        a                      a                      a 
 Frequencies --  3036.7528              3037.5339              3046.1359
 Red. masses --     1.2728                 1.2700                 1.4508
 Frc consts  --     0.0000                 0.0000                 0.0000
 IR Inten    --   107.4481                 7.9460                47.8056
 Raman Activ --     0.0000                 0.0000                 0.0000
 Depolar     --     0.0000                 0.0000                 0.0000
 Atom AN      X      Y      Z        X      Y      Z        X      Y      Z
   1   6    -0.06  -0.01  -0.01     0.13   0.03   0.01     0.00  -0.00   0.00
   2   6    -0.00   0.00   0.00     0.00  -0.00  -0.00     0.00  -0.00  -0.00
   3   6     0.00  -0.00   0.00    -0.00   0.00   0.00     0.00   0.01  -0.00
   4   6     0.00  -0.00  -0.00     0.00  -0.00  -0.00     0.00  -0.00  -0.00
   5   6    -0.01  -0.00   0.00    -0.00  -0.00   0.00     0.00   0.01   0.01
   6   6    -0.04  -0.01  -0.02    -0.02  -0.01  -0.01     0.09   0.17   0.04
   7   6    -0.12  -0.07  -0.00    -0.05  -0.03  -0.00    -0.01  -0.01   0.01
   8   1    -0.01   0.19  -0.08     0.02  -0.41   0.17     0.00  -0.01   0.00
   9   1    -0.00   0.01   0.20     0.00  -0.02  -0.44     0.00  -0.00  -0.01
  10   1     0.24  -0.15  -0.10    -0.51   0.32   0.22    -0.01   0.01   0.00
  11   1    -0.00  -0.00   0.00     0.00   0.01  -0.00    -0.00   0.00  -0.00
  12   1    -0.00  -0.00  -0.00     0.00   0.00   0.01     0.00   0.00   0.00
  13   1     0.00  -0.00  -0.00     0.00   0.00  -0.01    -0.00   0.00  -0.00
  14   1    -0.00   0.00  -0.00     0.00  -0.01   0.00     0.00  -0.03   0.01
  15   1     0.00  -0.00   0.01     0.00  -0.00   0.01     0.00   0.00   0.01
  16   1    -0.00   0.01  -0.00    -0.00   0.01  -0.00    -0.00   0.00  -0.00
  17   1    -0.00  -0.00  -0.01    -0.00  -0.00  -0.00    -0.00  -0.00  -0.02
  18   1     0.07  -0.03  -0.04     0.03  -0.02  -0.02     0.31  -0.08  -0.11
  19   1     0.07   0.07   0.03     0.05   0.04   0.02    -0.65  -0.56  -0.24
  20   1    -0.00   0.00   0.07    -0.00   0.00   0.03     0.02   0.03   0.20
  21   1    -0.10   0.44  -0.19    -0.05   0.20  -0.09    -0.01   0.06  -0.02
  22   1     0.03   0.03   0.44     0.02   0.01   0.21     0.00  -0.00   0.02
  23   1     0.49  -0.23  -0.24     0.22  -0.11  -0.11     0.03  -0.02  -0.01
