      -----------------------------------------------------------      
     |                   =====================                   |     
     |                           x T B                           |     
     |                   =====================                   |     
     |                         S. Grimme                         |     
     |          Mulliken Center for Theoretical Chemistry        |     
     |                    University of Bonn                     |     
      -----------------------------------------------------------      

   * xtb version 6.7.1 (edcfbbe) compiled by 'albert@albert-system' on 2024-07-22

   xtb is free software: you can redistribute it and/or modify it under
   the terms of the GNU Lesser General Public License as published by
   the Free Software Foundation, either version 3 of the License, or
   (at your option) any later version.
   
   xtb is distributed in the hope that it will be useful,
   but WITHOUT ANY WARRANTY; without even the implied warranty of
   MERCHANTABILITY or FITNESS FOR A PARTICULAR PURPOSE.  See the
   GNU Lesser General Public License for more details.
   
   Cite this work as:
   * C. Bannwarth, E. Caldeweyher, S. Ehlert, A. Hansen, P. Pracht,
     J. Seibert, S. Spicher, S. Grimme, WIREs Comput. Mol. Sci., 2020, 11,
     e01493. DOI: 10.1002/wcms.1493
   
   for GFN2-xTB:
   * C. Bannwarth, S. Ehlert and S. Grimme., J. Chem. Theory Comput., 2019,
     15, 1652-1671. DOI: 10.1021/acs.jctc.8b01176
   for GFN1-xTB:
   * S. Grimme, C. Bannwarth, P. Shushkov, J. Chem. Theory Comput., 2017,
     13, 1989-2009. DOI: 10.1021/acs.jctc.7b00118
   for GFN0-xTB:
   * P. Pracht, E. Caldeweyher, S. Ehlert, S. Grimme, ChemRxiv, 2019, preprint.
     DOI: 10.26434/chemrxiv.8326202.v1
   for GFN-FF:
   * S. Spicher and S. Grimme, Angew. Chem. Int. Ed., 2020, 59, 15665-15673.
     DOI: 10.1002/anie.202004239
   
   for ALPB and GBSA implicit solvation:
   * S. Ehlert, M. Stahn, S. Spicher, S. Grimme, J. Chem. Theory Comput.,
     2021, 17, 4250-4261. DOI: 10.1021/acs.jctc.1c00471
   
   for ddCOSMO and CPCM-X implicit solvation:
   * M. Stahn, S. Ehlert, S. Grimme, J. Phys. Chem. A,
     2023, XX, XXXX-XXXX. DOI: 10.1021/acs.jpca.3c04382
   
   for DFT-D4:
   * E. Caldeweyher, C. Bannwarth and S. Grimme, J. Chem. Phys., 2017,
     147, 034112. DOI: 10.1063/1.4993215
   * E. Caldeweyher, S. Ehlert, A. Hansen, H. Neugebauer, S. Spicher,
     C. Bannwarth and S. Grimme, J. Chem. Phys., 2019, 150, 154122.
     DOI: 10.1063/1.5090222
   * E. Caldeweyher, J.-M. Mewes, S. Ehlert and S. Grimme, Phys. Chem. Chem. Phys.
     2020, 22, 8499-8512. DOI: 10.1039/D0CP00502A
   
   for sTDA-xTB:
   * S. Grimme and C. Bannwarth, J. Chem. Phys., 2016, 145, 054103.
     DOI: 10.1063/1.4959605
   
   in the mass-spec context:
   * V. Asgeirsson, C. Bauer and S. Grimme, Chem. Sci., 2017, 8, 4879.
     DOI: 10.1039/c7sc00601b
   * J. Koopman and S. Grimme, ACS Omega 2019, 4, 12, 15120-15133.
     DOI: 10.1021/acsomega.9b02011
   
   for metadynamics refer to:
   * S. Grimme, J. Chem. Theory Comput., 2019, 155, 2847-2862
     DOI: 10.1021/acs.jctc.9b00143
   
   for SPH calculations refer to:
   * S. Spicher and S. Grimme, J. Chem. Theory Comput., 2021, 17, 1701-1714
     DOI: 10.1021/acs.jctc.0c01306
   
   for ONIOM refer to:
   * C. Plett, A. Katbashev, S. Ehlert, S. Grimme, M. Bursch,
     Phys. Chem. Chem. Phys., 2023, 25, 17860-17868. DOI: 10.1039/D3CP02178E
   
   for DIPRO refer to:
   * J. Kohn, N. Gildemeister, S. Grimme, D. Fazzi, A. Hansen,
     J. Chem. Phys., 2023, just accepted.
   
   for PTB refer to:
   * S. Grimme, M. Mueller, A. Hansen, J. Chem. Phys., 2023, 158, 124111.
     DOI: 10.1063/5.0137838
   
   with help from (in alphabetical order)
   P. Atkinson, C. Bannwarth, F. Bohle, G. Brandenburg, E. Caldeweyher
   M. Checinski, S. Dohm, S. Ehlert, S. Ehrlich, I. Gerasimov, C. Hölzer
   A. Katbashev, J. Kohn, J. Koopman, C. Lavigne, S. Lehtola, F. März, M. Müller,
   F. Musil, H. Neugebauer, J. Pisarek, C. Plett, P. Pracht, F. Pultar,
   J. Seibert, P. Shushkov, S. Spicher, M. Stahn, M. Steiner, T. Strunk,
   J. Stückrath, T. Rose, and J. Unsleber
   
 * started run on 2025/04/11 at 16:15:24.751     
   ID    Z sym.   atoms
    1    6 C      1-4, 7, 10, 12
    2    7 N      5, 9
    3    8 O      6, 8
    4   16 S      11
    5    1 H      13-26

           -------------------------------------------------
          |                Calculation Setup                |
           -------------------------------------------------

          program call               : /srv/scratch/z5358697/.xtb/bin/xtb gas.coord --gfn2 --sp --chrg 0 --norestart --parallel 1
          hostname                   : k073
          coordinate file            : gas.coord
          omp threads                :                     1


           -------------------------------------------------
          |                 G F N 2 - x T B                 |
           -------------------------------------------------

        Reference                      10.1021/acs.jctc.8b01176
      * Hamiltonian:
        H0-scaling (s, p, d)           1.850000    2.230000    2.230000
        zeta-weighting                 0.500000
      * Dispersion:
        s8                             2.700000
        a1                             0.520000
        a2                             5.000000
        s9                             5.000000
      * Repulsion:
        kExp                           1.500000    1.000000
        rExp                           1.000000
      * Coulomb:
        alpha                          2.000000
        third order                    shell-resolved
        anisotropic                    true
        a3                             3.000000
        a5                             4.000000
        cn-shift                       1.200000
        cn-exp                         4.000000
        max-rad                        5.000000


          ...................................................
          :                      SETUP                      :
          :.................................................:
          :  # basis functions                  68          :
          :  # atomic orbitals                  67          :
          :  # shells                           39          :
          :  # electrons                        70          :
          :  max. iterations                   250          :
          :  Hamiltonian                  GFN2-xTB          :
          :  restarted?                      false          :
          :  GBSA solvation                  false          :
          :  PC potential                    false          :
          :  electronic temp.          300.0000000     K    :
          :  accuracy                    1.0000000          :
          :  -> integral cutoff          0.2500000E+02      :
          :  -> integral neglect         0.1000000E-07      :
          :  -> SCF convergence          0.1000000E-05 Eh   :
          :  -> wf. convergence          0.1000000E-03 e    :
          :  Broyden damping             0.4000000          :
          :  net charge                          0          :
          :  unpaired electrons                  0          :
          ...................................................

 iter      E             dE          RMSdq      gap      omega  full diag
   1    -39.6484540 -0.396485E+02  0.457E+00    3.57       0.0  T
   2    -39.7405395 -0.920855E-01  0.260E+00    3.14       1.0  T
   3    -39.7423719 -0.183240E-02  0.109E+00    2.59       1.0  T
   4    -39.7450560 -0.268414E-02  0.533E-01    2.62       1.0  T
   5    -39.7475605 -0.250447E-02  0.179E-01    2.59       1.0  T
   6    -39.7475813 -0.208003E-04  0.718E-02    2.61       1.0  T
   7    -39.7476172 -0.359341E-04  0.288E-02    2.60       1.0  T
   8    -39.7476212 -0.393374E-05  0.140E-02    2.61       1.4  T
   9    -39.7476214 -0.220450E-06  0.364E-03    2.61       5.4  T
  10    -39.7476214 -0.614605E-07  0.212E-03    2.61       9.3  T
  11    -39.7476215 -0.110367E-07  0.570E-04    2.61      34.4  T
  12    -39.7476215 -0.651845E-09  0.247E-04    2.61      79.3  T

   *** convergence criteria satisfied after 12 iterations ***

         #    Occupation            Energy/Eh            Energy/eV
      -------------------------------------------------------------
         1        2.0000           -0.7457083             -20.2918
       ...           ...                  ...                  ...
        29        2.0000           -0.4620828             -12.5739
        30        2.0000           -0.4503261             -12.2540
        31        2.0000           -0.4310113             -11.7284
        32        2.0000           -0.4221045             -11.4860
        33        2.0000           -0.4158903             -11.3170
        34        2.0000           -0.3913273             -10.6486
        35        2.0000           -0.3574351              -9.7263 (HOMO)
        36                         -0.2616351              -7.1195 (LUMO)
        37                         -0.2000510              -5.4437
        38                         -0.1892074              -5.1486
        39                         -0.1492194              -4.0605
        40                         -0.1020636              -2.7773
       ...                                ...                  ...
        67                          0.6460166              17.5790
      -------------------------------------------------------------
                  HL-Gap            0.0958000 Eh            2.6069 eV
             Fermi-level           -0.3095351 Eh           -8.4229 eV

 SCC (total)                   0 d,  0 h,  0 min,  0.030 sec
 SCC setup                      ...        0 min,  0.000 sec (  0.702%)
 Dispersion                     ...        0 min,  0.000 sec (  0.577%)
 classical contributions        ...        0 min,  0.000 sec (  0.106%)
 integral evaluation            ...        0 min,  0.005 sec ( 17.113%)
 iterations                     ...        0 min,  0.014 sec ( 46.547%)
 molecular gradient             ...        0 min,  0.010 sec ( 34.209%)
 printout                       ...        0 min,  0.000 sec (  0.692%)

         :::::::::::::::::::::::::::::::::::::::::::::::::::::
         ::                     SUMMARY                     ::
         :::::::::::::::::::::::::::::::::::::::::::::::::::::
         :: total energy             -39.315253447847 Eh    ::
         :: gradient norm              0.037974516846 Eh/a0 ::
         :: HOMO-LUMO gap              2.606851460323 eV    ::
         ::.................................................::
         :: SCC energy               -39.747417824062 Eh    ::
         :: -> isotropic ES            0.065463150616 Eh    ::
         :: -> anisotropic ES         -0.002062734087 Eh    ::
         :: -> anisotropic XC          0.024213780892 Eh    ::
         :: -> dispersion             -0.022737774734 Eh    ::
         :: repulsion energy           0.432164376215 Eh    ::
         :: add. restraining           0.000000000000 Eh    ::
         :: total charge              -0.000000000000 e     ::
         :::::::::::::::::::::::::::::::::::::::::::::::::::::

           -------------------------------------------------
          |                Property Printout                |
           -------------------------------------------------

    * Orbital Energies and Occupations

         #    Occupation            Energy/Eh            Energy/eV
      -------------------------------------------------------------
         1        2.0000           -0.7457083             -20.2918
       ...           ...                  ...                  ...
        23        2.0000           -0.4883568             -13.2889
        24        2.0000           -0.4844114             -13.1815
        25        2.0000           -0.4823900             -13.1265
        26        2.0000           -0.4784646             -13.0197
        27        2.0000           -0.4701711             -12.7940
        28        2.0000           -0.4656621             -12.6713
        29        2.0000           -0.4620828             -12.5739
        30        2.0000           -0.4503261             -12.2540
        31        2.0000           -0.4310113             -11.7284
        32        2.0000           -0.4221045             -11.4860
        33        2.0000           -0.4158903             -11.3170
        34        2.0000           -0.3913273             -10.6486
        35        2.0000           -0.3574351              -9.7263 (HOMO)
        36                         -0.2616351              -7.1195 (LUMO)
        37                         -0.2000510              -5.4437
        38                         -0.1892074              -5.1486
        39                         -0.1492194              -4.0605
        40                         -0.1020636              -2.7773
        41                         -0.0051154              -0.1392
        42                          0.0055348               0.1506
        43                          0.0095171               0.2590
        44                          0.0187525               0.5103
        45                          0.0654160               1.7801
        46                          0.1000696               2.7230
       ...                                ...                  ...
        67                          0.6460166              17.5790
      -------------------------------------------------------------
                  HL-Gap            0.0958000 Eh            2.6069 eV
             Fermi-level           -0.3095351 Eh           -8.4229 eV

     #   Z          covCN         q      C6AA      α(0)
     1   6 C        3.781    -0.095    22.325     6.731
     2   6 C        3.891     0.069    19.382     6.259
     3   6 C        3.817    -0.109    22.561     6.760
     4   6 C        2.925     0.069    26.455     8.435
     5   7 N        1.830    -0.085    23.648     7.206
     6   8 O        1.770    -0.253    18.175     5.757
     7   6 C        2.639     0.406    20.155     7.344
     8   8 O        0.857    -0.472    23.170     6.454
     9   7 N        2.686    -0.181    24.918     7.414
    10   6 C        3.691    -0.045    21.576     6.647
    11  16 S        2.117    -0.207   149.884    20.605
    12   6 C        3.745    -0.051    21.569     6.625
    13   1 H        0.925     0.046     2.373     2.409
    14   1 H        0.925     0.045     2.383     2.414
    15   1 H        0.925     0.045     2.379     2.412
    16   1 H        0.925     0.059     2.205     2.322
    17   1 H        0.925     0.048     2.342     2.393
    18   1 H        0.925     0.054     2.271     2.357
    19   1 H        0.925     0.079     1.984     2.203
    20   1 H        0.860     0.186     1.183     1.703
    21   1 H        0.925     0.090     1.882     2.145
    22   1 H        0.925     0.060     2.197     2.318
    23   1 H        0.925     0.057     2.230     2.335
    24   1 H        0.925     0.078     1.996     2.209
    25   1 H        0.925     0.047     2.351     2.398
    26   1 H        0.925     0.058     2.221     2.330

 Mol. C6AA /au·bohr⁶  :       7082.328915
 Mol. C8AA /au·bohr⁸  :     175471.669691
 Mol. α(0) /au        :        128.186171


Wiberg/Mayer (AO) data.
largest (>0.10) Wiberg bond orders for each atom

 ---------------------------------------------------------------------------
     #   Z sym  total        # sym  WBO       # sym  WBO       # sym  WBO
 ---------------------------------------------------------------------------
     1   6 C    3.995 --     2 C    1.009    15 H    0.984    14 H    0.982
                            13 H    0.977
     2   6 C    3.976 --     4 C    1.009     1 C    1.009     3 C    0.981
                            11 S    0.907
     3   6 C    3.992 --    18 H    0.983     2 C    0.981    16 H    0.981
                            17 H    0.980
     4   6 C    3.960 --     5 N    1.877     2 C    1.009    19 H    0.940
     5   7 N    3.007 --     4 C    1.877     6 O    0.946
     6   8 O    2.242 --     7 C    1.028     5 N    0.946     8 O    0.125
     7   6 C    3.939 --     8 O    1.617     9 N    1.235     6 O    1.028
     8   8 O    1.966 --     7 C    1.617     9 N    0.169     6 O    0.125
     9   7 N    3.420 --     7 C    1.235    10 C    1.000    20 H    0.937
                             8 O    0.169
    10   6 C    3.955 --     9 N    1.000    23 H    0.978    22 H    0.978
                            21 H    0.976
    11  16 S    2.113 --    12 C    1.012     2 C    0.907
    12   6 C    3.973 --    11 S    1.012    25 H    0.986    26 H    0.978
                            24 H    0.970
    13   1 H    0.998 --     1 C    0.977
    14   1 H    0.998 --     1 C    0.982
    15   1 H    0.998 --     1 C    0.984
    16   1 H    0.996 --     3 C    0.981
    17   1 H    0.997 --     3 C    0.980
    18   1 H    0.997 --     3 C    0.983
    19   1 H    0.992 --     4 C    0.940
    20   1 H    0.965 --     9 N    0.937
    21   1 H    0.992 --    10 C    0.976
    22   1 H    0.996 --    10 C    0.978
    23   1 H    0.996 --    10 C    0.978
    24   1 H    0.994 --    12 C    0.970
    25   1 H    0.998 --    12 C    0.986
    26   1 H    0.996 --    12 C    0.978
 ---------------------------------------------------------------------------

Topologies differ in total number of bonds
Writing topology from bond orders to xtbtopo.mol

molecular dipole:
                 x           y           z       tot (Debye)
 q only:       -0.588      -0.642      -1.035
   full:       -0.879      -0.796      -1.365       4.598
molecular quadrupole (traceless):
                xx          xy          yy          xz          yz          zz
 q only:        8.760      -1.779      -4.202       7.492      -0.110      -4.558
  q+dip:        5.473       0.251      -2.855       7.487       0.630      -2.618
   full:        5.599      -0.693      -1.662       7.951       0.767      -3.937


           -------------------------------------------------
          | TOTAL ENERGY              -39.315253447847 Eh   |
          | GRADIENT NORM               0.037974516846 Eh/α |
          | HOMO-LUMO GAP               2.606851460323 eV   |
           -------------------------------------------------

------------------------------------------------------------------------
 * finished run on 2025/04/11 at 16:15:24.832     
------------------------------------------------------------------------
 total:
 * wall-time:     0 d,  0 h,  0 min,  0.081 sec
 *  cpu-time:     0 d,  0 h,  0 min,  0.040 sec
 * ratio c/w:     0.491 speedup
 SCF:
 * wall-time:     0 d,  0 h,  0 min,  0.031 sec
 *  cpu-time:     0 d,  0 h,  0 min,  0.029 sec
 * ratio c/w:     0.955 speedup

