 Entering Gaussian System
 *********************************************
 Gaussian 98:
 frequency output generated by the xtb code
 *********************************************
                         Standard orientation:
 --------------------------------------------------------------------
  Center     Atomic     Atomic              Coordinates (Angstroms)
  Number     Number      Type              X           Y           Z
 --------------------------------------------------------------------
    1          6             0        0.659316    1.595437   -0.014137
    2          6             0       -0.625428    1.263887    0.748167
    3          6             0       -1.793850    0.841812   -0.129255
    4         17             0       -1.725243   -0.904232   -0.590133
    5          6             0        1.347951    0.396058   -0.640632
    6         17             0        1.897685   -0.769312    0.618779
    7          1             0        1.354125    2.078360    0.674111
    8          1             0        0.433475    2.297231   -0.818840
    9          1             0       -0.939174    2.161168    1.283848
   10          1             0       -0.421108    0.488785    1.487904
   11          1             0       -2.737272    0.953482    0.401067
   12          1             0       -1.820170    1.399679   -1.063106
   13          1             0        0.683350   -0.161843   -1.295983
   14          1             0        2.244599    0.695222   -1.179776
 --------------------------------------------------------------------
     1 basis functions        1 primitive gaussians
     1 alpha electrons        1 beta electrons
 
 Harmonic frequencies (cm**-1), IR intensities (km*mol⁻¹),
 Raman scattering activities (A**4/amu), Raman depolarization ratios,
 reduced masses (AMU), force constants (mDyne/A) and normal coordinates:
                      1                      2                      3
                        a                      a                      a 
 Frequencies --    29.2868                78.7459               159.9069
 Red. masses --    28.7794                18.0563                18.4288
 Frc consts  --     0.0000                 0.0000                 0.0000
 IR Inten    --     1.0739                 1.0577                 8.3060
 Raman Activ --     0.0000                 0.0000                 0.0000
 Depolar     --     0.0000                 0.0000                 0.0000
 Atom AN      X      Y      Z        X      Y      Z        X      Y      Z
   1   6    -0.06  -0.17  -0.12     0.07   0.03   0.30    -0.17  -0.12   0.08
   2   6     0.03  -0.15   0.02    -0.13  -0.02  -0.06    -0.32   0.26  -0.00
   3   6    -0.13   0.01   0.15     0.11   0.09  -0.45    -0.19   0.11  -0.08
   4  17    -0.44   0.17  -0.30    -0.41  -0.14   0.22     0.41   0.20   0.05
   5   6    -0.02  -0.22   0.00     0.04   0.12   0.11    -0.36  -0.23   0.07
   6  17     0.57   0.19   0.26     0.35  -0.02  -0.14     0.31  -0.21  -0.08
   7   1    -0.01  -0.01  -0.07    -0.00  -0.07   0.16    -0.03  -0.08   0.03
   8   1    -0.05  -0.09  -0.06     0.09   0.08   0.13     0.01  -0.02   0.02
   9   1     0.04  -0.05   0.04    -0.07  -0.02  -0.01    -0.09   0.14  -0.10
  10   1     0.02  -0.07  -0.02    -0.10  -0.03  -0.03    -0.15   0.13   0.08
  11   1    -0.01  -0.02   0.10    -0.03   0.16  -0.26    -0.08  -0.01  -0.05
  12   1    -0.08   0.05   0.07     0.20  -0.05  -0.18    -0.06   0.02  -0.03
  13   1    -0.02  -0.12   0.07    -0.01   0.05   0.03    -0.15  -0.09   0.09
  14   1    -0.04  -0.06  -0.06    -0.01   0.06   0.02    -0.16  -0.07  -0.07
                      4                      5                      6
                        a                      a                      a 
 Frequencies --   227.6981               289.0232               373.6695
 Red. masses --    12.6842                14.3820                 9.9365
 Frc consts  --     0.0000                 0.0000                 0.0000
 IR Inten    --     2.9169                 1.9235                 0.0872
 Raman Activ --     0.0000                 0.0000                 0.0000
 Depolar     --     0.0000                 0.0000                 0.0000
 Atom AN      X      Y      Z        X      Y      Z        X      Y      Z
   1   6    -0.13   0.07  -0.13     0.24   0.21   0.11    -0.27   0.34  -0.22
   2   6    -0.19   0.14  -0.17     0.09   0.46  -0.02     0.10   0.03   0.18
   3   6    -0.31  -0.01   0.08     0.10  -0.15   0.21     0.28   0.02  -0.05
   4  17    -0.08   0.05   0.08    -0.24  -0.34  -0.27    -0.03  -0.05  -0.06
   5   6     0.45   0.22   0.16    -0.11   0.03   0.10    -0.22   0.12   0.24
   6  17     0.19  -0.36  -0.04     0.05  -0.06  -0.01     0.12  -0.29   0.03
   7   1    -0.11   0.13  -0.04     0.08   0.00   0.06    -0.07   0.33  -0.24
   8   1    -0.04  -0.06  -0.11     0.14   0.09   0.03    -0.25  -0.11  -0.20
   9   1    -0.05   0.08  -0.10    -0.05   0.22  -0.20    -0.02  -0.06   0.13
  10   1    -0.05   0.09  -0.00     0.02   0.28   0.15     0.13  -0.04  -0.02
  11   1    -0.05  -0.06   0.10     0.07  -0.10   0.14     0.03   0.07  -0.12
  12   1    -0.19   0.00   0.03    -0.09  -0.03   0.07     0.20  -0.01  -0.03
  13   1     0.26   0.07  -0.10    -0.12   0.04   0.09    -0.09   0.01   0.12
  14   1     0.19   0.16   0.21    -0.06  -0.06  -0.05    -0.08  -0.01   0.01
                      7                      8                      9
                        a                      a                      a 
 Frequencies --   458.1592               639.9230               649.2943
 Red. masses --     7.9446                16.4131                15.8977
 Frc consts  --     0.0000                 0.0000                 0.0000
 IR Inten    --     3.3641                 1.0526                 4.6857
 Raman Activ --     0.0000                 0.0000                 0.0000
 Depolar     --     0.0000                 0.0000                 0.0000
 Atom AN      X      Y      Z        X      Y      Z        X      Y      Z
   1   6     0.19   0.36   0.01    -0.00  -0.02  -0.03    -0.12   0.09  -0.07
   2   6     0.10  -0.16  -0.39    -0.01   0.17   0.16    -0.04   0.01   0.06
   3   6    -0.26   0.02  -0.06    -0.19   0.69   0.10     0.07  -0.13   0.03
   4  17     0.07   0.02   0.08     0.05  -0.49  -0.12    -0.02   0.08   0.01
   5   6    -0.18   0.11   0.10     0.03   0.01  -0.14    -0.15   0.32  -0.63
   6  17     0.06  -0.16   0.09     0.02  -0.03   0.06     0.14  -0.29   0.37
   7   1     0.01   0.01   0.11     0.05  -0.05  -0.02     0.03  -0.17   0.06
   8   1     0.16   0.16   0.03     0.01   0.02   0.01    -0.01   0.22   0.14
   9   1     0.03  -0.20   0.14     0.14  -0.01   0.23    -0.04   0.02  -0.02
  10   1     0.11  -0.21  -0.30    -0.03  -0.10  -0.10     0.03   0.04   0.04
  11   1     0.01  -0.07   0.16    -0.08   0.13  -0.02    -0.01  -0.01  -0.04
  12   1    -0.27   0.03   0.00    -0.01   0.12  -0.01     0.07  -0.03   0.01
  13   1    -0.19   0.05   0.15     0.04  -0.01  -0.06     0.03   0.03  -0.19
  14   1    -0.09  -0.11  -0.10     0.03   0.02   0.01     0.01   0.11  -0.07
                     10                     11                     12
                        a                      a                      a 
 Frequencies --   807.6962               839.0868               905.0792
 Red. masses --     5.3002                 6.1109                 6.7468
 Frc consts  --     0.0000                 0.0000                 0.0000
 IR Inten    --    17.4883                 7.7047                 7.7127
 Raman Activ --     0.0000                 0.0000                 0.0000
 Depolar     --     0.0000                 0.0000                 0.0000
 Atom AN      X      Y      Z        X      Y      Z        X      Y      Z
   1   6     0.27   0.03   0.12     0.11   0.23  -0.18    -0.12  -0.11  -0.13
   2   6    -0.07  -0.17   0.14    -0.15   0.15   0.18     0.16  -0.33  -0.30
   3   6    -0.24   0.02  -0.04    -0.30  -0.25   0.20    -0.09   0.17   0.32
   4  17     0.03  -0.00  -0.00     0.02   0.06  -0.05     0.05  -0.05  -0.04
   5   6     0.29   0.17  -0.21     0.17  -0.20   0.02    -0.11   0.21   0.19
   6  17    -0.04  -0.05   0.06    -0.01   0.03  -0.05     0.00  -0.01  -0.01
   7   1     0.01   0.30  -0.11     0.03  -0.09   0.06    -0.15  -0.11   0.14
   8   1    -0.21  -0.16  -0.05     0.22   0.15  -0.02     0.07   0.08   0.03
   9   1    -0.01   0.07  -0.14    -0.04  -0.07   0.22     0.12   0.11  -0.35
  10   1    -0.17   0.05   0.18     0.20  -0.02  -0.07     0.07   0.15   0.16
  11   1    -0.10   0.05  -0.08    -0.26   0.15  -0.32    -0.09   0.29  -0.10
  12   1     0.03   0.00  -0.02     0.33  -0.20  -0.04     0.31  -0.02   0.04
  13   1    -0.26   0.07   0.26     0.03  -0.07   0.03    -0.06   0.05   0.09
  14   1    -0.05  -0.20  -0.40     0.05  -0.13  -0.03    -0.05   0.04   0.02
                     13                     14                     15
                        a                      a                      a 
 Frequencies --   960.1781              1016.3053              1065.7186
 Red. masses --     6.6077                 6.5044                 7.0428
 Frc consts  --     0.0000                 0.0000                 0.0000
 IR Inten    --     4.9406                 2.3402                 0.7097
 Raman Activ --     0.0000                 0.0000                 0.0000
 Depolar     --     0.0000                 0.0000                 0.0000
 Atom AN      X      Y      Z        X      Y      Z        X      Y      Z
   1   6    -0.34   0.06  -0.12     0.04   0.44  -0.11    -0.06  -0.11  -0.24
   2   6    -0.21   0.03  -0.05    -0.03  -0.34   0.16     0.30   0.02   0.31
   3   6     0.35   0.12   0.07    -0.05   0.15  -0.13    -0.24  -0.07  -0.34
   4  17    -0.02  -0.02   0.02     0.00  -0.04   0.04    -0.01   0.00   0.02
   5   6     0.40  -0.05  -0.01    -0.03  -0.30  -0.01     0.03   0.23   0.21
   6  17    -0.06  -0.02  -0.03     0.03   0.02  -0.04    -0.04  -0.03  -0.03
   7   1    -0.22  -0.14   0.21     0.07  -0.00  -0.00     0.15  -0.25  -0.06
   8   1     0.08   0.19   0.08    -0.07   0.24   0.11     0.01   0.17   0.11
   9   1    -0.09  -0.04   0.04    -0.19   0.02  -0.23     0.21   0.10  -0.00
  10   1     0.01  -0.02  -0.06    -0.05   0.11   0.26     0.10   0.06   0.13
  11   1     0.12  -0.11   0.10    -0.00  -0.11   0.02    -0.07  -0.17  -0.06
  12   1    -0.01   0.13   0.09    -0.02   0.29   0.12    -0.15   0.10  -0.02
  13   1    -0.06  -0.18   0.31     0.10  -0.03  -0.15     0.08  -0.24   0.24
  14   1    -0.05  -0.13  -0.33     0.16  -0.22   0.19    -0.12   0.17  -0.10
                     16                     17                     18
                        a                      a                      a 
 Frequencies --  1092.8875              1139.7885              1142.8660
 Red. masses --     3.6927                 3.5795                 5.3081
 Frc consts  --     0.0000                 0.0000                 0.0000
 IR Inten    --     1.4372                 2.9338                 6.9092
 Raman Activ --     0.0000                 0.0000                 0.0000
 Depolar     --     0.0000                 0.0000                 0.0000
 Atom AN      X      Y      Z        X      Y      Z        X      Y      Z
   1   6     0.19  -0.20  -0.18     0.03  -0.11  -0.32    -0.31  -0.05   0.20
   2   6    -0.23  -0.04   0.09    -0.12   0.01   0.15     0.33   0.14   0.03
   3   6     0.08   0.01  -0.04     0.12  -0.03   0.01    -0.16  -0.06  -0.20
   4  17    -0.03  -0.02   0.05    -0.01   0.03  -0.01    -0.00  -0.01   0.01
   5   6    -0.10   0.20   0.03    -0.05   0.18   0.14     0.10  -0.17  -0.11
   6  17     0.01   0.00   0.03     0.04   0.02  -0.02     0.03   0.02   0.02
   7   1    -0.04  -0.02   0.03    -0.04  -0.14   0.04    -0.33   0.10   0.22
   8   1     0.38  -0.18  -0.26    -0.02   0.14   0.07    -0.05  -0.03   0.03
   9   1    -0.12  -0.04   0.04     0.28   0.09   0.07     0.18   0.06   0.02
  10   1     0.15   0.02  -0.00    -0.34  -0.12   0.00     0.38   0.12   0.01
  11   1    -0.09  -0.32  -0.14     0.05  -0.03   0.04    -0.05  -0.06  -0.06
  12   1     0.13   0.44   0.24    -0.11  -0.22  -0.12    -0.04   0.11   0.02
  13   1    -0.14   0.24  -0.04    -0.19   0.32  -0.02    -0.19   0.32  -0.13
  14   1    -0.01   0.02   0.02     0.23  -0.46   0.16     0.11  -0.23   0.01
                     19                     20                     21
                        a                      a                      a 
 Frequencies --  1200.7568              1235.9860              1251.8258
 Red. masses --     2.6904                 3.1246                 2.9925
 Frc consts  --     0.0000                 0.0000                 0.0000
 IR Inten    --     1.1109                10.4619                33.3912
 Raman Activ --     0.0000                 0.0000                 0.0000
 Depolar     --     0.0000                 0.0000                 0.0000
 Atom AN      X      Y      Z        X      Y      Z        X      Y      Z
   1   6    -0.02  -0.02  -0.12    -0.03  -0.19   0.10     0.00   0.03  -0.12
   2   6    -0.04  -0.12   0.29    -0.05   0.14  -0.11    -0.06   0.09  -0.02
   3   6    -0.05   0.06  -0.16    -0.07  -0.13  -0.05    -0.06  -0.25  -0.08
   4  17     0.03  -0.01  -0.03     0.02  -0.03  -0.00     0.02  -0.04  -0.00
   5   6     0.03   0.02  -0.00    -0.04   0.27  -0.01     0.12  -0.20   0.12
   6  17     0.00  -0.00   0.02     0.00   0.01  -0.04     0.00  -0.01   0.04
   7   1    -0.05  -0.06   0.05     0.22  -0.10  -0.17     0.09  -0.07  -0.07
   8   1     0.32  -0.08  -0.18    -0.19  -0.02   0.10    -0.13   0.14   0.12
   9   1    -0.33  -0.08  -0.03    -0.21  -0.08   0.05     0.14   0.03   0.06
  10   1     0.22   0.10   0.15     0.23   0.04  -0.09    -0.20  -0.08  -0.06
  11   1     0.23   0.44   0.31     0.10   0.32   0.13     0.13   0.39   0.15
  12   1    -0.23  -0.23  -0.17     0.10   0.27   0.15     0.13   0.36   0.22
  13   1    -0.07   0.13  -0.03     0.05  -0.19   0.16    -0.16   0.35  -0.13
  14   1    -0.03   0.05  -0.05     0.24  -0.43   0.15    -0.18   0.29  -0.14
                     22                     23                     24
                        a                      a                      a 
 Frequencies --  1260.7939              1338.2305              1344.7227
 Red. masses --     2.4260                 4.2099                 5.2466
 Frc consts  --     0.0000                 0.0000                 0.0000
 IR Inten    --     7.2728                 1.0956                 0.8097
 Raman Activ --     0.0000                 0.0000                 0.0000
 Depolar     --     0.0000                 0.0000                 0.0000
 Atom AN      X      Y      Z        X      Y      Z        X      Y      Z
   1   6     0.01   0.15   0.08    -0.22   0.17   0.23     0.39  -0.11  -0.15
   2   6    -0.04  -0.03   0.09    -0.32  -0.18  -0.08    -0.42  -0.06   0.02
   3   6    -0.04  -0.18  -0.11     0.07   0.04  -0.01     0.09   0.04  -0.04
   4  17     0.01  -0.02  -0.00    -0.00   0.01  -0.00    -0.00  -0.00  -0.00
   5   6    -0.13   0.06  -0.14     0.09  -0.03   0.00    -0.09  -0.03   0.03
   6  17    -0.01   0.00  -0.02     0.00  -0.00   0.01    -0.00  -0.00  -0.00
   7   1    -0.26   0.19   0.18     0.42  -0.15  -0.29    -0.24   0.18   0.15
   8   1     0.31  -0.12  -0.21     0.16  -0.09  -0.12    -0.33   0.12   0.21
   9   1     0.43   0.14   0.04     0.46   0.16  -0.04     0.24   0.07   0.06
  10   1    -0.24  -0.06   0.03     0.29   0.10   0.02     0.45   0.14   0.01
  11   1     0.11   0.23   0.13     0.05  -0.06   0.06     0.07   0.04   0.07
  12   1     0.05   0.18   0.11     0.01  -0.08  -0.05    -0.07  -0.04  -0.04
  13   1     0.19  -0.36   0.06    -0.03   0.10  -0.04     0.04  -0.08   0.01
  14   1     0.07  -0.08   0.08    -0.00  -0.05  -0.07    -0.04   0.13   0.05
                     25                     26                     27
                        a                      a                      a 
 Frequencies --  1417.2018              1420.8631              1451.0283
 Red. masses --     1.9920                 2.0157                 1.8508
 Frc consts  --     0.0000                 0.0000                 0.0000
 IR Inten    --     3.1958                15.7011                 8.7069
 Raman Activ --     0.0000                 0.0000                 0.0000
 Depolar     --     0.0000                 0.0000                 0.0000
 Atom AN      X      Y      Z        X      Y      Z        X      Y      Z
   1   6     0.01   0.06   0.02    -0.04   0.02  -0.00     0.06   0.15  -0.03
   2   6    -0.02  -0.03   0.01    -0.01  -0.03  -0.01     0.03  -0.02  -0.22
   3   6     0.24  -0.08   0.12     0.06  -0.02   0.03    -0.01  -0.01  -0.03
   4  17     0.00  -0.02  -0.00     0.00   0.00  -0.00    -0.00   0.00   0.00
   5   6    -0.01   0.03   0.04     0.09  -0.12  -0.24     0.01   0.01  -0.01
   6  17    -0.00  -0.00   0.00    -0.00   0.01  -0.02     0.00  -0.00   0.00
   7   1     0.03  -0.12   0.07     0.05   0.02  -0.06     0.02  -0.34   0.23
   8   1    -0.07  -0.10  -0.07     0.06   0.05   0.01    -0.24  -0.26  -0.18
   9   1     0.02   0.04  -0.07     0.03   0.00   0.00     0.07  -0.26   0.46
  10   1     0.04  -0.03  -0.04    -0.01   0.01   0.02    -0.13   0.36   0.40
  11   1    -0.23   0.34  -0.49    -0.05   0.07  -0.11     0.01  -0.02   0.02
  12   1    -0.62   0.14   0.11    -0.14   0.02   0.02     0.02   0.01  -0.00
  13   1     0.10  -0.01  -0.09    -0.46  -0.03   0.47    -0.02   0.00   0.02
  14   1    -0.04  -0.07  -0.11     0.21   0.33   0.52     0.01   0.02   0.02
                     28                     29                     30
                        a                      a                      a 
 Frequencies --  1456.6346              2981.2846              2985.4754
 Red. masses --     1.9726                 1.8288                 1.8421
 Frc consts  --     0.0000                 0.0000                 0.0000
 IR Inten    --    10.2978                12.5610                23.6648
 Raman Activ --     0.0000                 0.0000                 0.0000
 Depolar     --     0.0000                 0.0000                 0.0000
 Atom AN      X      Y      Z        X      Y      Z        X      Y      Z
   1   6     0.09   0.21  -0.03    -0.08   0.12  -0.20    -0.08   0.02  -0.11
   2   6    -0.02   0.04   0.17     0.04  -0.11   0.00    -0.07   0.21   0.06
   3   6    -0.05   0.01  -0.02    -0.02   0.00   0.00     0.06  -0.02   0.00
   4  17     0.00   0.00   0.00    -0.00   0.00   0.00     0.00  -0.00  -0.00
   5   6     0.02  -0.01  -0.03    -0.01   0.01   0.02    -0.00   0.01   0.02
   6  17    -0.00   0.00  -0.00     0.00  -0.00   0.00     0.00  -0.00   0.00
   7   1     0.00  -0.42   0.31     0.11   0.10   0.09     0.21   0.15   0.21
   8   1    -0.33  -0.34  -0.22     0.18  -0.54   0.62     0.06  -0.19   0.21
   9   1    -0.04   0.20  -0.33    -0.09   0.25   0.15     0.22  -0.64  -0.38
  10   1     0.09  -0.27  -0.30    -0.05   0.18  -0.18     0.03  -0.11   0.14
  11   1     0.05  -0.05   0.11     0.08  -0.01  -0.05    -0.22   0.02   0.13
  12   1     0.13  -0.02  -0.02     0.00  -0.03   0.05     0.01   0.08  -0.13
  13   1    -0.06  -0.01   0.07    -0.05  -0.04  -0.05    -0.05  -0.04  -0.05
  14   1     0.02   0.06   0.06     0.09   0.03  -0.05     0.05   0.02  -0.02
                     31                     32                     33
                        a                      a                      a 
 Frequencies --  2993.4476              2995.5038              2997.3891
 Red. masses --     1.6639                 1.8060                 1.6974
 Frc consts  --     0.0000                 0.0000                 0.0000
 IR Inten    --     5.0943                 3.4697                16.1782
 Raman Activ --     0.0000                 0.0000                 0.0000
 Depolar     --     0.0000                 0.0000                 0.0000
 Atom AN      X      Y      Z        X      Y      Z        X      Y      Z
   1   6    -0.07  -0.08  -0.05     0.05   0.04   0.06    -0.03  -0.04  -0.02
   2   6     0.00  -0.04   0.06    -0.00   0.01   0.07    -0.03   0.07  -0.03
   3   6    -0.04   0.07  -0.10     0.04   0.08  -0.18    -0.18   0.03   0.08
   4  17    -0.00   0.00   0.00     0.00   0.00  -0.00    -0.00   0.00   0.00
   5   6     0.14   0.05  -0.05    -0.12  -0.04   0.05    -0.08  -0.02   0.07
   6  17     0.00   0.00  -0.00    -0.00  -0.00   0.00     0.00  -0.00   0.00
   7   1     0.30   0.20   0.31    -0.21  -0.14  -0.21     0.14   0.09   0.14
   8   1    -0.04   0.09  -0.12     0.01   0.00   0.01    -0.02   0.05  -0.07
   9   1     0.03  -0.09  -0.04     0.07  -0.21  -0.11     0.03  -0.07  -0.05
  10   1    -0.06   0.21  -0.20    -0.05   0.18  -0.16     0.05  -0.18   0.18
  11   1     0.13  -0.01  -0.09    -0.16   0.03   0.07     0.67  -0.07  -0.39
  12   1     0.00  -0.27   0.46     0.01  -0.33   0.56    -0.02  -0.04   0.08
  13   1    -0.05  -0.05  -0.07     0.02   0.03   0.05    -0.08  -0.06  -0.06
  14   1    -0.43  -0.14   0.25     0.41   0.13  -0.24     0.36   0.12  -0.20
                     34                     35                     36
                        a                      a                      a 
 Frequencies --  2998.8679              3006.3479              3013.2574
 Red. masses --     1.5826                 1.7467                 1.8321
 Frc consts  --     0.0000                 0.0000                 0.0000
 IR Inten    --    15.9004                27.1908                14.0332
 Raman Activ --     0.0000                 0.0000                 0.0000
 Depolar     --     0.0000                 0.0000                 0.0000
 Atom AN      X      Y      Z        X      Y      Z        X      Y      Z
   1   6     0.07   0.11   0.03     0.01  -0.02   0.03     0.06   0.05   0.06
   2   6    -0.03   0.10   0.01     0.02  -0.09   0.17    -0.00   0.00   0.04
   3   6    -0.09   0.02   0.02    -0.05  -0.05   0.13    -0.02  -0.01   0.03
   4  17    -0.00   0.00   0.00    -0.00  -0.00   0.00     0.00   0.00  -0.00
   5   6     0.05  -0.01  -0.11    -0.05  -0.04  -0.02     0.17   0.13   0.12
   6  17    -0.00   0.00  -0.00    -0.00   0.00  -0.00     0.00  -0.00   0.00
   7   1    -0.34  -0.22  -0.34    -0.03  -0.02  -0.02    -0.23  -0.15  -0.23
   8   1     0.08  -0.19   0.24    -0.03   0.08  -0.09     0.01   0.00   0.01
   9   1     0.08  -0.22  -0.14     0.08  -0.24  -0.11     0.03  -0.09  -0.05
  10   1     0.03  -0.12   0.12    -0.15   0.55  -0.50    -0.02   0.09  -0.08
  11   1     0.32  -0.03  -0.19     0.21  -0.03  -0.11     0.07  -0.01  -0.04
  12   1    -0.01  -0.06   0.10    -0.01   0.21  -0.35    -0.00   0.04  -0.07
  13   1     0.21   0.17   0.18     0.13   0.11   0.12    -0.53  -0.45  -0.51
  14   1    -0.38  -0.13   0.21     0.06   0.02  -0.04    -0.07  -0.01   0.07
