      -----------------------------------------------------------      
     |                   =====================                   |     
     |                           x T B                           |     
     |                   =====================                   |     
     |                         S. Grimme                         |     
     |          Mulliken Center for Theoretical Chemistry        |     
     |                    University of Bonn                     |     
      -----------------------------------------------------------      

   * xtb version 6.7.1 (edcfbbe) compiled by 'albert@albert-system' on 2024-07-22

   xtb is free software: you can redistribute it and/or modify it under
   the terms of the GNU Lesser General Public License as published by
   the Free Software Foundation, either version 3 of the License, or
   (at your option) any later version.
   
   xtb is distributed in the hope that it will be useful,
   but WITHOUT ANY WARRANTY; without even the implied warranty of
   MERCHANTABILITY or FITNESS FOR A PARTICULAR PURPOSE.  See the
   GNU Lesser General Public License for more details.
   
   Cite this work as:
   * C. Bannwarth, E. Caldeweyher, S. Ehlert, A. Hansen, P. Pracht,
     J. Seibert, S. Spicher, S. Grimme, WIREs Comput. Mol. Sci., 2020, 11,
     e01493. DOI: 10.1002/wcms.1493
   
   for GFN2-xTB:
   * C. Bannwarth, S. Ehlert and S. Grimme., J. Chem. Theory Comput., 2019,
     15, 1652-1671. DOI: 10.1021/acs.jctc.8b01176
   for GFN1-xTB:
   * S. Grimme, C. Bannwarth, P. Shushkov, J. Chem. Theory Comput., 2017,
     13, 1989-2009. DOI: 10.1021/acs.jctc.7b00118
   for GFN0-xTB:
   * P. Pracht, E. Caldeweyher, S. Ehlert, S. Grimme, ChemRxiv, 2019, preprint.
     DOI: 10.26434/chemrxiv.8326202.v1
   for GFN-FF:
   * S. Spicher and S. Grimme, Angew. Chem. Int. Ed., 2020, 59, 15665-15673.
     DOI: 10.1002/anie.202004239
   
   for ALPB and GBSA implicit solvation:
   * S. Ehlert, M. Stahn, S. Spicher, S. Grimme, J. Chem. Theory Comput.,
     2021, 17, 4250-4261. DOI: 10.1021/acs.jctc.1c00471
   
   for ddCOSMO and CPCM-X implicit solvation:
   * M. Stahn, S. Ehlert, S. Grimme, J. Phys. Chem. A,
     2023, XX, XXXX-XXXX. DOI: 10.1021/acs.jpca.3c04382
   
   for DFT-D4:
   * E. Caldeweyher, C. Bannwarth and S. Grimme, J. Chem. Phys., 2017,
     147, 034112. DOI: 10.1063/1.4993215
   * E. Caldeweyher, S. Ehlert, A. Hansen, H. Neugebauer, S. Spicher,
     C. Bannwarth and S. Grimme, J. Chem. Phys., 2019, 150, 154122.
     DOI: 10.1063/1.5090222
   * E. Caldeweyher, J.-M. Mewes, S. Ehlert and S. Grimme, Phys. Chem. Chem. Phys.
     2020, 22, 8499-8512. DOI: 10.1039/D0CP00502A
   
   for sTDA-xTB:
   * S. Grimme and C. Bannwarth, J. Chem. Phys., 2016, 145, 054103.
     DOI: 10.1063/1.4959605
   
   in the mass-spec context:
   * V. Asgeirsson, C. Bauer and S. Grimme, Chem. Sci., 2017, 8, 4879.
     DOI: 10.1039/c7sc00601b
   * J. Koopman and S. Grimme, ACS Omega 2019, 4, 12, 15120-15133.
     DOI: 10.1021/acsomega.9b02011
   
   for metadynamics refer to:
   * S. Grimme, J. Chem. Theory Comput., 2019, 155, 2847-2862
     DOI: 10.1021/acs.jctc.9b00143
   
   for SPH calculations refer to:
   * S. Spicher and S. Grimme, J. Chem. Theory Comput., 2021, 17, 1701-1714
     DOI: 10.1021/acs.jctc.0c01306
   
   for ONIOM refer to:
   * C. Plett, A. Katbashev, S. Ehlert, S. Grimme, M. Bursch,
     Phys. Chem. Chem. Phys., 2023, 25, 17860-17868. DOI: 10.1039/D3CP02178E
   
   for DIPRO refer to:
   * J. Kohn, N. Gildemeister, S. Grimme, D. Fazzi, A. Hansen,
     J. Chem. Phys., 2023, just accepted.
   
   for PTB refer to:
   * S. Grimme, M. Mueller, A. Hansen, J. Chem. Phys., 2023, 158, 124111.
     DOI: 10.1063/5.0137838
   
   with help from (in alphabetical order)
   P. Atkinson, C. Bannwarth, F. Bohle, G. Brandenburg, E. Caldeweyher
   M. Checinski, S. Dohm, S. Ehlert, S. Ehrlich, I. Gerasimov, C. Hölzer
   A. Katbashev, J. Kohn, J. Koopman, C. Lavigne, S. Lehtola, F. März, M. Müller,
   F. Musil, H. Neugebauer, J. Pisarek, C. Plett, P. Pracht, F. Pultar,
   J. Seibert, P. Shushkov, S. Spicher, M. Stahn, M. Steiner, T. Strunk,
   J. Stückrath, T. Rose, and J. Unsleber
   
 * started run on 2025/04/11 at 14:13:37.558     
   ID    Z sym.   atoms
    1    6 C      1-7
    2    1 H      8-23

           -------------------------------------------------
          |                Calculation Setup                |
           -------------------------------------------------

          program call               : /software/projects/pawsey0265/mwang1/xtb/bin/xtb solv.coord --gfn2 --sp --chrg 0 --norestart --parallel 1 --alpb water reference -I xtb_sp-xcontrol-inp
          hostname                   : nid001220
          coordinate file            : solv.coord
          omp threads                :                     1


           -------------------------------------------------
          |                 G F N 2 - x T B                 |
           -------------------------------------------------

        Reference                      10.1021/acs.jctc.8b01176
      * Hamiltonian:
        H0-scaling (s, p, d)           1.850000    2.230000    2.230000
        zeta-weighting                 0.500000
      * Dispersion:
        s8                             2.700000
        a1                             0.520000
        a2                             5.000000
        s9                             5.000000
      * Repulsion:
        kExp                           1.500000    1.000000
        rExp                           1.000000
      * Coulomb:
        alpha                          2.000000
        third order                    shell-resolved
        anisotropic                    true
        a3                             3.000000
        a5                             4.000000
        cn-shift                       1.200000
        cn-exp                         4.000000
        max-rad                        5.000000

      * Solvation model:               ALPB
        Solvent                        water
        Parameter file                 internal GFN2-xTB/ALPB
        Dielectric constant                8.0200E+01
        Reference state                gsolv=reference [X=1]
        Free energy shift                  2.8945E-03 Eh       1.8164E+00 kcal/mol
        Temperature                        2.9815E+02 K
        Density                            1.0000E+00 kg/L
        Solvent mass                       1.8000E+01 g/mol
        Interaction kernel             P16
        Born radius scaling (c1)           1.4744E+00
        Born radii integrator          GBOBC
        Born offset                        0.0000E+00 a0       0.0000E+00 AA
        H-bond correction              true
        Ion screening                  false
        Surface tension                    1.0000E-05 Eh       1.5569E+01 dyn/cm
        Grid points                               974 per atom

          ...................................................
          :                      SETUP                      :
          :.................................................:
          :  # basis functions                  44          :
          :  # atomic orbitals                  44          :
          :  # shells                           30          :
          :  # electrons                        44          :
          :  max. iterations                   250          :
          :  Hamiltonian                  GFN2-xTB          :
          :  restarted?                      false          :
          :  GBSA solvation                   true          :
          :  PC potential                    false          :
          :  electronic temp.          300.0000000     K    :
          :  accuracy                    1.0000000          :
          :  -> integral cutoff          0.2500000E+02      :
          :  -> integral neglect         0.1000000E-07      :
          :  -> SCF convergence          0.1000000E-05 Eh   :
          :  -> wf. convergence          0.1000000E-03 e    :
          :  Broyden damping             0.4000000          :
          :  net charge                          0          :
          :  unpaired electrons                  0          :
          ...................................................

 iter      E             dE          RMSdq      gap      omega  full diag
   1    -23.4636289 -0.234636E+02  0.234E+00   13.22       0.0  T
   2    -23.5040997 -0.404707E-01  0.126E+00   13.05       1.0  T
   3    -23.5052659 -0.116621E-02  0.601E-01   13.02       1.0  T
   4    -23.5054092 -0.143366E-03  0.994E-02   13.04       1.0  T
   5    -23.5054464 -0.371222E-04  0.506E-02   13.04       1.0  T
   6    -23.5054467 -0.313304E-06  0.343E-03   13.04       6.1  T
   7    -23.5054468 -0.973738E-07  0.103E-03   13.04      20.2  T
   8    -23.5054468 -0.976275E-09  0.403E-04   13.04      51.7  T
   9    -23.5054468 -0.355225E-09  0.121E-04   13.04     172.8  T

   *** convergence criteria satisfied after 9 iterations ***

         #    Occupation            Energy/Eh            Energy/eV
      -------------------------------------------------------------
         1        2.0000           -0.6225577             -16.9407
       ...           ...                  ...                  ...
        16        2.0000           -0.4477698             -12.1844
        17        2.0000           -0.4430798             -12.0568
        18        2.0000           -0.4314079             -11.7392
        19        2.0000           -0.4285426             -11.6612
        20        2.0000           -0.4174758             -11.3601
        21        2.0000           -0.4122253             -11.2172
        22        2.0000           -0.4097897             -11.1509 (HOMO)
        23                          0.0693291               1.8865 (LUMO)
        24                          0.0911012               2.4790
        25                          0.0979280               2.6648
        26                          0.1121601               3.0520
        27                          0.1259842               3.4282
       ...                                ...                  ...
        44                          0.3342001               9.0940
      -------------------------------------------------------------
                  HL-Gap            0.4791188 Eh           13.0375 eV
             Fermi-level           -0.1702303 Eh           -4.6322 eV

 SCC (total)                   0 d,  0 h,  0 min,  0.051 sec
 SCC setup                      ...        0 min,  0.002 sec (  4.865%)
 Dispersion                     ...        0 min,  0.000 sec (  0.439%)
 classical contributions        ...        0 min,  0.000 sec (  0.112%)
 integral evaluation            ...        0 min,  0.003 sec (  5.170%)
 iterations                     ...        0 min,  0.041 sec ( 80.256%)
 molecular gradient             ...        0 min,  0.005 sec (  8.900%)
 printout                       ...        0 min,  0.000 sec (  0.206%)

         :::::::::::::::::::::::::::::::::::::::::::::::::::::
         ::                     SUMMARY                     ::
         :::::::::::::::::::::::::::::::::::::::::::::::::::::
         :: total energy             -23.154115245027 Eh    ::
         :: total w/o Gsasa/hb       -23.155578817322 Eh    ::
         :: gradient norm              0.000034218644 Eh/a0 ::
         :: HOMO-LUMO gap             13.037487159486 eV    ::
         ::.................................................::
         :: SCC energy               -23.505368840840 Eh    ::
         :: -> isotropic ES            0.005404954765 Eh    ::
         :: -> anisotropic ES          0.007872402828 Eh    ::
         :: -> anisotropic XC          0.014417413378 Eh    ::
         :: -> dispersion             -0.014214256617 Eh    ::
         :: -> Gsolv                   0.001311597660 Eh    ::
         ::    -> Gelec               -0.000151974635 Eh    ::
         ::    -> Gsasa               -0.000945661553 Eh    ::
         ::    -> Ghb                 -0.000485315313 Eh    ::
         ::    -> Gshift               0.002894549160 Eh    ::
         :: repulsion energy           0.351253595813 Eh    ::
         :: add. restraining           0.000000000000 Eh    ::
         :: total charge               0.000000000000 e     ::
         :::::::::::::::::::::::::::::::::::::::::::::::::::::

           -------------------------------------------------
          |                Property Printout                |
           -------------------------------------------------

    * Orbital Energies and Occupations

         #    Occupation            Energy/Eh            Energy/eV
      -------------------------------------------------------------
         1        2.0000           -0.6225577             -16.9407
       ...           ...                  ...                  ...
        10        2.0000           -0.4967614             -13.5176
        11        2.0000           -0.4895957             -13.3226
        12        2.0000           -0.4797757             -13.0554
        13        2.0000           -0.4706023             -12.8057
        14        2.0000           -0.4557607             -12.4019
        15        2.0000           -0.4552514             -12.3880
        16        2.0000           -0.4477698             -12.1844
        17        2.0000           -0.4430798             -12.0568
        18        2.0000           -0.4314079             -11.7392
        19        2.0000           -0.4285426             -11.6612
        20        2.0000           -0.4174758             -11.3601
        21        2.0000           -0.4122253             -11.2172
        22        2.0000           -0.4097897             -11.1509 (HOMO)
        23                          0.0693291               1.8865 (LUMO)
        24                          0.0911012               2.4790
        25                          0.0979280               2.6648
        26                          0.1121601               3.0520
        27                          0.1259842               3.4282
        28                          0.1342612               3.6534
        29                          0.1436508               3.9089
        30                          0.1566748               4.2633
        31                          0.1664361               4.5290
        32                          0.1834896               4.9930
        33                          0.1900908               5.1726
       ...                                ...                  ...
        44                          0.3342001               9.0940
      -------------------------------------------------------------
                  HL-Gap            0.4791188 Eh           13.0375 eV
             Fermi-level           -0.1702303 Eh           -4.6322 eV

     #   Z          covCN         q      C6AA      α(0)
     1   6 C        3.752    -0.110    22.660     6.788
     2   6 C        3.800    -0.058    21.619     6.620
     3   6 C        3.801    -0.061    21.678     6.629
     4   6 C        3.802    -0.067    21.785     6.645
     5   6 C        3.848    -0.013    20.770     6.483
     6   6 C        3.755    -0.112    22.696     6.793
     7   6 C        3.755    -0.110    22.664     6.788
     8   1 H        0.925     0.034     2.526     2.486
     9   1 H        0.925     0.034     2.533     2.489
    10   1 H        0.925     0.036     2.510     2.477
    11   1 H        0.924     0.026     2.639     2.541
    12   1 H        0.924     0.036     2.506     2.476
    13   1 H        0.924     0.028     2.622     2.532
    14   1 H        0.924     0.037     2.495     2.470
    15   1 H        0.924     0.031     2.566     2.505
    16   1 H        0.924     0.030     2.586     2.515
    17   1 H        0.924     0.024     2.668     2.554
    18   1 H        0.925     0.037     2.490     2.468
    19   1 H        0.925     0.036     2.509     2.477
    20   1 H        0.925     0.034     2.527     2.486
    21   1 H        0.925     0.041     2.438     2.442
    22   1 H        0.925     0.034     2.529     2.487
    23   1 H        0.925     0.034     2.532     2.489

 Mol. C6AA /au·bohr⁶  :       3391.225416
 Mol. C8AA /au·bohr⁸  :      70117.450240
 Mol. α(0) /au        :         86.638775


Wiberg/Mayer (AO) data.
largest (>0.10) Wiberg bond orders for each atom

 ---------------------------------------------------------------------------
     #   Z sym  total        # sym  WBO       # sym  WBO       # sym  WBO
 ---------------------------------------------------------------------------
     1   6 C    3.997 --     2 C    1.019     8 H    0.988     9 H    0.988
                            10 H    0.987
     2   6 C    3.997 --     1 C    1.019     3 C    1.009    11 H    0.979
                            12 H    0.976
     3   6 C    3.997 --     2 C    1.009     4 C    1.004    13 H    0.980
                            14 H    0.972
     4   6 C    3.997 --     3 C    1.004     5 C    0.996    16 H    0.979
                            15 H    0.977
     5   6 C    3.996 --     7 C    1.010     6 C    1.010     4 C    0.996
                            17 H    0.969
     6   6 C    3.997 --     5 C    1.010    20 H    0.987    19 H    0.987
                            18 H    0.983
     7   6 C    3.997 --     5 C    1.010    22 H    0.986    23 H    0.986
                            21 H    0.984
     8   1 H    0.999 --     1 C    0.988
     9   1 H    0.999 --     1 C    0.988
    10   1 H    0.999 --     1 C    0.987
    11   1 H    0.999 --     2 C    0.979
    12   1 H    0.999 --     2 C    0.976
    13   1 H    0.999 --     3 C    0.980
    14   1 H    0.999 --     3 C    0.972
    15   1 H    0.999 --     4 C    0.977
    16   1 H    0.999 --     4 C    0.979
    17   1 H    0.999 --     5 C    0.969
    18   1 H    0.999 --     6 C    0.983
    19   1 H    0.999 --     6 C    0.987
    20   1 H    0.999 --     6 C    0.987
    21   1 H    0.998 --     7 C    0.984
    22   1 H    0.999 --     7 C    0.986
    23   1 H    0.999 --     7 C    0.986
 ---------------------------------------------------------------------------

Topologies differ in total number of bonds
Writing topology from bond orders to xtbtopo.mol

molecular dipole:
                 x           y           z       tot (Debye)
 q only:       -0.016       0.002      -0.046
   full:       -0.013       0.003      -0.032       0.089
molecular quadrupole (traceless):
                xx          xy          yy          xz          yz          zz
 q only:       -0.087      -0.072       0.080      -0.104       0.030       0.007
  q+dip:       -0.510       0.173       0.034       0.428      -0.131       0.476
   full:       -0.223       0.055       0.007       0.179      -0.050       0.216


           -------------------------------------------------
          | TOTAL ENERGY              -23.154115245027 Eh   |
          | GRADIENT NORM               0.000034218644 Eh/α |
          | HOMO-LUMO GAP              13.037487159486 eV   |
           -------------------------------------------------

------------------------------------------------------------------------
 * finished run on 2025/04/11 at 14:13:37.653     
------------------------------------------------------------------------
 total:
 * wall-time:     0 d,  0 h,  0 min,  0.094 sec
 *  cpu-time:     0 d,  0 h,  0 min,  0.039 sec
 * ratio c/w:     0.417 speedup
 SCF:
 * wall-time:     0 d,  0 h,  0 min,  0.052 sec
 *  cpu-time:     0 d,  0 h,  0 min,  0.025 sec
 * ratio c/w:     0.477 speedup

