      -----------------------------------------------------------      
     |                   =====================                   |     
     |                           x T B                           |     
     |                   =====================                   |     
     |                         S. Grimme                         |     
     |          Mulliken Center for Theoretical Chemistry        |     
     |                    University of Bonn                     |     
      -----------------------------------------------------------      

   * xtb version 6.7.1 (edcfbbe) compiled by 'albert@albert-system' on 2024-07-22

   xtb is free software: you can redistribute it and/or modify it under
   the terms of the GNU Lesser General Public License as published by
   the Free Software Foundation, either version 3 of the License, or
   (at your option) any later version.
   
   xtb is distributed in the hope that it will be useful,
   but WITHOUT ANY WARRANTY; without even the implied warranty of
   MERCHANTABILITY or FITNESS FOR A PARTICULAR PURPOSE.  See the
   GNU Lesser General Public License for more details.
   
   Cite this work as:
   * C. Bannwarth, E. Caldeweyher, S. Ehlert, A. Hansen, P. Pracht,
     J. Seibert, S. Spicher, S. Grimme, WIREs Comput. Mol. Sci., 2020, 11,
     e01493. DOI: 10.1002/wcms.1493
   
   for GFN2-xTB:
   * C. Bannwarth, S. Ehlert and S. Grimme., J. Chem. Theory Comput., 2019,
     15, 1652-1671. DOI: 10.1021/acs.jctc.8b01176
   for GFN1-xTB:
   * S. Grimme, C. Bannwarth, P. Shushkov, J. Chem. Theory Comput., 2017,
     13, 1989-2009. DOI: 10.1021/acs.jctc.7b00118
   for GFN0-xTB:
   * P. Pracht, E. Caldeweyher, S. Ehlert, S. Grimme, ChemRxiv, 2019, preprint.
     DOI: 10.26434/chemrxiv.8326202.v1
   for GFN-FF:
   * S. Spicher and S. Grimme, Angew. Chem. Int. Ed., 2020, 59, 15665-15673.
     DOI: 10.1002/anie.202004239
   
   for ALPB and GBSA implicit solvation:
   * S. Ehlert, M. Stahn, S. Spicher, S. Grimme, J. Chem. Theory Comput.,
     2021, 17, 4250-4261. DOI: 10.1021/acs.jctc.1c00471
   
   for ddCOSMO and CPCM-X implicit solvation:
   * M. Stahn, S. Ehlert, S. Grimme, J. Phys. Chem. A,
     2023, XX, XXXX-XXXX. DOI: 10.1021/acs.jpca.3c04382
   
   for DFT-D4:
   * E. Caldeweyher, C. Bannwarth and S. Grimme, J. Chem. Phys., 2017,
     147, 034112. DOI: 10.1063/1.4993215
   * E. Caldeweyher, S. Ehlert, A. Hansen, H. Neugebauer, S. Spicher,
     C. Bannwarth and S. Grimme, J. Chem. Phys., 2019, 150, 154122.
     DOI: 10.1063/1.5090222
   * E. Caldeweyher, J.-M. Mewes, S. Ehlert and S. Grimme, Phys. Chem. Chem. Phys.
     2020, 22, 8499-8512. DOI: 10.1039/D0CP00502A
   
   for sTDA-xTB:
   * S. Grimme and C. Bannwarth, J. Chem. Phys., 2016, 145, 054103.
     DOI: 10.1063/1.4959605
   
   in the mass-spec context:
   * V. Asgeirsson, C. Bauer and S. Grimme, Chem. Sci., 2017, 8, 4879.
     DOI: 10.1039/c7sc00601b
   * J. Koopman and S. Grimme, ACS Omega 2019, 4, 12, 15120-15133.
     DOI: 10.1021/acsomega.9b02011
   
   for metadynamics refer to:
   * S. Grimme, J. Chem. Theory Comput., 2019, 155, 2847-2862
     DOI: 10.1021/acs.jctc.9b00143
   
   for SPH calculations refer to:
   * S. Spicher and S. Grimme, J. Chem. Theory Comput., 2021, 17, 1701-1714
     DOI: 10.1021/acs.jctc.0c01306
   
   for ONIOM refer to:
   * C. Plett, A. Katbashev, S. Ehlert, S. Grimme, M. Bursch,
     Phys. Chem. Chem. Phys., 2023, 25, 17860-17868. DOI: 10.1039/D3CP02178E
   
   for DIPRO refer to:
   * J. Kohn, N. Gildemeister, S. Grimme, D. Fazzi, A. Hansen,
     J. Chem. Phys., 2023, just accepted.
   
   for PTB refer to:
   * S. Grimme, M. Mueller, A. Hansen, J. Chem. Phys., 2023, 158, 124111.
     DOI: 10.1063/5.0137838
   
   with help from (in alphabetical order)
   P. Atkinson, C. Bannwarth, F. Bohle, G. Brandenburg, E. Caldeweyher
   M. Checinski, S. Dohm, S. Ehlert, S. Ehrlich, I. Gerasimov, C. Hölzer
   A. Katbashev, J. Kohn, J. Koopman, C. Lavigne, S. Lehtola, F. März, M. Müller,
   F. Musil, H. Neugebauer, J. Pisarek, C. Plett, P. Pracht, F. Pultar,
   J. Seibert, P. Shushkov, S. Spicher, M. Stahn, M. Steiner, T. Strunk,
   J. Stückrath, T. Rose, and J. Unsleber
   
 * started run on 2025/04/11 at 17:19:12.691     
   ID    Z sym.   atoms
    1    6 C      1, 3-8, 11, 13
    2    8 O      2, 9, 10, 14
    3   17 Cl     12
    4    1 H      15-23

           -------------------------------------------------
          |                Calculation Setup                |
           -------------------------------------------------

          program call               : /srv/scratch/z5358697/.xtb/bin/xtb xtb_rrho.coord --gfn2 --ohess vtight --chrg 0 --enso --norestart -I rrho-xcontrol-inp --parallel 1 --alpb water
          hostname                   : k071
          coordinate file            : xtb_rrho.coord
          omp threads                :                     1


           -------------------------------------------------
          |                 G F N 2 - x T B                 |
           -------------------------------------------------

        Reference                      10.1021/acs.jctc.8b01176
      * Hamiltonian:
        H0-scaling (s, p, d)           1.850000    2.230000    2.230000
        zeta-weighting                 0.500000
      * Dispersion:
        s8                             2.700000
        a1                             0.520000
        a2                             5.000000
        s9                             5.000000
      * Repulsion:
        kExp                           1.500000    1.000000
        rExp                           1.000000
      * Coulomb:
        alpha                          2.000000
        third order                    shell-resolved
        anisotropic                    true
        a3                             3.000000
        a5                             4.000000
        cn-shift                       1.200000
        cn-exp                         4.000000
        max-rad                        5.000000

      * Solvation model:               ALPB
        Solvent                        water
        Parameter file                 internal GFN2-xTB/ALPB
        Dielectric constant                8.0200E+01
        Reference state                gsolv [1 M gas/solution]
        Free energy shift                  1.0808E-03 Eh       6.7819E-01 kcal/mol
        Temperature                        2.9815E+02 K
        Density                            1.0000E+00 kg/L
        Solvent mass                       1.8000E+01 g/mol
        Interaction kernel             P16
        Born radius scaling (c1)           1.4744E+00
        Born radii integrator          GBOBC
        Born offset                        0.0000E+00 a0       0.0000E+00 AA
        H-bond correction              true
        Ion screening                  false
        Surface tension                    1.0000E-05 Eh       1.5569E+01 dyn/cm
        Grid points                               974 per atom

          ...................................................
          :                      SETUP                      :
          :.................................................:
          :  # basis functions                  71          :
          :  # atomic orbitals                  70          :
          :  # shells                           38          :
          :  # electrons                        76          :
          :  max. iterations                   250          :
          :  Hamiltonian                  GFN2-xTB          :
          :  restarted?                      false          :
          :  GBSA solvation                   true          :
          :  PC potential                    false          :
          :  electronic temp.          300.0000000     K    :
          :  accuracy                    1.0000000          :
          :  -> integral cutoff          0.2500000E+02      :
          :  -> integral neglect         0.1000000E-07      :
          :  -> SCF convergence          0.1000000E-05 Eh   :
          :  -> wf. convergence          0.1000000E-03 e    :
          :  Broyden damping             0.4000000          :
          :  net charge                          0          :
          :  unpaired electrons                  0          :
          ...................................................

 iter      E             dE          RMSdq      gap      omega  full diag
   1    -45.0351556 -0.450352E+02  0.549E+00    2.60       0.0  T
   2    -45.0917594 -0.566038E-01  0.280E+00    2.30       1.0  T
   3    -45.0892600  0.249937E-02  0.123E+00    2.48       1.0  T
   4    -45.0959926 -0.673255E-02  0.315E-01    2.37       1.0  T
   5    -45.0969580 -0.965398E-03  0.124E-01    2.37       1.0  T
   6    -45.0970274 -0.694007E-04  0.774E-02    2.38       1.0  T
   7    -45.0970544 -0.270320E-04  0.357E-02    2.38       1.0  T
   8    -45.0970600 -0.560416E-05  0.275E-02    2.38       1.0  T
   9    -45.0970666 -0.654959E-05  0.164E-02    2.38       1.3  T
  10    -45.0970696 -0.304007E-05  0.607E-03    2.37       3.4  T
  11    -45.0970698 -0.208463E-06  0.321E-03    2.37       6.5  T
  12    -45.0970699 -0.492018E-07  0.186E-03    2.37      11.2  T
  13    -45.0970699 -0.254431E-07  0.105E-03    2.37      19.8  T
  14    -45.0970699 -0.597023E-08  0.715E-04    2.37      29.2  T
  15    -45.0970699 -0.373159E-08  0.407E-04    2.37      51.2  T

   *** convergence criteria satisfied after 15 iterations ***

         #    Occupation            Energy/Eh            Energy/eV
      -------------------------------------------------------------
         1        2.0000           -1.0750322             -29.2531
       ...           ...                  ...                  ...
        32        2.0000           -0.4602062             -12.5228
        33        2.0000           -0.4441309             -12.0854
        34        2.0000           -0.4434965             -12.0682
        35        2.0000           -0.4312001             -11.7336
        36        2.0000           -0.4164464             -11.3321
        37        2.0000           -0.4120277             -11.2118
        38        2.0000           -0.3938972             -10.7185 (HOMO)
        39                         -0.3066630              -8.3447 (LUMO)
        40                         -0.2492424              -6.7822
        41                         -0.2129463              -5.7946
        42                         -0.1674564              -4.5567
        43                         -0.1178610              -3.2072
       ...                                ...                  ...
        70                          0.6223053              16.9338
      -------------------------------------------------------------
                  HL-Gap            0.0872342 Eh            2.3738 eV
             Fermi-level           -0.3502801 Eh           -9.5316 eV

 SCC (total)                   0 d,  0 h,  0 min,  0.028 sec
 SCC setup                      ...        0 min,  0.001 sec (  5.263%)
 Dispersion                     ...        0 min,  0.000 sec (  0.601%)
 classical contributions        ...        0 min,  0.000 sec (  0.121%)
 integral evaluation            ...        0 min,  0.004 sec ( 15.026%)
 iterations                     ...        0 min,  0.013 sec ( 46.537%)
 molecular gradient             ...        0 min,  0.009 sec ( 31.880%)
 printout                       ...        0 min,  0.000 sec (  0.522%)

         :::::::::::::::::::::::::::::::::::::::::::::::::::::
         ::                     SUMMARY                     ::
         :::::::::::::::::::::::::::::::::::::::::::::::::::::
         :: total energy             -44.658989504714 Eh    ::
         :: total w/o Gsasa/hb       -44.656907179276 Eh    ::
         :: gradient norm              0.040700834309 Eh/a0 ::
         :: HOMO-LUMO gap              2.373763724394 eV    ::
         ::.................................................::
         :: SCC energy               -45.096977618345 Eh    ::
         :: -> isotropic ES            0.090471077727 Eh    ::
         :: -> anisotropic ES          0.003191861892 Eh    ::
         :: -> anisotropic XC          0.004022731284 Eh    ::
         :: -> dispersion             -0.022352120956 Eh    ::
         :: -> Gsolv                  -0.017030054442 Eh    ::
         ::    -> Gelec               -0.014947729004 Eh    ::
         ::    -> Gsasa                0.003406099699 Eh    ::
         ::    -> Ghb                 -0.006569184835 Eh    ::
         ::    -> Gshift               0.001080759698 Eh    ::
         :: repulsion energy           0.437988113631 Eh    ::
         :: add. restraining           0.000000000000 Eh    ::
         :: total charge               0.000000000000 e     ::
         :::::::::::::::::::::::::::::::::::::::::::::::::::::

      ----------------------------------------------------------- 
     |                   =====================                   |
     |                        A N C O P T                        |
     |                   =====================                   |
     |               Approximate Normal Coordinate               |
     |                Rational Function Optimizer                |
      ----------------------------------------------------------- 
      ----------------------------------------------------------- 
     |                   =====================                   |
     |                        A N C O P T                        |
     |                   =====================                   |
     |               Approximate Normal Coordinate               |
     |                Rational Function Optimizer                |
      ----------------------------------------------------------- 

          ...................................................
          :                      SETUP                      :
          :.................................................:
          :   optimization level         verytight          :
          :   max. optcycles                   460          :
          :   ANC micro-cycles                  20          :
          :   degrees of freedom                63          :
          :.................................................:
          :   RF solver                   davidson          :
          :   write xtbopt.log                true          :
          :   linear?                        false          :
          :   energy convergence         0.1000000E-06 Eh   :
          :   grad. convergence          0.2000000E-03 Eh/α :
          :   maxmium RF displ.          1.0000000          :
          :   Hlow (freq-cutoff)         0.1000000E-01      :
          :   Hmax (freq-cutoff)         5.0000000          :
          :   S6 in model hess.         20.0000000          :
          ...................................................

generating ANC from exact Hessian ...
Using Lindh-Hessian (1995)
 Shifting diagonal of input Hessian by   8.622853960166505E-003
 Lowest  eigenvalues of input Hessian
    0.000000    0.000000    0.000000    0.000000    0.000000    0.000000
    0.010000    0.011217    0.012450    0.013038    0.013746    0.014121
    0.014968    0.018437    0.020622    0.024501    0.026773    0.032938
 Highest eigenvalues
    1.732775    1.799819    1.894731    2.051397    2.140200    2.175981
 

........................................................................
.............................. CYCLE    1 ..............................
........................................................................

 iter      E             dE          RMSdq      gap      omega  full diag
   1    -45.0970699 -0.450971E+02  0.138E-04    2.37       0.0  T
   2    -45.0970699 -0.558700E-10  0.978E-05    2.37     213.2  T
   3    -45.0970699 -0.228226E-10  0.661E-05    2.37     315.2  T
     SCC iter.                  ...        0 min,  0.003 sec
     gradient                   ...        0 min,  0.009 sec
 * total energy  :   -44.6589895 Eh     change       -0.1577710E-08 Eh
   gradient norm :     0.0407015 Eh/α   predicted     0.0000000E+00 (-100.00%)
   displ. norm   :     0.1390606 α      lambda       -0.2218766E-02
   maximum displ.:     0.0532652 α      in ANC's #5, #18, #2, ...

........................................................................
.............................. CYCLE    2 ..............................
........................................................................

 iter      E             dE          RMSdq      gap      omega  full diag
   1    -45.1095150 -0.451095E+02  0.101E-01    2.41       0.0  T
   2    -45.1095408 -0.258082E-04  0.596E-02    2.41       1.0  T
   3    -45.1095407  0.683570E-07  0.355E-02    2.40       1.0  T
   4    -45.1095489 -0.816772E-05  0.103E-02    2.40       2.0  T
   5    -45.1095494 -0.541191E-06  0.765E-03    2.40       2.7  T
   6    -45.1095497 -0.281172E-06  0.573E-03    2.40       3.6  T
   7    -45.1095500 -0.292224E-06  0.312E-03    2.40       6.7  T
   8    -45.1095501 -0.980706E-07  0.164E-03    2.40      12.7  T
   9    -45.1095501 -0.196286E-07  0.101E-03    2.40      20.7  T
  10    -45.1095501 -0.794069E-08  0.380E-04    2.40      54.9  T
  11    -45.1095501 -0.749196E-09  0.204E-04    2.40     102.1  T
     SCC iter.                  ...        0 min,  0.009 sec
     gradient                   ...        0 min,  0.009 sec
 * total energy  :   -44.6605210 Eh     change       -0.1531516E-02 Eh
   gradient norm :     0.0175881 Eh/α   predicted    -0.1130940E-02 ( -26.16%)
   displ. norm   :     0.1548727 α      lambda       -0.7732389E-03
   maximum displ.:     0.0753962 α      in ANC's #5, #2, #3, ...

........................................................................
.............................. CYCLE    3 ..............................
........................................................................

 iter      E             dE          RMSdq      gap      omega  full diag
   1    -45.1145355 -0.451145E+02  0.854E-02    2.41       0.0  T
   2    -45.1145526 -0.170185E-04  0.518E-02    2.41       1.0  T
   3    -45.1145538 -0.126638E-05  0.316E-02    2.41       1.0  T
   4    -45.1145601 -0.633060E-05  0.807E-03    2.41       2.6  T
   5    -45.1145605 -0.313397E-06  0.618E-03    2.41       3.4  T
   6    -45.1145607 -0.189940E-06  0.444E-03    2.41       4.7  T
   7    -45.1145609 -0.205250E-06  0.220E-03    2.41       9.5  T
   8    -45.1145609 -0.425490E-07  0.132E-03    2.41      15.9  T
   9    -45.1145609 -0.133378E-07  0.726E-04    2.41      28.7  T
  10    -45.1145609 -0.430258E-08  0.245E-04    2.41      85.2  T
     SCC iter.                  ...        0 min,  0.008 sec
     gradient                   ...        0 min,  0.009 sec
 * total energy  :   -44.6609723 Eh     change       -0.4512735E-03 Eh
   gradient norm :     0.0063012 Eh/α   predicted    -0.3959513E-03 ( -12.26%)
   displ. norm   :     0.1122554 α      lambda       -0.1738057E-03
   maximum displ.:     0.0634718 α      in ANC's #2, #3, #5, ...

........................................................................
.............................. CYCLE    4 ..............................
........................................................................

 iter      E             dE          RMSdq      gap      omega  full diag
   1    -45.1140895 -0.451141E+02  0.559E-02    2.40       0.0  T
   2    -45.1140914 -0.193607E-05  0.342E-02    2.41       1.0  T
   3    -45.1140892  0.229237E-05  0.164E-02    2.41       1.3  T
   4    -45.1140926 -0.345040E-05  0.287E-03    2.41       7.3  T
   5    -45.1140926 -0.277354E-07  0.203E-03    2.41      10.3  T
   6    -45.1140926 -0.204586E-07  0.143E-03    2.41      14.6  T
   7    -45.1140927 -0.163955E-07  0.892E-04    2.41      23.4  T
   8    -45.1140927 -0.779837E-08  0.490E-04    2.41      42.6  T
     SCC iter.                  ...        0 min,  0.007 sec
     gradient                   ...        0 min,  0.009 sec
 * total energy  :   -44.6610677 Eh     change       -0.9536761E-04 Eh
   gradient norm :     0.0050113 Eh/α   predicted    -0.8800442E-04 (  -7.72%)
   displ. norm   :     0.1557870 α      lambda       -0.1666862E-03
   maximum displ.:     0.0904000 α      in ANC's #3, #2, #5, ...

........................................................................
.............................. CYCLE    5 ..............................
........................................................................

 iter      E             dE          RMSdq      gap      omega  full diag
   1    -45.1124058 -0.451124E+02  0.664E-02    2.40       0.0  T
   2    -45.1124073 -0.153095E-05  0.404E-02    2.40       1.0  T
   3    -45.1124046  0.273904E-05  0.154E-02    2.40       1.4  T
   4    -45.1124082 -0.360906E-05  0.301E-03    2.40       6.9  T
   5    -45.1124082 -0.267193E-07  0.172E-03    2.40      12.2  T
   6    -45.1124082 -0.139862E-07  0.130E-03    2.40      16.0  T
   7    -45.1124082 -0.131830E-07  0.758E-04    2.40      27.5  T
   8    -45.1124083 -0.475116E-08  0.428E-04    2.40      48.8  T
     SCC iter.                  ...        0 min,  0.007 sec
     gradient                   ...        0 min,  0.009 sec
 * total energy  :   -44.6611571 Eh     change       -0.8944437E-04 Eh
   gradient norm :     0.0050570 Eh/α   predicted    -0.8536992E-04 (  -4.56%)
   displ. norm   :     0.0786785 α      lambda       -0.6387899E-04
   maximum displ.:     0.0496178 α      in ANC's #3, #2, #5, ...

........................................................................
.............................. CYCLE    6 ..............................
........................................................................

 iter      E             dE          RMSdq      gap      omega  full diag
   1    -45.1119235 -0.451119E+02  0.330E-02    2.40       0.0  T
   2    -45.1119240 -0.471913E-06  0.199E-02    2.40       1.0  T
   3    -45.1119236  0.447602E-06  0.658E-03    2.40       3.2  T
   4    -45.1119242 -0.646136E-06  0.168E-03    2.40      12.4  T
   5    -45.1119242 -0.111983E-07  0.118E-03    2.40      17.7  T
   6    -45.1119242 -0.629675E-08  0.789E-04    2.40      26.4  T
   7    -45.1119242 -0.431164E-08  0.483E-04    2.40      43.2  T
     SCC iter.                  ...        0 min,  0.006 sec
     gradient                   ...        0 min,  0.009 sec
 * total energy  :   -44.6612090 Eh     change       -0.5192896E-04 Eh
   gradient norm :     0.0040584 Eh/α   predicted    -0.3213756E-04 ( -38.11%)
   displ. norm   :     0.1418477 α      lambda       -0.9549128E-04
   maximum displ.:     0.0871974 α      in ANC's #3, #2, #1, ...

........................................................................
.............................. CYCLE    7 ..............................
........................................................................

 iter      E             dE          RMSdq      gap      omega  full diag
   1    -45.1120281 -0.451120E+02  0.594E-02    2.40       0.0  T
   2    -45.1120295 -0.145677E-05  0.360E-02    2.40       1.0  T
   3    -45.1120276  0.190563E-05  0.137E-02    2.40       1.5  T
   4    -45.1120303 -0.272104E-05  0.339E-03    2.40       6.1  T
   5    -45.1120304 -0.399214E-07  0.253E-03    2.40       8.2  T
   6    -45.1120304 -0.353399E-07  0.161E-03    2.40      12.9  T
   7    -45.1120304 -0.215431E-07  0.847E-04    2.40      24.6  T
   8    -45.1120304 -0.544429E-08  0.439E-04    2.40      47.5  T
     SCC iter.                  ...        0 min,  0.006 sec
     gradient                   ...        0 min,  0.009 sec
 * total energy  :   -44.6612758 Eh     change       -0.6681214E-04 Eh
   gradient norm :     0.0035358 Eh/α   predicted    -0.4870689E-04 ( -27.10%)
   displ. norm   :     0.1351696 α      lambda       -0.5220856E-04
   maximum displ.:     0.0817389 α      in ANC's #3, #2, #1, ...

........................................................................
.............................. CYCLE    8 ..............................
........................................................................

 iter      E             dE          RMSdq      gap      omega  full diag
   1    -45.1122528 -0.451123E+02  0.560E-02    2.40       0.0  T
   2    -45.1122535 -0.686237E-06  0.339E-02    2.40       1.0  T
   3    -45.1122526  0.853812E-06  0.945E-03    2.40       2.2  T
   4    -45.1122539 -0.130448E-05  0.309E-03    2.40       6.8  T
   5    -45.1122540 -0.323026E-07  0.219E-03    2.40       9.5  T
   6    -45.1122540 -0.308467E-07  0.135E-03    2.40      15.4  T
   7    -45.1122540 -0.164303E-07  0.635E-04    2.40      32.8  T
   8    -45.1122540 -0.268578E-08  0.261E-04    2.40      79.8  T
     SCC iter.                  ...        0 min,  0.006 sec
     gradient                   ...        0 min,  0.009 sec
 * total energy  :   -44.6613143 Eh     change       -0.3840612E-04 Eh
   gradient norm :     0.0036038 Eh/α   predicted    -0.2658135E-04 ( -30.79%)
   displ. norm   :     0.1362216 α      lambda       -0.4854622E-04
   maximum displ.:     0.0787619 α      in ANC's #2, #3, #1, ...

........................................................................
.............................. CYCLE    9 ..............................
........................................................................

 iter      E             dE          RMSdq      gap      omega  full diag
   1    -45.1127885 -0.451128E+02  0.581E-02    2.40       0.0  T
   2    -45.1127894 -0.872767E-06  0.351E-02    2.40       1.0  T
   3    -45.1127883  0.111435E-05  0.106E-02    2.40       2.0  T
   4    -45.1127899 -0.163209E-05  0.321E-03    2.40       6.5  T
   5    -45.1127899 -0.358528E-07  0.231E-03    2.40       9.0  T
   6    -45.1127899 -0.306100E-07  0.145E-03    2.40      14.4  T
   7    -45.1127900 -0.185663E-07  0.741E-04    2.40      28.1  T
   8    -45.1127900 -0.425061E-08  0.324E-04    2.40      64.3  T
     SCC iter.                  ...        0 min,  0.006 sec
     gradient                   ...        0 min,  0.009 sec
 * total energy  :   -44.6613486 Eh     change       -0.3429658E-04 Eh
   gradient norm :     0.0025564 Eh/α   predicted    -0.2474657E-04 ( -27.85%)
   displ. norm   :     0.1018701 α      lambda       -0.3092235E-04
   maximum displ.:     0.0601014 α      in ANC's #1, #2, #3, ...

........................................................................
.............................. CYCLE   10 ..............................
........................................................................

 iter      E             dE          RMSdq      gap      omega  full diag
   1    -45.1130617 -0.451131E+02  0.443E-02    2.40       0.0  T
   2    -45.1130623 -0.577042E-06  0.267E-02    2.40       1.0  T
   3    -45.1130615  0.734661E-06  0.813E-03    2.40       2.6  T
   4    -45.1130625 -0.102423E-05  0.221E-03    2.40       9.4  T
   5    -45.1130626 -0.173054E-07  0.158E-03    2.40      13.2  T
   6    -45.1130626 -0.122863E-07  0.103E-03    2.40      20.3  T
   7    -45.1130626 -0.856198E-08  0.575E-04    2.40      36.2  T
   8    -45.1130626 -0.288864E-08  0.261E-04    2.40      79.9  T
     SCC iter.                  ...        0 min,  0.006 sec
     gradient                   ...        0 min,  0.009 sec
 * total energy  :   -44.6613708 Eh     change       -0.2227880E-04 Eh
   gradient norm :     0.0015783 Eh/α   predicted    -0.1562223E-04 ( -29.88%)
   displ. norm   :     0.1156990 α      lambda       -0.1966390E-04
   maximum displ.:     0.0813890 α      in ANC's #1, #2, #3, ...

........................................................................
.............................. CYCLE   11 ..............................
........................................................................

 iter      E             dE          RMSdq      gap      omega  full diag
   1    -45.1131622 -0.451132E+02  0.463E-02    2.40       0.0  T
   2    -45.1131628 -0.526561E-06  0.278E-02    2.40       1.0  T
   3    -45.1131621  0.699503E-06  0.762E-03    2.40       2.7  T
   4    -45.1131630 -0.944907E-06  0.188E-03    2.40      11.1  T
   5    -45.1131630 -0.121314E-07  0.125E-03    2.40      16.7  T
   6    -45.1131630 -0.650893E-08  0.836E-04    2.40      25.0  T
   7    -45.1131630 -0.510099E-08  0.485E-04    2.40      43.0  T
     SCC iter.                  ...        0 min,  0.006 sec
     gradient                   ...        0 min,  0.009 sec
 * total energy  :   -44.6613884 Eh     change       -0.1756252E-04 Eh
   gradient norm :     0.0019693 Eh/α   predicted    -0.9891295E-05 ( -43.68%)
   displ. norm   :     0.0642355 α      lambda       -0.8437469E-05
   maximum displ.:     0.0498851 α      in ANC's #1, #6, #2, ...

........................................................................
.............................. CYCLE   12 ..............................
........................................................................

 iter      E             dE          RMSdq      gap      omega  full diag
   1    -45.1127048 -0.451127E+02  0.225E-02    2.40       0.0  T
   2    -45.1127049 -0.579653E-07  0.136E-02    2.40       1.5  T
   3    -45.1127048  0.186105E-07  0.173E-03    2.40      12.0  T
   4    -45.1127049 -0.462227E-07  0.759E-04    2.40      27.5  T
   5    -45.1127049 -0.219951E-08  0.437E-04    2.40      47.8  T
     SCC iter.                  ...        0 min,  0.004 sec
     gradient                   ...        0 min,  0.009 sec
 * total energy  :   -44.6613977 Eh     change       -0.9263393E-05 Eh
   gradient norm :     0.0015711 Eh/α   predicted    -0.4227762E-05 ( -54.36%)
   displ. norm   :     0.0901899 α      lambda       -0.1583677E-04
   maximum displ.:     0.0632470 α      in ANC's #1, #6, #3, ...

........................................................................
.............................. CYCLE   13 ..............................
........................................................................

 iter      E             dE          RMSdq      gap      omega  full diag
   1    -45.1130469 -0.451130E+02  0.300E-02    2.40       0.0  T
   2    -45.1130473 -0.431026E-06  0.179E-02    2.40       1.2  T
   3    -45.1130468  0.490808E-06  0.625E-03    2.40       3.3  T
   4    -45.1130475 -0.677703E-06  0.117E-03    2.40      17.8  T
   5    -45.1130475 -0.504770E-08  0.756E-04    2.40      27.6  T
   6    -45.1130475 -0.234130E-08  0.430E-04    2.40      48.5  T
     SCC iter.                  ...        0 min,  0.005 sec
     gradient                   ...        0 min,  0.009 sec
 * total energy  :   -44.6614045 Eh     change       -0.6805097E-05 Eh
   gradient norm :     0.0019719 Eh/α   predicted    -0.7953371E-05 (  16.87%)
   displ. norm   :     0.0565416 α      lambda       -0.9853440E-05
   maximum displ.:     0.0399053 α      in ANC's #1, #2, #3, ...

........................................................................
.............................. CYCLE   14 ..............................
........................................................................

 iter      E             dE          RMSdq      gap      omega  full diag
   1    -45.1127143 -0.451127E+02  0.205E-02    2.39       0.0  T
   2    -45.1127143 -0.538033E-07  0.125E-02    2.39       1.7  T
   3    -45.1127143  0.853706E-08  0.191E-03    2.39      10.9  T
   4    -45.1127144 -0.457027E-07  0.106E-03    2.39      19.7  T
   5    -45.1127144 -0.514076E-08  0.725E-04    2.39      28.7  T
   6    -45.1127144 -0.400463E-08  0.432E-04    2.39      48.2  T
     SCC iter.                  ...        0 min,  0.005 sec
     gradient                   ...        0 min,  0.009 sec
 * total energy  :   -44.6614146 Eh     change       -0.1015601E-04 Eh
   gradient norm :     0.0012111 Eh/α   predicted    -0.4939313E-05 ( -51.37%)
   displ. norm   :     0.0596256 α      lambda       -0.5692788E-05
   maximum displ.:     0.0459866 α      in ANC's #1, #6, #2, ...

........................................................................
.............................. CYCLE   15 ..............................
........................................................................

 iter      E             dE          RMSdq      gap      omega  full diag
   1    -45.1126918 -0.451127E+02  0.211E-02    2.39       0.0  T
   2    -45.1126919 -0.709853E-07  0.128E-02    2.39       1.6  T
   3    -45.1126919  0.258244E-07  0.219E-03    2.39       9.5  T
   4    -45.1126919 -0.706424E-07  0.117E-03    2.39      17.8  T
   5    -45.1126919 -0.617990E-08  0.886E-04    2.39      23.5  T
   6    -45.1126919 -0.729367E-08  0.409E-04    2.39      51.0  T
     SCC iter.                  ...        0 min,  0.005 sec
     gradient                   ...        0 min,  0.009 sec
 * total energy  :   -44.6614206 Eh     change       -0.6013357E-05 Eh
   gradient norm :     0.0010399 Eh/α   predicted    -0.2851985E-05 ( -52.57%)
   displ. norm   :     0.0777250 α      lambda       -0.4875465E-05
   maximum displ.:     0.0635213 α      in ANC's #1, #6, #7, ...

........................................................................
.............................. CYCLE   16 ..............................
........................................................................

 iter      E             dE          RMSdq      gap      omega  full diag
   1    -45.1126713 -0.451127E+02  0.264E-02    2.39       0.0  T
   2    -45.1126713 -0.582955E-07  0.159E-02    2.39       1.3  T
   3    -45.1126713 -0.328124E-08  0.177E-03    2.39      11.8  T
   4    -45.1126714 -0.361922E-07  0.106E-03    2.39      19.6  T
   5    -45.1126714 -0.512887E-08  0.721E-04    2.39      28.9  T
   6    -45.1126714 -0.408991E-08  0.394E-04    2.39      53.0  T
     SCC iter.                  ...        0 min,  0.005 sec
     gradient                   ...        0 min,  0.009 sec
 * total energy  :   -44.6614254 Eh     change       -0.4733182E-05 Eh
   gradient norm :     0.0011077 Eh/α   predicted    -0.2445154E-05 ( -48.34%)
   displ. norm   :     0.0449272 α      lambda       -0.2843506E-05
   maximum displ.:     0.0375644 α      in ANC's #1, #6, #4, ...

........................................................................
.............................. CYCLE   17 ..............................
........................................................................

 iter      E             dE          RMSdq      gap      omega  full diag
   1    -45.1129365 -0.451129E+02  0.166E-02    2.39       0.0  T
   2    -45.1129366 -0.285951E-07  0.993E-03    2.39       2.1  T
   3    -45.1129366  0.185230E-07  0.146E-03    2.39      14.3  T
   4    -45.1129366 -0.325298E-07  0.530E-04    2.39      39.3  T
   5    -45.1129366 -0.909210E-09  0.361E-04    2.39      57.7  T
     SCC iter.                  ...        0 min,  0.004 sec
     gradient                   ...        0 min,  0.009 sec
 * total energy  :   -44.6614279 Eh     change       -0.2538358E-05 Eh
   gradient norm :     0.0006137 Eh/α   predicted    -0.1424601E-05 ( -43.88%)
   displ. norm   :     0.0360102 α      lambda       -0.1013521E-05
   maximum displ.:     0.0277929 α      in ANC's #1, #6, #7, ...

........................................................................
.............................. CYCLE   18 ..............................
........................................................................

 iter      E             dE          RMSdq      gap      omega  full diag
   1    -45.1128787 -0.451129E+02  0.115E-02    2.39       0.0  T
   2    -45.1128788 -0.303975E-07  0.696E-03    2.39       3.0  T
   3    -45.1128787  0.373067E-07  0.187E-03    2.39      11.2  T
   4    -45.1128788 -0.524819E-07  0.518E-04    2.39      40.2  T
   5    -45.1128788 -0.935593E-09  0.354E-04    2.39      58.9  T
     SCC iter.                  ...        0 min,  0.004 sec
     gradient                   ...        0 min,  0.009 sec
 * total energy  :   -44.6614288 Eh     change       -0.9333562E-06 Eh
   gradient norm :     0.0002786 Eh/α   predicted    -0.5101966E-06 ( -45.34%)
   displ. norm   :     0.0376859 α      lambda        0.5821648E-06
   maximum displ.:     0.0290577 α      in ANC's #1, #6, #7, ...

........................................................................
.............................. CYCLE   19 ..............................
........................................................................

 iter      E             dE          RMSdq      gap      omega  full diag
   1    -45.1127960 -0.451128E+02  0.121E-02    2.39       0.0  T
   2    -45.1127960 -0.342789E-07  0.730E-03    2.39       2.9  T
   3    -45.1127960  0.415022E-07  0.199E-03    2.39      10.5  T
   4    -45.1127960 -0.589738E-07  0.572E-04    2.39      36.5  T
   5    -45.1127960 -0.117041E-08  0.394E-04    2.39      52.9  T
     SCC iter.                  ...        0 min,  0.004 sec
     gradient                   ...        0 min,  0.009 sec
 * total energy  :   -44.6614286 Eh     change        0.2831541E-06 Eh
   gradient norm :     0.0006138 Eh/α   predicted     0.2901201E-06 (   2.46%)
   displ. norm   :     0.0205073 α      lambda       -0.8448359E-06
   maximum displ.:     0.0163801 α      in ANC's #1, #6, #7, ...

........................................................................
.............................. CYCLE   20 ..............................
........................................................................

 iter      E             dE          RMSdq      gap      omega  full diag
   1    -45.1129204 -0.451129E+02  0.700E-03    2.39       0.0  T
   2    -45.1129204 -0.937216E-08  0.420E-03    2.39       5.0  T
   3    -45.1129204  0.801500E-08  0.810E-04    2.39      25.8  T
   4    -45.1129204 -0.105739E-07  0.178E-04    2.39     117.3  T
     SCC iter.                  ...        0 min,  0.003 sec
     gradient                   ...        0 min,  0.009 sec
 * total energy  :   -44.6614293 Eh     change       -0.7169912E-06 Eh
   gradient norm :     0.0001905 Eh/α   predicted    -0.4273855E-06 ( -40.39%)
   displ. norm   :     0.0088044 α      lambda       -0.1948433E-06
   maximum displ.:     0.0061275 α      in ANC's #3, #2, #9, ...
 * RMSD in coord.:     0.2788821 α      energy gain  -0.2439764E-02 Eh

generating ANC from exact Hessian ...
Using Lindh-Hessian (1995)
 Shifting diagonal of input Hessian by   8.664251814741297E-003
 Lowest  eigenvalues of input Hessian
    0.000000    0.000000    0.000000    0.000000    0.000000    0.000000
    0.010000    0.011133    0.012307    0.013301    0.013814    0.014417
    0.015155    0.018772    0.021350    0.025349    0.026271    0.034352
 Highest eigenvalues
    1.781614    1.835805    1.910260    2.079147    2.177965    2.234896
 

........................................................................
.............................. CYCLE   21 ..............................
........................................................................

 iter      E             dE          RMSdq      gap      omega  full diag
   1    -45.1129256 -0.451129E+02  0.377E-03    2.39       0.0  T
   2    -45.1129256 -0.356167E-08  0.228E-03    2.39       9.1  T
   3    -45.1129256  0.111079E-08  0.458E-04    2.39      45.6  T
   4    -45.1129256 -0.295309E-08  0.213E-04    2.39      97.8  T
     SCC iter.                  ...        0 min,  0.003 sec
     gradient                   ...        0 min,  0.009 sec
 * total energy  :   -44.6614295 Eh     change       -0.1938624E-06 Eh
   gradient norm :     0.0001080 Eh/α   predicted     0.0000000E+00 (-100.00%)
   displ. norm   :     0.0028096 α      lambda       -0.1338922E-07
   maximum displ.:     0.0018758 α      in ANC's #6, #1, #2, ...

........................................................................
.............................. CYCLE   22 ..............................
........................................................................

 iter      E             dE          RMSdq      gap      omega  full diag
   1    -45.1129490 -0.451129E+02  0.114E-03    2.39       0.0  T
   2    -45.1129490 -0.307075E-09  0.696E-04    2.39      29.9  T
   3    -45.1129490  0.601617E-10  0.177E-04    2.39     117.5  T
     SCC iter.                  ...        0 min,  0.003 sec
     gradient                   ...        0 min,  0.009 sec
 * total energy  :   -44.6614295 Eh     change       -0.8137005E-07 Eh
   gradient norm :     0.0000540 Eh/α   predicted    -0.3798550E-07 ( -53.32%)
   displ. norm   :     0.0087664 α      lambda       -0.1468632E-06
   maximum displ.:     0.0058898 α      in ANC's #6, #2, #1, ...

   *** GEOMETRY OPTIMIZATION CONVERGED AFTER 22 ITERATIONS ***

------------------------------------------------------------------------
 total energy gain   :        -0.0024400 Eh       -1.5311 kcal/mol
 total RMSD          :         0.2789887 a0        0.1476 Å
 total power (kW/mol):        -0.2911965 (step)  -14.9123 (real)
------------------------------------------------------------------------

 ANCopt (total)                0 d,  0 h,  0 min,  0.430 sec
 optimizer setup                ...        0 min,  0.000 sec (  0.074%)
 model hessian                  ...        0 min,  0.006 sec (  1.350%)
 ANC generation                 ...        0 min,  0.001 sec (  0.183%)
 coordinate transformation      ...        0 min,  0.000 sec (  0.032%)
 single point calculation       ...        0 min,  0.412 sec ( 95.989%)
 optimization log               ...        0 min,  0.008 sec (  1.884%)
 hessian update                 ...        0 min,  0.000 sec (  0.033%)
 rational function              ...        0 min,  0.001 sec (  0.256%)

================
 final structure:
================
$coord
       -7.50305109284971       -1.39674804837283       -0.22168277281450      C
       -5.80923845813984        0.66817537449175        0.00916188441359      O
       -3.30441866970574        0.18311031615541        0.03997537846021      C
       -2.20082096990186       -2.17161179249642       -0.13887787583525      C
        0.42922961200663       -2.48687226794539       -0.05600268311249      C
        1.98010967505756       -0.36080951190415        0.17751470064926      C
        0.91592243609221        2.03916729896537        0.29278734212029      C
       -1.71980172065574        2.32107565968720        0.26837728990268      C
       -2.76324848820838        4.61256360575385        0.47228657133196      O
        2.28754461003357        4.23891797316824        0.54543188674723      O
        3.74739657099913        4.97394279235346       -1.60433565535625      C
        5.22535452501362       -0.67954149951102        0.42293051099207      Cl
        1.43961258688264       -5.03744902000100       -0.21109136055750      C
        0.16932921422663       -6.94413866189562       -0.38842778123937      O
       -9.37626698787398       -0.55398072325295       -0.19998965697696      H
       -7.30133764292775       -2.70083839074714        1.36499125978111      H
       -7.20616460067512       -2.40326002014823       -1.99865874916849      H
       -3.30916855412812       -3.87118552281307       -0.32251771574476      H
       -1.43426998941427        5.86811959238534        0.73613494320751      H
        4.60798505851599        6.76317357192566       -1.08005221453045      H
        2.53200224217902        5.22030822593595       -3.25465777452500      H
        5.21629591947634        3.59565631831179       -2.03389767890687      H
        3.51688055599919       -5.17586848680398       -0.16378614352905      H
$end
 
 Bond Distances (Angstroems)
 ---------------------------
C1-O2=1.4186         C1-H15=1.0870        C1-H16=1.0921        C1-H17=1.0921        O2-C1=1.4186         O2-C3=1.3502         
C3-O2=1.3502         C3-C4=1.3794         C3-C8=1.4134         C4-C3=1.3794         C4-C5=1.4024         C4-H18=1.0781        
C5-C4=1.4024         C5-C6=1.3981         C5-C13=1.4541        C6-C5=1.3981         C6-C7=1.3906         C6-Cl12=1.7305       
C7-C6=1.3906         C7-C8=1.4028         C7-O10=1.3783        C8-C3=1.4134         C8-C7=1.4028         C8-O9=1.3368         
O9-C8=1.3368         O9-H19=0.9775        O10-C7=1.3783        O10-C11=1.4291       C11-O10=1.4291       C11-H20=1.0867       
C11-H21=1.0924       C11-H22=1.0899       Cl12-C6=1.7305       C13-C5=1.4541        C13-O14=1.2160       C13-H23=1.1020       
O14-C13=1.2160       H15-C1=1.0870        H16-C1=1.0921        H17-C1=1.0921        H18-C4=1.0781        H19-O9=0.9775        
H20-C11=1.0867       H21-C11=1.0924       H22-C11=1.0899       H23-C13=1.1020       
 C  H  Rav=1.0900 sigma=0.0063  Rmin=1.0781  Rmax=1.1020     8
 C  C  Rav=1.4058 sigma=0.0220  Rmin=1.3794  Rmax=1.4541     7
 O  H  Rav=0.9775 sigma=0.0000  Rmin=0.9775  Rmax=0.9775     1
 O  C  Rav=1.3548 sigma=0.0704  Rmin=1.2160  Rmax=1.4291     6
 Cl C  Rav=1.7305 sigma=0.0000  Rmin=1.7305  Rmax=1.7305     1
 
 selected bond angles (degree)
 --------------------
H15-C1-O2=105.03               H16-C1-O2=111.03               H16-C1-H15=109.89              H17-C1-O2=111.03               
H17-C1-H15=109.90              H17-C1-H16=109.86              C3-O2-C1=118.35                C4-C3-O2=125.91                
C8-C3-O2=115.55                C8-C3-C4=118.54                C5-C4-C3=121.70                H18-C4-C3=121.97               
H18-C4-C5=116.33               C6-C5-C4=119.31                C13-C5-C4=118.27               C13-C5-C6=122.42               
C7-C6-C5=120.07                Cl12-C6-C5=120.71              Cl12-C6-C7=119.18              C8-C7-C6=119.96                
O10-C7-C6=124.22               O10-C7-C8=115.76               C7-C8-C3=120.37                O9-C8-C3=119.21                
O9-C8-C7=120.43                H19-O9-C8=109.32               C11-O10-C7=115.93              
 
 selected dihedral angles (degree)
 ---------------------------------
C3-O2-C1-H15=179.92           C3-O2-C1-H16= 61.20           C3-O2-C1-H17=298.66           C4-C3-O2-C1=  0.12            
C8-C3-O2-C1=179.87            C5-C4-C3-O2=180.84            C5-C4-C3-C8=  1.10            H18-C4-C3-O2=359.93           
H18-C4-C3-C8=180.20           C6-C5-C4-C3=359.07            C6-C5-C4-H18=179.93           C13-C5-C4-C3=178.90           
C13-C5-C4-H18=359.76          C7-C6-C5-C4=359.18            C7-C6-C5-C13=179.35           Cl12-C6-C5-C4=177.21          
Cl12-C6-C5-C13=357.38         C8-C7-C6-C5=  2.35            C8-C7-C6-Cl12=184.29          O10-C7-C6-C5=179.38           
O10-C7-C6-Cl12=  1.32         C7-C8-C3-O2=180.69            C7-C8-C3-C4=  0.45            O9-C8-C3-O2=  0.99            
O9-C8-C3-C4=180.75            C3-C8-C7-C6=357.83            C3-C8-C7-O10=180.55           O9-C8-C7-C6=177.52            
O9-C8-C7-O10=  0.24           H19-O9-C8-C3=175.95           H19-O9-C8-C7=356.25           C11-O10-C7-C6= 70.26          
C11-O10-C7-C8=247.41          
           -------------------------------------------------
          |                Final Singlepoint                |
           -------------------------------------------------

          ...................................................
          :                      SETUP                      :
          :.................................................:
          :  # basis functions                  71          :
          :  # atomic orbitals                  70          :
          :  # shells                           38          :
          :  # electrons                        76          :
          :  max. iterations                   250          :
          :  Hamiltonian                  GFN2-xTB          :
          :  restarted?                      false          :
          :  GBSA solvation                   true          :
          :  PC potential                    false          :
          :  electronic temp.          300.0000000     K    :
          :  accuracy                    1.0000000          :
          :  -> integral cutoff          0.2500000E+02      :
          :  -> integral neglect         0.1000000E-07      :
          :  -> SCF convergence          0.1000000E-05 Eh   :
          :  -> wf. convergence          0.1000000E-03 e    :
          :  Broyden damping             0.4000000          :
          :  net charge                          0          :
          :  unpaired electrons                  0          :
          ...................................................

 iter      E             dE          RMSdq      gap      omega  full diag
   1    -45.1129490 -0.451129E+02  0.106E-04    2.39       0.0  T
   2    -45.1129490 -0.323794E-10  0.881E-05    2.39     236.8  T
   3    -45.1129490 -0.345892E-10  0.596E-05    2.39     349.7  T

   *** convergence criteria satisfied after 3 iterations ***

         #    Occupation            Energy/Eh            Energy/eV
      -------------------------------------------------------------
         1        2.0000           -1.0773350             -29.3158
       ...           ...                  ...                  ...
        32        2.0000           -0.4592036             -12.4956
        33        2.0000           -0.4477566             -12.1841
        34        2.0000           -0.4439267             -12.0799
        35        2.0000           -0.4326437             -11.7728
        36        2.0000           -0.4128762             -11.2349
        37        2.0000           -0.4077367             -11.0951
        38        2.0000           -0.3914793             -10.6527 (HOMO)
        39                         -0.3035286              -8.2594 (LUMO)
        40                         -0.2466979              -6.7130
        41                         -0.2092248              -5.6933
        42                         -0.1621868              -4.4133
        43                         -0.1142851              -3.1099
       ...                                ...                  ...
        70                          0.6363945              17.3172
      -------------------------------------------------------------
                  HL-Gap            0.0879507 Eh            2.3933 eV
             Fermi-level           -0.3475040 Eh           -9.4561 eV

 SCC (total)                   0 d,  0 h,  0 min,  0.016 sec
 SCC setup                      ...        0 min,  0.001 sec (  8.130%)
 Dispersion                     ...        0 min,  0.000 sec (  0.482%)
 classical contributions        ...        0 min,  0.000 sec (  0.139%)
 integral evaluation            ...        0 min,  0.003 sec ( 19.042%)
 iterations                     ...        0 min,  0.003 sec ( 17.130%)
 molecular gradient             ...        0 min,  0.009 sec ( 54.208%)
 printout                       ...        0 min,  0.000 sec (  0.805%)

         :::::::::::::::::::::::::::::::::::::::::::::::::::::
         ::                     SUMMARY                     ::
         :::::::::::::::::::::::::::::::::::::::::::::::::::::
         :: total energy             -44.661429544695 Eh    ::
         :: total w/o Gsasa/hb       -44.658834396233 Eh    ::
         :: gradient norm              0.000053878802 Eh/a0 ::
         :: HOMO-LUMO gap              2.393260609318 eV    ::
         ::.................................................::
         :: SCC energy               -45.112861836723 Eh    ::
         :: -> isotropic ES            0.087099120947 Eh    ::
         :: -> anisotropic ES          0.002538791766 Eh    ::
         :: -> anisotropic XC          0.002767730567 Eh    ::
         :: -> dispersion             -0.022417568683 Eh    ::
         :: -> Gsolv                  -0.016603111817 Eh    ::
         ::    -> Gelec               -0.014007963356 Eh    ::
         ::    -> Gsasa                0.003314437718 Eh    ::
         ::    -> Ghb                 -0.006990345877 Eh    ::
         ::    -> Gshift               0.001080759698 Eh    ::
         :: repulsion energy           0.451432292028 Eh    ::
         :: add. restraining           0.000000000000 Eh    ::
         :: total charge              -0.000000000000 e     ::
         :::::::::::::::::::::::::::::::::::::::::::::::::::::

           ------------------------------------------------- 
          |                Numerical Hessian                |
           ------------------------------------------------- 
step length          :   0.00500
SCC accuracy         :   0.30000
Hessian scale factor :   1.00000
frozen atoms in %    :   0.00000    0
RMS gradient         :   0.00005
estimated CPU  time      0.04 min
estimated wall time      0.04 min

writing file <hessian>.

 projected vibrational frequencies (cm⁻¹)
eigval :       -0.00    -0.00    -0.00    -0.00     0.00     0.00
eigval :       53.30    64.55    87.43   113.83   133.61   145.58
eigval :      152.53   173.20   200.51   202.99   224.09   247.21
eigval :      274.23   326.62   354.00   376.74   400.76   411.06
eigval :      480.62   527.32   562.62   590.31   607.54   643.84
eigval :      675.21   713.58   845.52   864.50   915.05   920.99
eigval :     1002.23  1038.87  1067.92  1109.90  1118.08  1136.80
eigval :     1143.93  1147.72  1158.21  1215.47  1320.98  1344.69
eigval :     1377.74  1385.56  1388.65  1416.69  1442.60  1448.57
eigval :     1449.97  1461.66  1466.51  1535.27  1545.80  1666.32
eigval :     2823.29  2960.46  2960.95  2970.34  2998.38  3044.51
eigval :     3045.30  3117.29  3309.47
           -------------------------------------------------
          |                Property Printout                |
           -------------------------------------------------

    * Orbital Energies and Occupations

         #    Occupation            Energy/Eh            Energy/eV
      -------------------------------------------------------------
         1        2.0000           -1.0773349             -29.3158
       ...           ...                  ...                  ...
        26        2.0000           -0.5019036             -13.6575
        27        2.0000           -0.4980542             -13.5527
        28        2.0000           -0.4971985             -13.5295
        29        2.0000           -0.4799722             -13.0607
        30        2.0000           -0.4751227             -12.9287
        31        2.0000           -0.4676185             -12.7245
        32        2.0000           -0.4592039             -12.4956
        33        2.0000           -0.4477566             -12.1841
        34        2.0000           -0.4439271             -12.0799
        35        2.0000           -0.4326437             -11.7728
        36        2.0000           -0.4128767             -11.2349
        37        2.0000           -0.4077369             -11.0951
        38        2.0000           -0.3914797             -10.6527 (HOMO)
        39                         -0.3035292              -8.2594 (LUMO)
        40                         -0.2466982              -6.7130
        41                         -0.2092252              -5.6933
        42                         -0.1621876              -4.4133
        43                         -0.1142855              -3.1099
        44                         -0.0121444              -0.3305
        45                         -0.0087386              -0.2378
        46                         -0.0035808              -0.0974
        47                         -0.0034021              -0.0926
        48                          0.0105697               0.2876
        49                          0.0306434               0.8339
       ...                                ...                  ...
        70                          0.6363940              17.3172
      -------------------------------------------------------------
                  HL-Gap            0.0879505 Eh            2.3933 eV
             Fermi-level           -0.3475044 Eh           -9.4561 eV

     #   Z          covCN         q      C6AA      α(0)
     1   6 C        3.645     0.004    20.847     6.562
     2   8 O        1.705    -0.257    18.251     5.768
     3   6 C        2.857     0.129    25.170     8.223
     4   6 C        2.924    -0.066    29.652     8.930
     5   6 C        2.994    -0.034    28.829     8.808
     6   6 C        2.881     0.066    26.528     8.444
     7   6 C        2.895     0.097    25.837     8.334
     8   6 C        2.847     0.127    25.202     8.228
     9   8 O        1.659    -0.382    20.511     6.114
    10   8 O        1.702    -0.309    19.154     5.909
    11   6 C        3.643     0.014    20.685     6.538
    12  17 Cl       0.958    -0.162   104.224    15.619
    13   6 C        2.770     0.216    23.442     7.929
    14   8 O        0.856    -0.409    21.860     6.269
    15   1 H        0.925     0.098     1.799     2.098
    16   1 H        0.924     0.066     2.127     2.281
    17   1 H        0.924     0.067     2.118     2.276
    18   1 H        0.926     0.098     1.802     2.099
    19   1 H        0.803     0.397     0.490     1.099
    20   1 H        0.925     0.092     1.864     2.135
    21   1 H        0.924     0.057     2.234     2.337
    22   1 H        0.925     0.057     2.234     2.337
    23   1 H        0.923     0.032     2.554     2.499

 Mol. C6AA /au·bohr⁶  :       7246.015738
 Mol. C8AA /au·bohr⁸  :     184816.392339
 Mol. α(0) /au        :        130.835105


Wiberg/Mayer (AO) data.
largest (>0.10) Wiberg bond orders for each atom

 ---------------------------------------------------------------------------
     #   Z sym  total        # sym  WBO       # sym  WBO       # sym  WBO
 ---------------------------------------------------------------------------
     1   6 C    3.916 --    16 H    0.975    17 H    0.975    15 H    0.975
                             2 O    0.960
     2   8 O    2.254 --     3 C    1.098     1 C    0.960
     3   6 C    3.950 --     4 C    1.419     8 C    1.243     2 O    1.098
     4   6 C    3.982 --     3 C    1.419     5 C    1.320    18 H    0.954
     5   6 C    3.984 --     6 C    1.325     4 C    1.320    13 C    1.106
     6   6 C    3.914 --     7 C    1.373     5 C    1.325    12 Cl   0.976
     7   6 C    3.947 --     6 C    1.373     8 C    1.313    10 O    1.026
     8   6 C    3.957 --     7 C    1.313     3 C    1.243     9 O    1.150
     9   8 O    2.149 --     8 C    1.150    19 H    0.813
    10   8 O    2.122 --     7 C    1.026    11 C    0.945
    11   6 C    3.919 --    21 H    0.981    22 H    0.978    20 H    0.976
                            10 O    0.945
    12  17 Cl   1.133 --     6 C    0.976
    13   6 C    3.914 --    14 O    1.794     5 C    1.106    23 H    0.933
    14   8 O    2.014 --    13 C    1.794
    15   1 H    0.990 --     1 C    0.975
    16   1 H    0.995 --     1 C    0.975
    17   1 H    0.995 --     1 C    0.975
    18   1 H    0.990 --     4 C    0.954
    19   1 H    0.842 --     9 O    0.813
    20   1 H    0.991 --    11 C    0.976
    21   1 H    0.997 --    11 C    0.981
    22   1 H    0.997 --    11 C    0.978
    23   1 H    0.998 --    13 C    0.933
 ---------------------------------------------------------------------------

Topologies differ in total number of bonds
Writing topology from bond orders to xtbtopo.mol

molecular dipole:
                 x           y           z       tot (Debye)
 q only:       -0.847       1.914      -0.448
   full:       -0.307       1.761      -0.416       4.665
molecular quadrupole (traceless):
                xx          xy          yy          xz          yz          zz
 q only:        8.104      10.390      -7.918      -2.650      -3.719      -0.186
  q+dip:        8.560       9.011      -9.391      -1.454      -4.079       0.831
   full:        8.069       9.772     -10.964      -1.865      -4.543       2.896

           -------------------------------------------------
          |                Geometry Summary                 |
           -------------------------------------------------

      molecular mass/u    :      216.6186471
   center of mass at/Å    :       -0.0002538       0.0016015       0.0018217
  moments of inertia/u·Å² :        0.7089449E+03   0.9054129E+03   0.1572832E+04
rotational constants/cm⁻¹ :        0.2377848E-01   0.1861872E-01   0.1071801E-01

 * 22 selected distances

     #   Z          #   Z                                           value/Å
     1   6 C        2   8 O                                       1.4185701
     2   8 O        3   6 C                                       1.3502173
     3   6 C        4   6 C                                       1.3793808
     4   6 C        5   6 C                                       1.4024119
     5   6 C        6   6 C                                       1.3980601
     6   6 C        7   6 C                                       1.3906060
     3   6 C        8   6 C                                       1.4134159
     7   6 C        8   6 C                                       1.4027799
     8   6 C        9   8 O                                       1.3367647
     7   6 C       10   8 O                                       1.3783092
    10   8 O       11   6 C                                       1.4290657
     6   6 C       12  17 Cl                                      1.7304528 (max)
    13   6 C       14   8 O                                       1.2160182
     1   6 C       15   1 H                                       1.0870266
     1   6 C       16   1 H                                       1.0920653
     1   6 C       17   1 H                                       1.0920623
     4   6 C       18   1 H                                       1.0781081
     9   8 O       19   1 H                                       0.9775067 (min)
    11   6 C       20   1 H                                       1.0866617
    11   6 C       21   1 H                                       1.0923944
    11   6 C       22   1 H                                       1.0898820
    13   6 C       23   1 H                                       1.1019651

 * 5 distinct bonds (by element types)

   Z      Z             #   av. dist./Å        max./Å        min./Å
   1 H    6 C           8     1.0900207     1.1019651     1.0781081
   6 C    6 C           6     1.3977758     1.4134159     1.3793808
   1 H    8 O           1     0.9775067     0.9775067     0.9775067
   6 C    8 O           6     1.3548242     1.4290657     1.2160182
   6 C   17 Cl          1     1.7304528     1.7304528     1.7304528

           -------------------------------------------------
          |               Frequency Printout                |
           -------------------------------------------------
 projected vibrational frequencies (cm⁻¹)
eigval :       -0.00    -0.00    -0.00    -0.00     0.00     0.00
eigval :       53.30    64.55    87.43   113.83   133.61   145.58
eigval :      152.53   173.20   200.51   202.99   224.09   247.21
eigval :      274.23   326.62   354.00   376.74   400.76   411.06
eigval :      480.62   527.32   562.62   590.31   607.54   643.84
eigval :      675.21   713.58   845.52   864.50   915.05   920.99
eigval :     1002.23  1038.87  1067.92  1109.90  1118.08  1136.80
eigval :     1143.93  1147.72  1158.21  1215.47  1320.98  1344.69
eigval :     1377.74  1385.56  1388.65  1416.69  1442.60  1448.57
eigval :     1449.97  1461.66  1466.51  1535.27  1545.80  1666.32
eigval :     2823.29  2960.46  2960.95  2970.34  2998.38  3044.51
eigval :     3045.30  3117.29  3309.47
 reduced masses (amu)
   1: 19.36   2: 16.42   3: 14.55   4: 15.22   5: 16.34   6: 17.30   7: 14.48   8: 14.77
   9:  9.54  10: 15.00  11:  8.21  12:  7.91  13: 13.04  14:  8.77  15: 13.65  16: 23.56
  17: 12.89  18:  7.95  19: 15.64  20: 14.34  21: 11.20  22: 20.52  23: 11.71  24: 12.59
  25: 13.06  26:  3.23  27: 11.00  28: 14.18  29: 11.99  30: 12.57  31: 12.00  32: 11.77
  33:  3.55  34: 12.17  35:  6.40  36: 11.27  37: 12.01  38: 12.34  39: 10.55  40:  3.69
  41:  3.52  42:  7.48  43:  5.91  44:  6.10  45:  9.89  46:  6.95  47: 11.28  48:  8.41
  49:  6.86  50:  3.08  51:  3.07  52: 10.16  53: 10.44  54:  2.76  55:  1.54  56:  1.71
  57:  1.60  58: 11.62  59: 11.72  60: 13.42  61:  1.69  62:  1.77  63:  1.96  64:  1.43
  65:  1.62  66:  1.73  67:  1.74  68:  1.83  69:  1.86
 IR intensities (km·mol⁻¹)
   1:  0.85   2:  0.01   3:  0.32   4:  0.08   5:  0.28   6:  0.24   7:  2.84   8:  3.39
   9:  2.74  10:  4.88  11:  7.22  12: 11.70  13: 11.52  14:  1.20  15:  1.87  16:  1.68
  17:  0.19  18:  1.06  19: 15.27  20:  6.18  21:  5.55  22:  5.60  23:  1.50  24:  4.64
  25:  7.42  26:214.10  27: 12.25  28: 36.40  29:  1.88  30: 75.63  31:  1.19  32: 33.16
  33: 22.32  34: 58.42  35:  1.25  36: 31.35  37: 23.04  38:119.35  39:343.95  40:  1.91
  41: 10.45  42:506.71  43: 74.62  44: 96.41  45:308.15  46: 41.83  47:738.63  48:195.81
  49:337.43  50: 65.80  51: 64.64  52:222.90  53:618.14  54:117.33  55: 12.16  56: 16.29
  57: 10.69  58: 43.13  59:290.12  60:800.56  61:163.23  62: 38.37  63: 30.08  64: 34.18
  65: 32.00  66:  4.73  67:  7.77  68:  2.44  69:330.75
 Raman intensities (Ä⁴*amu⁻¹)
   1:  0.00   2:  0.00   3:  0.00   4:  0.00   5:  0.00   6:  0.00   7:  0.00   8:  0.00
   9:  0.00  10:  0.00  11:  0.00  12:  0.00  13:  0.00  14:  0.00  15:  0.00  16:  0.00
  17:  0.00  18:  0.00  19:  0.00  20:  0.00  21:  0.00  22:  0.00  23:  0.00  24:  0.00
  25:  0.00  26:  0.00  27:  0.00  28:  0.00  29:  0.00  30:  0.00  31:  0.00  32:  0.00
  33:  0.00  34:  0.00  35:  0.00  36:  0.00  37:  0.00  38:  0.00  39:  0.00  40:  0.00
  41:  0.00  42:  0.00  43:  0.00  44:  0.00  45:  0.00  46:  0.00  47:  0.00  48:  0.00
  49:  0.00  50:  0.00  51:  0.00  52:  0.00  53:  0.00  54:  0.00  55:  0.00  56:  0.00
  57:  0.00  58:  0.00  59:  0.00  60:  0.00  61:  0.00  62:  0.00  63:  0.00  64:  0.00
  65:  0.00  66:  0.00  67:  0.00  68:  0.00  69:  0.00
 output can be read by thermo (or use thermo option).
 writing <g98.out> molden fake output.
 recommended (thermochemical) frequency scaling factor: 1.0
           -------------------------------------------------
          |             Thermodynamic Functions             |
           -------------------------------------------------

Molecule has no symmetry elements
It seems to be the C1 point group
c1  symmetry found (for desy threshold:  0.10E+00) used in thermo

          ...................................................
          :                      SETUP                      :
          :.................................................:
          :  # frequencies                          63      :
          :  # imaginary freq.                       0      :
          :  linear?                             false      :
          :  only rotor calc.                    false      :
          :  symmetry                               c1      :
          :  rotational number                       1      :
          :  scaling factor                  1.0000000      :
          :  rotor cutoff                    0.0000000 cm⁻¹ :
          :  imag. cutoff                 -100.0000000 cm⁻¹ :
          :.................................................:

    mode    ω/cm⁻¹     T·S(HO)/kcal·mol⁻¹    T·S(FR)/kcal·mol⁻¹   T·S(vib)
   ------------------------------------------------------------------------
       1     53.30    -1.39861 (100.00%)    -1.03752 (  0.00%)    -1.39861
       2     64.55    -1.28595 (100.00%)    -0.98083 (  0.00%)    -1.28595
       3     87.43    -1.10818 (100.00%)    -0.89097 (  0.00%)    -1.10818
       4    113.83    -0.95481 (100.00%)    -0.81278 (  0.00%)    -0.95481
       5    133.61    -0.86266 (100.00%)    -0.76533 (  0.00%)    -0.86266
       6    145.58    -0.81373 (100.00%)    -0.73993 (  0.00%)    -0.81373
       7    152.53    -0.78725 (100.00%)    -0.72611 (  0.00%)    -0.78725
       8    173.20    -0.71568 (100.00%)    -0.68846 (  0.00%)    -0.71568
       9    200.51    -0.63457 (100.00%)    -0.64509 (  0.00%)    -0.63457
      10    202.99    -0.62785 (100.00%)    -0.64145 (  0.00%)    -0.62785
      11    224.09    -0.57417 (100.00%)    -0.61216 (  0.00%)    -0.57417
      12    247.21    -0.52187 (100.00%)    -0.58307 (  0.00%)    -0.52187
      13    274.23    -0.46791 (100.00%)    -0.55234 (  0.00%)    -0.46791
   ------------------------------------------------------------------------

   temp. (K)  partition function   enthalpy   heat capacity  entropy
                                   cal/mol     cal/K/mol   cal/K/mol   J/K/mol
 298.15  VIB  0.558E+05             7411.902     46.439     46.579
         ROT  0.243E+07              888.752      2.981     32.198
         INT  0.135E+12             8300.654     49.420     78.777
         TR   0.308E+28             1481.254      4.968     42.003
         TOT                        9781.9078    54.3878   120.7799   505.3430

       T/K    H(0)-H(T)+PV         H(T)/Eh          T*S/Eh         G(T)/Eh
   ------------------------------------------------------------------------
    298.15    0.155885E-01    0.177132E+00    0.573864E-01    0.119746E+00
   ------------------------------------------------------------------------

         :::::::::::::::::::::::::::::::::::::::::::::::::::::
         ::                  THERMODYNAMIC                  ::
         :::::::::::::::::::::::::::::::::::::::::::::::::::::
         :: total free energy         -44.541683829541 Eh   ::
         ::.................................................::
         :: total energy              -44.661429544697 Eh   ::
         :: zero point energy           0.161543671866 Eh   ::
         :: G(RRHO) w/o ZPVE           -0.041797956710 Eh   ::
         :: G(RRHO) contrib.            0.119745715156 Eh   ::
         :::::::::::::::::::::::::::::::::::::::::::::::::::::

optimized geometry written to: xtbopt.coord


           -------------------------------------------------
          | TOTAL ENERGY              -44.661429544697 Eh   |
          | TOTAL ENTHALPY            -44.484297410471 Eh   |
          | TOTAL FREE ENERGY         -44.541683829541 Eh   |
          | GRADIENT NORM               0.000054300000 Eh/α |
          | HOMO-LUMO GAP               2.393254782631 eV   |
           -------------------------------------------------

------------------------------------------------------------------------
 * finished run on 2025/04/11 at 17:19:16.296     
------------------------------------------------------------------------
 total:
 * wall-time:     0 d,  0 h,  0 min,  3.605 sec
 *  cpu-time:     0 d,  0 h,  0 min,  3.044 sec
 * ratio c/w:     0.844 speedup
 SCF:
 * wall-time:     0 d,  0 h,  0 min,  0.028 sec
 *  cpu-time:     0 d,  0 h,  0 min,  0.028 sec
 * ratio c/w:     0.994 speedup
 ANC optimizer:
 * wall-time:     0 d,  0 h,  0 min,  0.463 sec
 *  cpu-time:     0 d,  0 h,  0 min,  0.440 sec
 * ratio c/w:     0.950 speedup
 analytical hessian:
 * wall-time:     0 d,  0 h,  0 min,  2.609 sec
 *  cpu-time:     0 d,  0 h,  0 min,  2.554 sec
 * ratio c/w:     0.979 speedup

