      -----------------------------------------------------------      
     |                   =====================                   |     
     |                           x T B                           |     
     |                   =====================                   |     
     |                         S. Grimme                         |     
     |          Mulliken Center for Theoretical Chemistry        |     
     |                    University of Bonn                     |     
      -----------------------------------------------------------      

   * xtb version 6.7.1 (edcfbbe) compiled by 'albert@albert-system' on 2024-07-22

   xtb is free software: you can redistribute it and/or modify it under
   the terms of the GNU Lesser General Public License as published by
   the Free Software Foundation, either version 3 of the License, or
   (at your option) any later version.
   
   xtb is distributed in the hope that it will be useful,
   but WITHOUT ANY WARRANTY; without even the implied warranty of
   MERCHANTABILITY or FITNESS FOR A PARTICULAR PURPOSE.  See the
   GNU Lesser General Public License for more details.
   
   Cite this work as:
   * C. Bannwarth, E. Caldeweyher, S. Ehlert, A. Hansen, P. Pracht,
     J. Seibert, S. Spicher, S. Grimme, WIREs Comput. Mol. Sci., 2020, 11,
     e01493. DOI: 10.1002/wcms.1493
   
   for GFN2-xTB:
   * C. Bannwarth, S. Ehlert and S. Grimme., J. Chem. Theory Comput., 2019,
     15, 1652-1671. DOI: 10.1021/acs.jctc.8b01176
   for GFN1-xTB:
   * S. Grimme, C. Bannwarth, P. Shushkov, J. Chem. Theory Comput., 2017,
     13, 1989-2009. DOI: 10.1021/acs.jctc.7b00118
   for GFN0-xTB:
   * P. Pracht, E. Caldeweyher, S. Ehlert, S. Grimme, ChemRxiv, 2019, preprint.
     DOI: 10.26434/chemrxiv.8326202.v1
   for GFN-FF:
   * S. Spicher and S. Grimme, Angew. Chem. Int. Ed., 2020, 59, 15665-15673.
     DOI: 10.1002/anie.202004239
   
   for ALPB and GBSA implicit solvation:
   * S. Ehlert, M. Stahn, S. Spicher, S. Grimme, J. Chem. Theory Comput.,
     2021, 17, 4250-4261. DOI: 10.1021/acs.jctc.1c00471
   
   for ddCOSMO and CPCM-X implicit solvation:
   * M. Stahn, S. Ehlert, S. Grimme, J. Phys. Chem. A,
     2023, XX, XXXX-XXXX. DOI: 10.1021/acs.jpca.3c04382
   
   for DFT-D4:
   * E. Caldeweyher, C. Bannwarth and S. Grimme, J. Chem. Phys., 2017,
     147, 034112. DOI: 10.1063/1.4993215
   * E. Caldeweyher, S. Ehlert, A. Hansen, H. Neugebauer, S. Spicher,
     C. Bannwarth and S. Grimme, J. Chem. Phys., 2019, 150, 154122.
     DOI: 10.1063/1.5090222
   * E. Caldeweyher, J.-M. Mewes, S. Ehlert and S. Grimme, Phys. Chem. Chem. Phys.
     2020, 22, 8499-8512. DOI: 10.1039/D0CP00502A
   
   for sTDA-xTB:
   * S. Grimme and C. Bannwarth, J. Chem. Phys., 2016, 145, 054103.
     DOI: 10.1063/1.4959605
   
   in the mass-spec context:
   * V. Asgeirsson, C. Bauer and S. Grimme, Chem. Sci., 2017, 8, 4879.
     DOI: 10.1039/c7sc00601b
   * J. Koopman and S. Grimme, ACS Omega 2019, 4, 12, 15120-15133.
     DOI: 10.1021/acsomega.9b02011
   
   for metadynamics refer to:
   * S. Grimme, J. Chem. Theory Comput., 2019, 155, 2847-2862
     DOI: 10.1021/acs.jctc.9b00143
   
   for SPH calculations refer to:
   * S. Spicher and S. Grimme, J. Chem. Theory Comput., 2021, 17, 1701-1714
     DOI: 10.1021/acs.jctc.0c01306
   
   for ONIOM refer to:
   * C. Plett, A. Katbashev, S. Ehlert, S. Grimme, M. Bursch,
     Phys. Chem. Chem. Phys., 2023, 25, 17860-17868. DOI: 10.1039/D3CP02178E
   
   for DIPRO refer to:
   * J. Kohn, N. Gildemeister, S. Grimme, D. Fazzi, A. Hansen,
     J. Chem. Phys., 2023, just accepted.
   
   for PTB refer to:
   * S. Grimme, M. Mueller, A. Hansen, J. Chem. Phys., 2023, 158, 124111.
     DOI: 10.1063/5.0137838
   
   with help from (in alphabetical order)
   P. Atkinson, C. Bannwarth, F. Bohle, G. Brandenburg, E. Caldeweyher
   M. Checinski, S. Dohm, S. Ehlert, S. Ehrlich, I. Gerasimov, C. Hölzer
   A. Katbashev, J. Kohn, J. Koopman, C. Lavigne, S. Lehtola, F. März, M. Müller,
   F. Musil, H. Neugebauer, J. Pisarek, C. Plett, P. Pracht, F. Pultar,
   J. Seibert, P. Shushkov, S. Spicher, M. Stahn, M. Steiner, T. Strunk,
   J. Stückrath, T. Rose, and J. Unsleber
   
 * started run on 2025/04/11 at 16:15:25.543     
   ID    Z sym.   atoms
    1    6 C      1-4, 7, 10, 12
    2    7 N      5, 9
    3    8 O      6, 8
    4   16 S      11
    5    1 H      13-26

           -------------------------------------------------
          |                Calculation Setup                |
           -------------------------------------------------

          program call               : /srv/scratch/z5358697/.xtb/bin/xtb solv.coord --gfn2 --sp --chrg 0 --norestart --parallel 1 --alpb water reference -I xtb_sp-xcontrol-inp
          hostname                   : k073
          coordinate file            : solv.coord
          omp threads                :                     1


           -------------------------------------------------
          |                 G F N 2 - x T B                 |
           -------------------------------------------------

        Reference                      10.1021/acs.jctc.8b01176
      * Hamiltonian:
        H0-scaling (s, p, d)           1.850000    2.230000    2.230000
        zeta-weighting                 0.500000
      * Dispersion:
        s8                             2.700000
        a1                             0.520000
        a2                             5.000000
        s9                             5.000000
      * Repulsion:
        kExp                           1.500000    1.000000
        rExp                           1.000000
      * Coulomb:
        alpha                          2.000000
        third order                    shell-resolved
        anisotropic                    true
        a3                             3.000000
        a5                             4.000000
        cn-shift                       1.200000
        cn-exp                         4.000000
        max-rad                        5.000000

      * Solvation model:               ALPB
        Solvent                        water
        Parameter file                 internal GFN2-xTB/ALPB
        Dielectric constant                8.0200E+01
        Reference state                gsolv=reference [X=1]
        Free energy shift                  2.8945E-03 Eh       1.8164E+00 kcal/mol
        Temperature                        2.9815E+02 K
        Density                            1.0000E+00 kg/L
        Solvent mass                       1.8000E+01 g/mol
        Interaction kernel             P16
        Born radius scaling (c1)           1.4744E+00
        Born radii integrator          GBOBC
        Born offset                        0.0000E+00 a0       0.0000E+00 AA
        H-bond correction              true
        Ion screening                  false
        Surface tension                    1.0000E-05 Eh       1.5569E+01 dyn/cm
        Grid points                               974 per atom

          ...................................................
          :                      SETUP                      :
          :.................................................:
          :  # basis functions                  68          :
          :  # atomic orbitals                  67          :
          :  # shells                           39          :
          :  # electrons                        70          :
          :  max. iterations                   250          :
          :  Hamiltonian                  GFN2-xTB          :
          :  restarted?                      false          :
          :  GBSA solvation                   true          :
          :  PC potential                    false          :
          :  electronic temp.          300.0000000     K    :
          :  accuracy                    1.0000000          :
          :  -> integral cutoff          0.2500000E+02      :
          :  -> integral neglect         0.1000000E-07      :
          :  -> SCF convergence          0.1000000E-05 Eh   :
          :  -> wf. convergence          0.1000000E-03 e    :
          :  Broyden damping             0.4000000          :
          :  net charge                          0          :
          :  unpaired electrons                  0          :
          ...................................................

 iter      E             dE          RMSdq      gap      omega  full diag
   1    -39.6899539 -0.396900E+02  0.458E+00    3.74       0.0  T
   2    -39.7583672 -0.684133E-01  0.251E+00    3.12       1.0  T
   3    -39.7609504 -0.258315E-02  0.829E-01    2.66       1.0  T
   4    -39.7616185 -0.668143E-03  0.329E-01    2.72       1.0  T
   5    -39.7620761 -0.457561E-03  0.142E-01    2.70       1.0  T
   6    -39.7621402 -0.641154E-04  0.494E-02    2.74       1.0  T
   7    -39.7621470 -0.681989E-05  0.267E-02    2.73       1.0  T
   8    -39.7621504 -0.342478E-05  0.125E-02    2.73       1.6  T
   9    -39.7621508 -0.382946E-06  0.445E-03    2.73       4.4  T
  10    -39.7621509 -0.576223E-07  0.233E-03    2.73       8.4  T
  11    -39.7621509 -0.114675E-07  0.811E-04    2.73      24.2  T
  12    -39.7621509 -0.255956E-08  0.305E-04    2.73      64.3  T

   *** convergence criteria satisfied after 12 iterations ***

         #    Occupation            Energy/Eh            Energy/eV
      -------------------------------------------------------------
         1        2.0000           -0.7576382             -20.6164
       ...           ...                  ...                  ...
        29        2.0000           -0.4590204             -12.4906
        30        2.0000           -0.4513396             -12.2816
        31        2.0000           -0.4381290             -11.9221
        32        2.0000           -0.4290634             -11.6754
        33        2.0000           -0.4126018             -11.2275
        34        2.0000           -0.4035005             -10.9798
        35        2.0000           -0.3662213              -9.9654 (HOMO)
        36                         -0.2657719              -7.2320 (LUMO)
        37                         -0.2044558              -5.5635
        38                         -0.1938173              -5.2740
        39                         -0.1551762              -4.2226
        40                         -0.0987227              -2.6864
       ...                                ...                  ...
        67                          0.6540957              17.7988
      -------------------------------------------------------------
                  HL-Gap            0.1004493 Eh            2.7334 eV
             Fermi-level           -0.3159966 Eh           -8.5987 eV

 SCC (total)                   0 d,  0 h,  0 min,  0.032 sec
 SCC setup                      ...        0 min,  0.002 sec (  5.586%)
 Dispersion                     ...        0 min,  0.000 sec (  0.600%)
 classical contributions        ...        0 min,  0.000 sec (  0.115%)
 integral evaluation            ...        0 min,  0.006 sec ( 18.607%)
 iterations                     ...        0 min,  0.014 sec ( 43.586%)
 molecular gradient             ...        0 min,  0.010 sec ( 30.754%)
 printout                       ...        0 min,  0.000 sec (  0.689%)

         :::::::::::::::::::::::::::::::::::::::::::::::::::::
         ::                     SUMMARY                     ::
         :::::::::::::::::::::::::::::::::::::::::::::::::::::
         :: total energy             -39.328804988853 Eh    ::
         :: total w/o Gsasa/hb       -39.327450714076 Eh    ::
         :: gradient norm              0.000098858526 Eh/a0 ::
         :: HOMO-LUMO gap              2.733365700489 eV    ::
         ::.................................................::
         :: SCC energy               -39.762014123817 Eh    ::
         :: -> isotropic ES            0.082742072959 Eh    ::
         :: -> anisotropic ES         -0.001604207820 Eh    ::
         :: -> anisotropic XC          0.024009069254 Eh    ::
         :: -> dispersion             -0.021330655368 Eh    ::
         :: -> Gsolv                  -0.019365049115 Eh    ::
         ::    -> Gelec               -0.018010774338 Eh    ::
         ::    -> Gsasa                0.000383782869 Eh    ::
         ::    -> Ghb                 -0.004632606805 Eh    ::
         ::    -> Gshift               0.002894549160 Eh    ::
         :: repulsion energy           0.433209134964 Eh    ::
         :: add. restraining           0.000000000000 Eh    ::
         :: total charge               0.000000000000 e     ::
         :::::::::::::::::::::::::::::::::::::::::::::::::::::

           -------------------------------------------------
          |                Property Printout                |
           -------------------------------------------------

    * Orbital Energies and Occupations

         #    Occupation            Energy/Eh            Energy/eV
      -------------------------------------------------------------
         1        2.0000           -0.7576382             -20.6164
       ...           ...                  ...                  ...
        23        2.0000           -0.4914500             -13.3730
        24        2.0000           -0.4871598             -13.2563
        25        2.0000           -0.4751460             -12.9294
        26        2.0000           -0.4729744             -12.8703
        27        2.0000           -0.4707918             -12.8109
        28        2.0000           -0.4640567             -12.6276
        29        2.0000           -0.4590204             -12.4906
        30        2.0000           -0.4513396             -12.2816
        31        2.0000           -0.4381290             -11.9221
        32        2.0000           -0.4290634             -11.6754
        33        2.0000           -0.4126018             -11.2275
        34        2.0000           -0.4035005             -10.9798
        35        2.0000           -0.3662213              -9.9654 (HOMO)
        36                         -0.2657719              -7.2320 (LUMO)
        37                         -0.2044558              -5.5635
        38                         -0.1938173              -5.2740
        39                         -0.1551762              -4.2226
        40                         -0.0987227              -2.6864
        41                         -0.0134835              -0.3669
        42                         -0.0039152              -0.1065
        43                          0.0128489               0.3496
        44                          0.0177138               0.4820
        45                          0.0647560               1.7621
        46                          0.0949036               2.5825
       ...                                ...                  ...
        67                          0.6540957              17.7988
      -------------------------------------------------------------
                  HL-Gap            0.1004493 Eh            2.7334 eV
             Fermi-level           -0.3159966 Eh           -8.5987 eV

     #   Z          covCN         q      C6AA      α(0)
     1   6 C        3.779    -0.110    22.627     6.777
     2   6 C        3.891     0.070    19.354     6.254
     3   6 C        3.816    -0.123    22.848     6.803
     4   6 C        2.940     0.061    26.635     8.464
     5   7 N        1.838    -0.134    24.679     7.362
     6   8 O        1.773    -0.259    18.275     5.773
     7   6 C        2.644     0.405    20.170     7.347
     8   8 O        0.857    -0.517    24.175     6.592
     9   7 N        2.686    -0.185    25.010     7.428
    10   6 C        3.691    -0.068    21.998     6.712
    11  16 S        2.129    -0.219   150.390    20.640
    12   6 C        3.745    -0.056    21.654     6.638
    13   1 H        0.925     0.062     2.181     2.310
    14   1 H        0.925     0.055     2.262     2.352
    15   1 H        0.925     0.051     2.307     2.375
    16   1 H        0.925     0.059     2.205     2.322
    17   1 H        0.925     0.070     2.086     2.259
    18   1 H        0.925     0.062     2.180     2.309
    19   1 H        0.925     0.090     1.878     2.143
    20   1 H        0.860     0.238     0.932     1.513
    21   1 H        0.925     0.089     1.890     2.150
    22   1 H        0.925     0.084     1.937     2.177
    23   1 H        0.925     0.088     1.898     2.154
    24   1 H        0.925     0.066     2.131     2.283
    25   1 H        0.925     0.075     2.029     2.228
    26   1 H        0.925     0.046     2.365     2.405

 Mol. C6AA /au·bohr⁶  :       7042.014879
 Mol. C8AA /au·bohr⁸  :     175257.011250
 Mol. α(0) /au        :        127.766646


Wiberg/Mayer (AO) data.
largest (>0.10) Wiberg bond orders for each atom

 ---------------------------------------------------------------------------
     #   Z sym  total        # sym  WBO       # sym  WBO       # sym  WBO
 ---------------------------------------------------------------------------
     1   6 C    3.992 --     2 C    1.009    13 H    0.982    15 H    0.980
                            14 H    0.976
     2   6 C    3.969 --     4 C    1.012     1 C    1.009     3 C    0.988
                            11 S    0.893
     3   6 C    3.988 --     2 C    0.988    16 H    0.982    17 H    0.980
                            18 H    0.978
     4   6 C    3.957 --     5 N    1.837     2 C    1.012    19 H    0.939
     5   7 N    2.982 --     4 C    1.837     6 O    0.971
     6   8 O    2.249 --     7 C    1.000     5 N    0.971     8 O    0.112
     7   6 C    3.936 --     8 O    1.606     9 N    1.281     6 O    1.000
     8   8 O    1.939 --     7 C    1.606     9 N    0.184     6 O    0.112
     9   7 N    3.445 --     7 C    1.281    10 C    0.992    20 H    0.916
                             8 O    0.184
    10   6 C    3.940 --     9 N    0.992    22 H    0.978    21 H    0.973
                            23 H    0.972
    11  16 S    2.121 --    12 C    1.012     2 C    0.893
    12   6 C    3.975 --    11 S    1.012    26 H    0.982    24 H    0.982
                            25 H    0.975
    13   1 H    0.996 --     1 C    0.982
    14   1 H    0.997 --     1 C    0.976
    15   1 H    0.997 --     1 C    0.980
    16   1 H    0.996 --     3 C    0.982
    17   1 H    0.995 --     3 C    0.980
    18   1 H    0.996 --     3 C    0.978
    19   1 H    0.990 --     4 C    0.939
    20   1 H    0.943 --     9 N    0.916
    21   1 H    0.991 --    10 C    0.973
    22   1 H    0.993 --    10 C    0.978
    23   1 H    0.991 --    10 C    0.972
    24   1 H    0.996 --    12 C    0.982
    25   1 H    0.994 --    12 C    0.975
    26   1 H    0.998 --    12 C    0.982
 ---------------------------------------------------------------------------

Topologies differ in total number of bonds
Writing topology from bond orders to xtbtopo.mol

molecular dipole:
                 x           y           z       tot (Debye)
 q only:        0.001       0.231      -2.224
   full:       -0.084       0.286      -2.495       6.387
molecular quadrupole (traceless):
                xx          xy          yy          xz          yz          zz
 q only:        4.994      -8.856      -0.106      16.371       0.418      -4.888
  q+dip:       -2.105      -8.394       4.062      17.074       0.975      -1.956
   full:       -1.792      -8.765       5.431      17.749       1.549      -3.639


           -------------------------------------------------
          | TOTAL ENERGY              -39.328804988853 Eh   |
          | GRADIENT NORM               0.000098858526 Eh/α |
          | HOMO-LUMO GAP               2.733365700489 eV   |
           -------------------------------------------------

------------------------------------------------------------------------
 * finished run on 2025/04/11 at 16:15:25.617     
------------------------------------------------------------------------
 total:
 * wall-time:     0 d,  0 h,  0 min,  0.073 sec
 *  cpu-time:     0 d,  0 h,  0 min,  0.040 sec
 * ratio c/w:     0.554 speedup
 SCF:
 * wall-time:     0 d,  0 h,  0 min,  0.033 sec
 *  cpu-time:     0 d,  0 h,  0 min,  0.030 sec
 * ratio c/w:     0.937 speedup

