17
 xtb: 6.7.1 (edcfbbe)
C           -2.89833923279191        0.08556410695261        0.94019815616167
C           -2.32439306239377        0.40738945343897       -0.43826308675678
C           -0.93769919301443       -0.19052884495372       -0.68555408692420
C            0.12124664467340        0.36093317636993        0.26142308237168
C            1.50154895314476       -0.14451093646247       -0.02711569885913
O            1.80726499089530       -0.92669543696725       -0.90983824546559
O            2.42030041581333        0.37718225971639        0.82329409547786
H           -2.91972146891469       -0.99691361544345        1.11171108870892
H           -2.30936140507164        0.53977091233541        1.74352797199026
H           -3.92281756547449        0.45961626324790        1.03444688906914
H           -2.27788527323148        1.49578971085480       -0.57400380913192
H           -3.00521636151683        0.02655097786383       -1.20866056896249
H           -0.98465240453805       -1.28156546126807       -0.58155272066738
H           -0.63290673860486        0.01638249685250       -1.71757009681242
H           -0.09588292499654        0.11063869840480        1.30685426107163
H            0.15649303341107        1.45772250355264        0.22023426017075
H            3.29248922859246        0.01498133318589        0.59001907743392
