      -----------------------------------------------------------      
     |                   =====================                   |     
     |                           x T B                           |     
     |                   =====================                   |     
     |                         S. Grimme                         |     
     |          Mulliken Center for Theoretical Chemistry        |     
     |                    University of Bonn                     |     
      -----------------------------------------------------------      

   * xtb version 6.7.1 (edcfbbe) compiled by 'albert@albert-system' on 2024-07-22

   xtb is free software: you can redistribute it and/or modify it under
   the terms of the GNU Lesser General Public License as published by
   the Free Software Foundation, either version 3 of the License, or
   (at your option) any later version.
   
   xtb is distributed in the hope that it will be useful,
   but WITHOUT ANY WARRANTY; without even the implied warranty of
   MERCHANTABILITY or FITNESS FOR A PARTICULAR PURPOSE.  See the
   GNU Lesser General Public License for more details.
   
   Cite this work as:
   * C. Bannwarth, E. Caldeweyher, S. Ehlert, A. Hansen, P. Pracht,
     J. Seibert, S. Spicher, S. Grimme, WIREs Comput. Mol. Sci., 2020, 11,
     e01493. DOI: 10.1002/wcms.1493
   
   for GFN2-xTB:
   * C. Bannwarth, S. Ehlert and S. Grimme., J. Chem. Theory Comput., 2019,
     15, 1652-1671. DOI: 10.1021/acs.jctc.8b01176
   for GFN1-xTB:
   * S. Grimme, C. Bannwarth, P. Shushkov, J. Chem. Theory Comput., 2017,
     13, 1989-2009. DOI: 10.1021/acs.jctc.7b00118
   for GFN0-xTB:
   * P. Pracht, E. Caldeweyher, S. Ehlert, S. Grimme, ChemRxiv, 2019, preprint.
     DOI: 10.26434/chemrxiv.8326202.v1
   for GFN-FF:
   * S. Spicher and S. Grimme, Angew. Chem. Int. Ed., 2020, 59, 15665-15673.
     DOI: 10.1002/anie.202004239
   
   for ALPB and GBSA implicit solvation:
   * S. Ehlert, M. Stahn, S. Spicher, S. Grimme, J. Chem. Theory Comput.,
     2021, 17, 4250-4261. DOI: 10.1021/acs.jctc.1c00471
   
   for ddCOSMO and CPCM-X implicit solvation:
   * M. Stahn, S. Ehlert, S. Grimme, J. Phys. Chem. A,
     2023, XX, XXXX-XXXX. DOI: 10.1021/acs.jpca.3c04382
   
   for DFT-D4:
   * E. Caldeweyher, C. Bannwarth and S. Grimme, J. Chem. Phys., 2017,
     147, 034112. DOI: 10.1063/1.4993215
   * E. Caldeweyher, S. Ehlert, A. Hansen, H. Neugebauer, S. Spicher,
     C. Bannwarth and S. Grimme, J. Chem. Phys., 2019, 150, 154122.
     DOI: 10.1063/1.5090222
   * E. Caldeweyher, J.-M. Mewes, S. Ehlert and S. Grimme, Phys. Chem. Chem. Phys.
     2020, 22, 8499-8512. DOI: 10.1039/D0CP00502A
   
   for sTDA-xTB:
   * S. Grimme and C. Bannwarth, J. Chem. Phys., 2016, 145, 054103.
     DOI: 10.1063/1.4959605
   
   in the mass-spec context:
   * V. Asgeirsson, C. Bauer and S. Grimme, Chem. Sci., 2017, 8, 4879.
     DOI: 10.1039/c7sc00601b
   * J. Koopman and S. Grimme, ACS Omega 2019, 4, 12, 15120-15133.
     DOI: 10.1021/acsomega.9b02011
   
   for metadynamics refer to:
   * S. Grimme, J. Chem. Theory Comput., 2019, 155, 2847-2862
     DOI: 10.1021/acs.jctc.9b00143
   
   for SPH calculations refer to:
   * S. Spicher and S. Grimme, J. Chem. Theory Comput., 2021, 17, 1701-1714
     DOI: 10.1021/acs.jctc.0c01306
   
   for ONIOM refer to:
   * C. Plett, A. Katbashev, S. Ehlert, S. Grimme, M. Bursch,
     Phys. Chem. Chem. Phys., 2023, 25, 17860-17868. DOI: 10.1039/D3CP02178E
   
   for DIPRO refer to:
   * J. Kohn, N. Gildemeister, S. Grimme, D. Fazzi, A. Hansen,
     J. Chem. Phys., 2023, just accepted.
   
   for PTB refer to:
   * S. Grimme, M. Mueller, A. Hansen, J. Chem. Phys., 2023, 158, 124111.
     DOI: 10.1063/5.0137838
   
   with help from (in alphabetical order)
   P. Atkinson, C. Bannwarth, F. Bohle, G. Brandenburg, E. Caldeweyher
   M. Checinski, S. Dohm, S. Ehlert, S. Ehrlich, I. Gerasimov, C. Hölzer
   A. Katbashev, J. Kohn, J. Koopman, C. Lavigne, S. Lehtola, F. März, M. Müller,
   F. Musil, H. Neugebauer, J. Pisarek, C. Plett, P. Pracht, F. Pultar,
   J. Seibert, P. Shushkov, S. Spicher, M. Stahn, M. Steiner, T. Strunk,
   J. Stückrath, T. Rose, and J. Unsleber
   
 * started run on 2025/04/11 at 16:15:25.613     
   ID    Z sym.   atoms
    1    6 C      1-4, 7, 10, 12
    2    7 N      5, 9
    3    8 O      6, 8
    4   16 S      11
    5    1 H      13-26

           -------------------------------------------------
          |                Calculation Setup                |
           -------------------------------------------------

          program call               : /srv/scratch/z5358697/.xtb/bin/xtb gas.coord --gfn2 --sp --chrg 0 --norestart --parallel 1
          hostname                   : k073
          coordinate file            : gas.coord
          omp threads                :                     1


           -------------------------------------------------
          |                 G F N 2 - x T B                 |
           -------------------------------------------------

        Reference                      10.1021/acs.jctc.8b01176
      * Hamiltonian:
        H0-scaling (s, p, d)           1.850000    2.230000    2.230000
        zeta-weighting                 0.500000
      * Dispersion:
        s8                             2.700000
        a1                             0.520000
        a2                             5.000000
        s9                             5.000000
      * Repulsion:
        kExp                           1.500000    1.000000
        rExp                           1.000000
      * Coulomb:
        alpha                          2.000000
        third order                    shell-resolved
        anisotropic                    true
        a3                             3.000000
        a5                             4.000000
        cn-shift                       1.200000
        cn-exp                         4.000000
        max-rad                        5.000000


          ...................................................
          :                      SETUP                      :
          :.................................................:
          :  # basis functions                  68          :
          :  # atomic orbitals                  67          :
          :  # shells                           39          :
          :  # electrons                        70          :
          :  max. iterations                   250          :
          :  Hamiltonian                  GFN2-xTB          :
          :  restarted?                      false          :
          :  GBSA solvation                  false          :
          :  PC potential                    false          :
          :  electronic temp.          300.0000000     K    :
          :  accuracy                    1.0000000          :
          :  -> integral cutoff          0.2500000E+02      :
          :  -> integral neglect         0.1000000E-07      :
          :  -> SCF convergence          0.1000000E-05 Eh   :
          :  -> wf. convergence          0.1000000E-03 e    :
          :  Broyden damping             0.4000000          :
          :  net charge                          0          :
          :  unpaired electrons                  0          :
          ...................................................

 iter      E             dE          RMSdq      gap      omega  full diag
   1    -39.6484391 -0.396484E+02  0.434E+00    3.97       0.0  T
   2    -39.7373996 -0.889605E-01  0.236E+00    3.51       1.0  T
   3    -39.7393257 -0.192612E-02  0.108E+00    2.68       1.0  T
   4    -39.7412596 -0.193388E-02  0.584E-01    2.80       1.0  T
   5    -39.7448775 -0.361793E-02  0.195E-01    2.73       1.0  T
   6    -39.7449150 -0.375114E-04  0.863E-02    2.78       1.0  T
   7    -39.7449366 -0.216023E-04  0.371E-02    2.78       1.0  T
   8    -39.7449450 -0.836298E-05  0.165E-02    2.78       1.2  T
   9    -39.7449453 -0.308634E-06  0.474E-03    2.78       4.1  T
  10    -39.7449454 -0.917460E-07  0.227E-03    2.78       8.6  T
  11    -39.7449454 -0.985906E-08  0.872E-04    2.78      22.5  T
  12    -39.7449454 -0.149353E-08  0.331E-04    2.78      59.3  T

   *** convergence criteria satisfied after 12 iterations ***

         #    Occupation            Energy/Eh            Energy/eV
      -------------------------------------------------------------
         1        2.0000           -0.7359639             -20.0266
       ...           ...                  ...                  ...
        29        2.0000           -0.4587927             -12.4844
        30        2.0000           -0.4464157             -12.1476
        31        2.0000           -0.4312695             -11.7354
        32        2.0000           -0.4142460             -11.2722
        33        2.0000           -0.4057682             -11.0415
        34        2.0000           -0.3859459             -10.5021
        35        2.0000           -0.3569626              -9.7134 (HOMO)
        36                         -0.2547877              -6.9331 (LUMO)
        37                         -0.1949422              -5.3046
        38                         -0.1859875              -5.0610
        39                         -0.1492943              -4.0625
        40                         -0.0877502              -2.3878
       ...                                ...                  ...
        67                          0.6663029              18.1310
      -------------------------------------------------------------
                  HL-Gap            0.1021749 Eh            2.7803 eV
             Fermi-level           -0.3058752 Eh           -8.3233 eV

 SCC (total)                   0 d,  0 h,  0 min,  0.034 sec
 SCC setup                      ...        0 min,  0.000 sec (  0.625%)
 Dispersion                     ...        0 min,  0.000 sec (  0.561%)
 classical contributions        ...        0 min,  0.000 sec (  0.101%)
 integral evaluation            ...        0 min,  0.009 sec ( 26.662%)
 iterations                     ...        0 min,  0.014 sec ( 40.439%)
 molecular gradient             ...        0 min,  0.011 sec ( 30.979%)
 printout                       ...        0 min,  0.000 sec (  0.582%)

         :::::::::::::::::::::::::::::::::::::::::::::::::::::
         ::                     SUMMARY                     ::
         :::::::::::::::::::::::::::::::::::::::::::::::::::::
         :: total energy             -39.312444914527 Eh    ::
         :: gradient norm              0.036364014807 Eh/a0 ::
         :: HOMO-LUMO gap              2.780320699617 eV    ::
         ::.................................................::
         :: SCC energy               -39.744687199371 Eh    ::
         :: -> isotropic ES            0.065038260029 Eh    ::
         :: -> anisotropic ES         -0.001137768723 Eh    ::
         :: -> anisotropic XC          0.024120789097 Eh    ::
         :: -> dispersion             -0.023491418755 Eh    ::
         :: repulsion energy           0.432242284844 Eh    ::
         :: add. restraining           0.000000000000 Eh    ::
         :: total charge              -0.000000000000 e     ::
         :::::::::::::::::::::::::::::::::::::::::::::::::::::

           -------------------------------------------------
          |                Property Printout                |
           -------------------------------------------------

    * Orbital Energies and Occupations

         #    Occupation            Energy/Eh            Energy/eV
      -------------------------------------------------------------
         1        2.0000           -0.7359639             -20.0266
       ...           ...                  ...                  ...
        23        2.0000           -0.4938905             -13.4394
        24        2.0000           -0.4802756             -13.0690
        25        2.0000           -0.4788545             -13.0303
        26        2.0000           -0.4748596             -12.9216
        27        2.0000           -0.4691198             -12.7654
        28        2.0000           -0.4649693             -12.6525
        29        2.0000           -0.4587927             -12.4844
        30        2.0000           -0.4464157             -12.1476
        31        2.0000           -0.4312695             -11.7354
        32        2.0000           -0.4142460             -11.2722
        33        2.0000           -0.4057682             -11.0415
        34        2.0000           -0.3859459             -10.5021
        35        2.0000           -0.3569626              -9.7134 (HOMO)
        36                         -0.2547877              -6.9331 (LUMO)
        37                         -0.1949422              -5.3046
        38                         -0.1859875              -5.0610
        39                         -0.1492943              -4.0625
        40                         -0.0877502              -2.3878
        41                         -0.0090389              -0.2460
        42                         -0.0045084              -0.1227
        43                          0.0164702               0.4482
        44                          0.0259348               0.7057
        45                          0.0772159               2.1012
        46                          0.0950267               2.5858
       ...                                ...                  ...
        67                          0.6663029              18.1310
      -------------------------------------------------------------
                  HL-Gap            0.1021749 Eh            2.7803 eV
             Fermi-level           -0.3058752 Eh           -8.3233 eV

     #   Z          covCN         q      C6AA      α(0)
     1   6 C        3.790    -0.105    22.510     6.757
     2   6 C        3.891     0.071    19.345     6.253
     3   6 C        3.787    -0.104    22.497     6.756
     4   6 C        2.867     0.071    26.416     8.425
     5   7 N        1.830    -0.067    23.276     7.149
     6   8 O        1.775    -0.232    17.833     5.702
     7   6 C        2.640     0.408    20.127     7.339
     8   8 O        0.857    -0.469    23.102     6.444
     9   7 N        2.686    -0.175    24.790     7.395
    10   6 C        3.692    -0.045    21.575     6.647
    11  16 S        2.031    -0.216   150.286    20.633
    12   6 C        3.745    -0.051    21.557     6.623
    13   1 H        0.925     0.047     2.356     2.400
    14   1 H        0.925     0.048     2.346     2.395
    15   1 H        0.925     0.041     2.433     2.439
    16   1 H        0.925     0.078     1.998     2.211
    17   1 H        0.925     0.042     2.423     2.434
    18   1 H        0.925     0.041     2.439     2.442
    19   1 H        0.925     0.073     2.057     2.243
    20   1 H        0.860     0.189     1.166     1.691
    21   1 H        0.925     0.089     1.891     2.150
    22   1 H        0.925     0.060     2.202     2.321
    23   1 H        0.925     0.057     2.229     2.335
    24   1 H        0.925     0.047     2.362     2.404
    25   1 H        0.926     0.056     2.244     2.343
    26   1 H        0.925     0.047     2.355     2.400

 Mol. C6AA /au·bohr⁶  :       7096.268719
 Mol. C8AA /au·bohr⁸  :     175669.516310
 Mol. α(0) /au        :        128.329398


Wiberg/Mayer (AO) data.
largest (>0.10) Wiberg bond orders for each atom

 ---------------------------------------------------------------------------
     #   Z sym  total        # sym  WBO       # sym  WBO       # sym  WBO
 ---------------------------------------------------------------------------
     1   6 C    3.994 --     2 C    0.991    13 H    0.986    14 H    0.981
                            15 H    0.979
     2   6 C    3.977 --     4 C    0.992     1 C    0.991     3 C    0.979
                            11 S    0.943
     3   6 C    3.989 --    18 H    0.979     2 C    0.979    17 H    0.977
                            16 H    0.975
     4   6 C    3.962 --     5 N    1.907     2 C    0.992    19 H    0.939
     5   7 N    3.028 --     4 C    1.907     6 O    0.964
     6   8 O    2.272 --     7 C    1.010     5 N    0.964     8 O    0.123
     7   6 C    3.937 --     8 O    1.622     9 N    1.239     6 O    1.010
     8   8 O    1.969 --     7 C    1.622     9 N    0.167     6 O    0.123
     9   7 N    3.422 --     7 C    1.239    10 C    1.000    20 H    0.936
                             8 O    0.167
    10   6 C    3.956 --     9 N    1.000    22 H    0.979    23 H    0.977
                            21 H    0.977
    11  16 S    2.105 --    12 C    1.009     2 C    0.943
    12   6 C    3.984 --    11 S    1.009    26 H    0.984    24 H    0.981
                            25 H    0.979
    13   1 H    0.998 --     1 C    0.986
    14   1 H    0.998 --     1 C    0.981
    15   1 H    0.998 --     1 C    0.979
    16   1 H    0.994 --     3 C    0.975
    17   1 H    0.998 --     3 C    0.977
    18   1 H    0.998 --     3 C    0.979
    19   1 H    0.994 --     4 C    0.939
    20   1 H    0.964 --     9 N    0.936
    21   1 H    0.992 --    10 C    0.977
    22   1 H    0.996 --    10 C    0.979
    23   1 H    0.996 --    10 C    0.977
    24   1 H    0.998 --    12 C    0.981
    25   1 H    0.996 --    12 C    0.979
    26   1 H    0.998 --    12 C    0.984
 ---------------------------------------------------------------------------

Topologies differ in total number of bonds
Writing topology from bond orders to xtbtopo.mol

molecular dipole:
                 x           y           z       tot (Debye)
 q only:        0.382       0.835       0.358
   full:        0.929       1.056       0.524       3.814
molecular quadrupole (traceless):
                xx          xy          yy          xz          yz          zz
 q only:       10.351      -8.675      -5.165      -3.185       4.380      -5.187
  q+dip:       13.113      -9.552      -5.375      -1.793       3.879      -7.738
   full:       12.960      -9.383      -5.168      -2.082       4.144      -7.791


           -------------------------------------------------
          | TOTAL ENERGY              -39.312444914527 Eh   |
          | GRADIENT NORM               0.036364014807 Eh/α |
          | HOMO-LUMO GAP               2.780320699617 eV   |
           -------------------------------------------------

------------------------------------------------------------------------
 * finished run on 2025/04/11 at 16:15:25.682     
------------------------------------------------------------------------
 total:
 * wall-time:     0 d,  0 h,  0 min,  0.068 sec
 *  cpu-time:     0 d,  0 h,  0 min,  0.040 sec
 * ratio c/w:     0.586 speedup
 SCF:
 * wall-time:     0 d,  0 h,  0 min,  0.035 sec
 *  cpu-time:     0 d,  0 h,  0 min,  0.030 sec
 * ratio c/w:     0.856 speedup

