 Entering Gaussian System
 *********************************************
 Gaussian 98:
 frequency output generated by the xtb code
 *********************************************
                         Standard orientation:
 --------------------------------------------------------------------
  Center     Atomic     Atomic              Coordinates (Angstroms)
  Number     Number      Type              X           Y           Z
 --------------------------------------------------------------------
    1          6             0       -2.694818   -1.491792    0.042584
    2          6             0       -1.785067   -0.304506   -0.260298
    3          6             0       -2.202882    0.927767    0.537268
    4          6             0       -0.339637   -0.680430    0.063900
    5          8             0        0.500974    0.377573   -0.408829
    6          7             0        1.823245    0.251682   -0.186441
    7          8             0        2.203078   -0.727038    0.383033
    8          8             0        2.479082    1.160072   -0.597501
    9          1             0       -2.633772   -1.756962    1.094935
   10          1             0       -2.413383   -2.357897   -0.550011
   11          1             0       -3.724359   -1.235987   -0.188709
   12          1             0       -1.835261   -0.069756   -1.327090
   13          1             0       -3.212061    1.224449    0.267091
   14          1             0       -1.532215    1.757614    0.330389
   15          1             0       -2.179608    0.715728    1.603585
   16          1             0       -0.194751   -0.798168    1.142283
   17          1             0       -0.049335   -1.611438   -0.432304
 --------------------------------------------------------------------
     1 basis functions        1 primitive gaussians
     1 alpha electrons        1 beta electrons
 
 Harmonic frequencies (cm**-1), IR intensities (km*mol⁻¹),
 Raman scattering activities (A**4/amu), Raman depolarization ratios,
 reduced masses (AMU), force constants (mDyne/A) and normal coordinates:
                      1                      2                      3
                        a                      a                      a 
 Frequencies --    33.8687                61.5896               130.5720
 Red. masses --    12.7653                11.2021                11.7959
 Frc consts  --     0.0000                 0.0000                 0.0000
 IR Inten    --     1.8333                 1.4867                 1.6362
 Raman Activ --     0.0000                 0.0000                 0.0000
 Depolar     --     0.0000                 0.0000                 0.0000
 Atom AN      X      Y      Z        X      Y      Z        X      Y      Z
   1   6    -0.09   0.07  -0.01     0.05  -0.03  -0.39     0.29  -0.18   0.20
   2   6    -0.03   0.03   0.00     0.02   0.10   0.08    -0.09   0.06  -0.02
   3   6     0.25  -0.05   0.27    -0.23  -0.11   0.27    -0.25  -0.04   0.06
   4   6    -0.00  -0.16  -0.33    -0.00   0.15   0.26    -0.00   0.27  -0.23
   5   8     0.01  -0.23  -0.45     0.03   0.04   0.05     0.05   0.29  -0.21
   6   7    -0.04   0.04   0.04     0.04  -0.03  -0.05     0.01  -0.02  -0.00
   7   8    -0.09   0.28   0.48     0.00   0.14   0.25    -0.36  -0.13   0.06
   8   8    -0.04   0.01  -0.02     0.10  -0.25  -0.47     0.34  -0.21   0.12
   9   1     0.03  -0.03  -0.02    -0.03  -0.10  -0.13     0.19  -0.06   0.05
  10   1    -0.08   0.04  -0.06     0.05   0.04  -0.17     0.10  -0.03   0.03
  11   1    -0.03   0.06   0.07     0.02  -0.01  -0.13     0.04  -0.13   0.15
  12   1    -0.06   0.06   0.01     0.07   0.10   0.03    -0.10   0.01  -0.00
  13   1     0.06   0.02   0.15    -0.05  -0.02   0.02    -0.11  -0.10   0.08
  14   1     0.08  -0.02   0.07    -0.06  -0.01   0.19    -0.15   0.04  -0.03
  15   1     0.13  -0.06   0.07    -0.14  -0.11   0.06     0.02  -0.01   0.02
  16   1     0.06  -0.08  -0.11    -0.02   0.11   0.09     0.02   0.05  -0.07
  17   1    -0.06  -0.04  -0.14     0.00   0.01   0.14    -0.00   0.09  -0.09
                      4                      5                      6
                        a                      a                      a 
 Frequencies --   187.6684               204.9208               236.9589
 Red. masses --    11.2957                 2.5182                 2.6610
 Frc consts  --     0.0000                 0.0000                 0.0000
 IR Inten    --     0.2325                 0.0482                 0.2911
 Raman Activ --     0.0000                 0.0000                 0.0000
 Depolar     --     0.0000                 0.0000                 0.0000
 Atom AN      X      Y      Z        X      Y      Z        X      Y      Z
   1   6    -0.03  -0.01  -0.01     0.04  -0.04   0.07    -0.03   0.02  -0.10
   2   6    -0.00  -0.06  -0.11    -0.01  -0.04  -0.06    -0.03   0.05   0.01
   3   6     0.22  -0.04  -0.03     0.06   0.03  -0.13    -0.11   0.06  -0.05
   4   6     0.01  -0.11  -0.23    -0.01  -0.04  -0.05    -0.05   0.00   0.11
   5   8    -0.10   0.31   0.54    -0.04   0.10   0.21     0.05  -0.15   0.01
   6   7    -0.05   0.05   0.09    -0.02   0.02   0.04     0.06  -0.04   0.01
   7   8    -0.08   0.07   0.14    -0.01   0.02   0.03     0.20  -0.00  -0.00
   8   8     0.01  -0.19  -0.34    -0.03  -0.04  -0.10    -0.06   0.04   0.02
   9   1    -0.07   0.07   0.02     0.39  -0.29  -0.07     0.18  -0.19  -0.09
  10   1     0.04  -0.04   0.08    -0.28   0.12  -0.31    -0.17   0.10  -0.24
  11   1     0.00  -0.03  -0.09    -0.05   0.13   0.48    -0.04   0.10   0.22
  12   1    -0.04  -0.01  -0.03    -0.02  -0.02  -0.02     0.00   0.02   0.00
  13   1    -0.00  -0.09   0.16     0.12   0.17  -0.22    -0.20  -0.27   0.30
  14   1    -0.02   0.02  -0.16     0.18  -0.08   0.13    -0.31   0.15  -0.36
  15   1     0.27   0.03  -0.00    -0.22  -0.05  -0.04     0.39   0.17   0.01
  16   1    -0.02  -0.22  -0.08    -0.02  -0.06  -0.02    -0.03   0.04   0.04
  17   1     0.05   0.07  -0.23     0.02   0.02  -0.05    -0.03  -0.03   0.07
                      7                      8                      9
                        a                      a                      a 
 Frequencies --   260.5020               331.0659               410.1278
 Red. masses --    10.9173                 9.8913                 8.9749
 Frc consts  --     0.0000                 0.0000                 0.0000
 IR Inten    --     2.7021                 0.3366                 0.1542
 Raman Activ --     0.0000                 0.0000                 0.0000
 Depolar     --     0.0000                 0.0000                 0.0000
 Atom AN      X      Y      Z        X      Y      Z        X      Y      Z
   1   6    -0.20   0.09   0.16    -0.48   0.10   0.05     0.20   0.40   0.07
   2   6    -0.19   0.06  -0.04     0.05  -0.30  -0.00     0.42   0.09  -0.03
   3   6    -0.44  -0.06   0.02     0.03  -0.32  -0.02    -0.23  -0.15  -0.02
   4   6    -0.11  -0.06  -0.28     0.15   0.06   0.11     0.27  -0.21  -0.02
   5   8     0.19  -0.07   0.11     0.04   0.23  -0.09    -0.04  -0.07   0.03
   6   7     0.25  -0.02   0.05     0.08   0.14  -0.06    -0.14  -0.02  -0.01
   7   8     0.47   0.06   0.05    -0.15   0.06  -0.06    -0.21  -0.04   0.01
   8   8     0.13   0.03  -0.06     0.35   0.00   0.05    -0.18  -0.00  -0.03
   9   1    -0.07   0.09   0.06    -0.17   0.01   0.01     0.07   0.16   0.03
  10   1    -0.07  -0.02   0.10    -0.32  -0.02  -0.00    -0.05   0.06   0.05
  11   1    -0.06   0.02   0.03    -0.10   0.23   0.04     0.07   0.20   0.05
  12   1    -0.10   0.02  -0.01     0.03  -0.11  -0.01     0.17   0.04  -0.01
  13   1    -0.11  -0.03  -0.07    -0.01  -0.12   0.02    -0.10  -0.23  -0.08
  14   1    -0.13   0.01   0.10    -0.02  -0.07  -0.02    -0.21   0.09   0.08
  15   1    -0.22  -0.06  -0.00     0.04  -0.10  -0.01    -0.12  -0.08  -0.01
  16   1    -0.02  -0.15  -0.10     0.04   0.11   0.04     0.12  -0.13  -0.02
  17   1    -0.08   0.02  -0.19     0.12   0.01   0.10     0.05  -0.03  -0.08
                     10                     11                     12
                        a                      a                      a 
 Frequencies --   437.1443               606.0936               718.5157
 Red. masses --     7.5013                13.3221                15.4313
 Frc consts  --     0.0000                 0.0000                 0.0000
 IR Inten    --     3.1652                 5.8185                10.8717
 Raman Activ --     0.0000                 0.0000                 0.0000
 Depolar     --     0.0000                 0.0000                 0.0000
 Atom AN      X      Y      Z        X      Y      Z        X      Y      Z
   1   6     0.11   0.16   0.11    -0.10  -0.06   0.00    -0.06  -0.07   0.01
   2   6    -0.05   0.07  -0.52     0.06  -0.10   0.13    -0.08   0.03  -0.06
   3   6     0.13  -0.29   0.05     0.02  -0.03  -0.01    -0.03   0.04   0.02
   4   6    -0.18   0.21   0.05     0.23   0.39  -0.17     0.00  -0.07   0.02
   5   8     0.02  -0.03   0.04     0.23   0.26  -0.11     0.48  -0.21   0.16
   6   7    -0.01  -0.07   0.05    -0.00  -0.26   0.13     0.31   0.10  -0.00
   7   8     0.12  -0.05   0.03     0.14  -0.24   0.15    -0.52  -0.22   0.05
   8   8    -0.16   0.00  -0.01    -0.55  -0.00  -0.06    -0.08   0.41  -0.23
   9   1     0.15   0.21   0.07    -0.11  -0.07  -0.01     0.00  -0.01   0.00
  10   1    -0.02  -0.04   0.14    -0.07  -0.01  -0.03    -0.01  -0.02   0.01
  11   1    -0.00  -0.00   0.11     0.00   0.08  -0.04    -0.03  -0.05   0.01
  12   1    -0.03   0.02  -0.14    -0.03  -0.04   0.04    -0.04   0.01  -0.02
  13   1     0.02  -0.02   0.16     0.01  -0.01  -0.04    -0.01   0.04   0.04
  14   1     0.03  -0.05   0.13     0.01  -0.02  -0.04     0.01  -0.00   0.01
  15   1     0.12  -0.29  -0.03    -0.02   0.04   0.01     0.01  -0.01   0.00
  16   1    -0.23   0.23   0.06     0.12   0.11  -0.05    -0.06  -0.02   0.01
  17   1     0.03  -0.02   0.21     0.08   0.12  -0.06    -0.02  -0.04   0.03
                     13                     14                     15
                        a                      a                      a 
 Frequencies --   742.8017               870.0575               891.4239
 Red. masses --    14.3405                11.4046                11.5716
 Frc consts  --     0.0000                 0.0000                 0.0000
 IR Inten    --   100.3456               266.3634               327.8331
 Raman Activ --     0.0000                 0.0000                 0.0000
 Depolar     --     0.0000                 0.0000                 0.0000
 Atom AN      X      Y      Z        X      Y      Z        X      Y      Z
   1   6     0.00   0.00  -0.00    -0.18  -0.21  -0.01     0.11   0.11   0.04
   2   6    -0.00   0.00  -0.01     0.01   0.03  -0.21    -0.04   0.03   0.16
   3   6     0.00  -0.01  -0.01    -0.08   0.31   0.13     0.05  -0.27  -0.14
   4   6    -0.01   0.02   0.04     0.28  -0.16  -0.08    -0.26   0.17   0.12
   5   8    -0.01   0.10   0.20     0.40  -0.01   0.10     0.52  -0.11   0.06
   6   7     0.10  -0.41  -0.77    -0.45   0.02  -0.09    -0.41   0.07  -0.05
   7   8    -0.04   0.14   0.27     0.03   0.19  -0.09    -0.02   0.19  -0.12
   8   8    -0.03   0.14   0.24    -0.02  -0.18   0.10     0.02  -0.13   0.06
   9   1     0.00   0.01   0.00     0.02   0.02   0.01    -0.07  -0.06  -0.01
  10   1    -0.00  -0.00   0.00    -0.06  -0.10   0.06     0.03   0.08  -0.06
  11   1    -0.00   0.00   0.00    -0.07  -0.11   0.06     0.06   0.10  -0.06
  12   1     0.01  -0.00  -0.00    -0.03   0.03  -0.05    -0.01  -0.05   0.03
  13   1     0.00   0.00   0.01    -0.04   0.06   0.07     0.03  -0.01  -0.02
  14   1     0.01  -0.01  -0.00    -0.07   0.14   0.11     0.07  -0.13  -0.09
  15   1     0.01  -0.01  -0.00    -0.03   0.01   0.02     0.05  -0.05  -0.04
  16   1     0.00  -0.06   0.00    -0.04   0.11   0.01     0.05  -0.15  -0.01
  17   1    -0.01   0.04  -0.05     0.23  -0.08   0.14    -0.26   0.10  -0.16
                     16                     17                     18
                        a                      a                      a 
 Frequencies --   910.2938               951.1672               977.5402
 Red. masses --     4.2205                 2.7336                 4.9729
 Frc consts  --     0.0000                 0.0000                 0.0000
 IR Inten    --    17.3518                 2.1099                 3.9970
 Raman Activ --     0.0000                 0.0000                 0.0000
 Depolar     --     0.0000                 0.0000                 0.0000
 Atom AN      X      Y      Z        X      Y      Z        X      Y      Z
   1   6     0.15   0.12   0.07    -0.08  -0.01   0.24    -0.27   0.23  -0.01
   2   6     0.07  -0.07   0.14     0.06   0.11  -0.01    -0.18   0.12   0.09
   3   6     0.10  -0.10   0.09     0.12   0.14  -0.19     0.16  -0.23  -0.08
   4   6    -0.15  -0.08  -0.36     0.01   0.02  -0.02     0.07  -0.17   0.06
   5   8     0.04  -0.03   0.13    -0.06  -0.04   0.01     0.09   0.16  -0.06
   6   7    -0.03   0.00  -0.05     0.03   0.00  -0.00    -0.02  -0.02   0.01
   7   8    -0.02   0.04  -0.00    -0.00  -0.01   0.00     0.02  -0.03   0.02
   8   8     0.03   0.01   0.01     0.01   0.01  -0.00    -0.04  -0.01  -0.00
   9   1    -0.14  -0.13  -0.01    -0.23  -0.37  -0.02     0.22   0.01  -0.03
  10   1     0.04   0.11  -0.09     0.18   0.23  -0.19     0.36   0.23  -0.04
  11   1     0.10   0.16  -0.12     0.01  -0.05  -0.14    -0.22  -0.48   0.10
  12   1    -0.29   0.05   0.07    -0.08  -0.31  -0.07     0.01   0.14   0.05
  13   1     0.04  -0.20  -0.22    -0.05  -0.11   0.10     0.04  -0.21  -0.17
  14   1    -0.06   0.01  -0.09    -0.14   0.26   0.32    -0.04  -0.01  -0.06
  15   1    -0.14   0.22   0.07     0.04  -0.41  -0.13    -0.06   0.03  -0.00
  16   1    -0.37   0.30  -0.01    -0.01  -0.00  -0.00     0.08   0.03   0.02
  17   1     0.16  -0.15   0.27    -0.01  -0.00  -0.00     0.11  -0.03   0.04
                     19                     20                     21
                        a                      a                      a 
 Frequencies --   993.0745              1030.2628              1148.3910
 Red. masses --     6.0617                12.8555                 5.6162
 Frc consts  --     0.0000                 0.0000                 0.0000
 IR Inten    --    10.3840                62.1256                 4.4396
 Raman Activ --     0.0000                 0.0000                 0.0000
 Depolar     --     0.0000                 0.0000                 0.0000
 Atom AN      X      Y      Z        X      Y      Z        X      Y      Z
   1   6    -0.15  -0.30  -0.03     0.14   0.07  -0.00    -0.09  -0.13  -0.01
   2   6     0.29   0.09  -0.02     0.00  -0.12   0.01     0.17   0.23   0.30
   3   6     0.30   0.07   0.06    -0.09   0.11   0.02    -0.08  -0.09  -0.24
   4   6    -0.36   0.08   0.05    -0.36  -0.51   0.14    -0.05  -0.09  -0.33
   5   8     0.06   0.07  -0.06     0.23   0.54  -0.25    -0.02   0.05   0.14
   6   7     0.01  -0.00   0.01     0.01  -0.06   0.03     0.01  -0.00  -0.01
   7   8     0.01  -0.02   0.01     0.08  -0.11   0.07    -0.01   0.02  -0.00
   8   8     0.00   0.03  -0.01    -0.08   0.03  -0.03     0.00  -0.01   0.00
   9   1     0.03   0.07   0.03    -0.02   0.00  -0.00     0.02   0.03   0.02
  10   1    -0.16  -0.19   0.10    -0.01   0.02  -0.02    -0.05  -0.08   0.06
  11   1    -0.05  -0.04   0.07     0.07   0.10  -0.03    -0.04  -0.04   0.05
  12   1     0.17   0.14   0.01     0.08  -0.13  -0.02     0.26   0.18   0.09
  13   1     0.03  -0.38  -0.24    -0.03   0.10   0.10    -0.02   0.12   0.13
  14   1    -0.20   0.27   0.13     0.02   0.00   0.04     0.09  -0.09   0.02
  15   1    -0.15   0.05   0.03     0.04  -0.05  -0.01     0.14  -0.21  -0.10
  16   1    -0.08  -0.06  -0.00    -0.04  -0.00   0.03     0.15   0.36  -0.06
  17   1    -0.19   0.05  -0.09     0.03  -0.09   0.05    -0.29  -0.25   0.20
                     22                     23                     24
                        a                      a                      a 
 Frequencies --  1159.8529              1182.7892              1221.5315
 Red. masses --     7.3934                 6.1355                 3.7124
 Frc consts  --     0.0000                 0.0000                 0.0000
 IR Inten    --     1.2767                15.6179                14.2677
 Raman Activ --     0.0000                 0.0000                 0.0000
 Depolar     --     0.0000                 0.0000                 0.0000
 Atom AN      X      Y      Z        X      Y      Z        X      Y      Z
   1   6     0.05   0.23  -0.27    -0.20   0.07   0.15     0.02   0.02   0.11
   2   6    -0.08  -0.48   0.23     0.45  -0.16  -0.14    -0.07  -0.01  -0.37
   3   6     0.05   0.21   0.04    -0.20   0.03   0.18     0.04  -0.02   0.25
   4   6    -0.13   0.15  -0.18    -0.18   0.14  -0.12     0.04  -0.05   0.01
   5   8     0.03  -0.11   0.11     0.00  -0.06  -0.00    -0.02   0.06   0.10
   6   7    -0.01   0.01  -0.01     0.02   0.00   0.00    -0.02   0.00  -0.00
   7   8    -0.02   0.03  -0.02    -0.02   0.04  -0.02     0.01  -0.02   0.02
   8   8     0.02   0.00  -0.00     0.00  -0.01   0.01     0.01   0.01  -0.01
   9   1     0.26   0.26  -0.03     0.01  -0.18  -0.01    -0.08  -0.11  -0.00
  10   1     0.07  -0.02   0.07     0.20   0.16  -0.06     0.02   0.07  -0.07
  11   1    -0.05  -0.08   0.09    -0.09  -0.21  -0.02     0.03   0.01  -0.08
  12   1     0.07  -0.40  -0.00     0.42  -0.12  -0.07     0.01  -0.20  -0.14
  13   1    -0.03  -0.06   0.04     0.01   0.19   0.06     0.04  -0.06  -0.14
  14   1    -0.07   0.15   0.15     0.09  -0.14  -0.10    -0.04  -0.01  -0.10
  15   1    -0.03  -0.08  -0.01     0.04   0.18   0.08    -0.10   0.23   0.10
  16   1     0.12   0.13  -0.05    -0.25  -0.03  -0.02     0.52   0.21  -0.04
  17   1    -0.04  -0.01   0.04     0.02   0.07  -0.05    -0.44  -0.19   0.08
                     25                     26                     27
                        a                      a                      a 
 Frequencies --  1273.2601              1285.6612              1321.7489
 Red. masses --     6.7529                11.8563                 5.0350
 Frc consts  --     0.0000                 0.0000                 0.0000
 IR Inten    --   236.9405               369.5887                12.6379
 Raman Activ --     0.0000                 0.0000                 0.0000
 Depolar     --     0.0000                 0.0000                 0.0000
 Atom AN      X      Y      Z        X      Y      Z        X      Y      Z
   1   6     0.06  -0.03   0.12     0.08  -0.01   0.10    -0.01   0.09   0.10
   2   6    -0.23  -0.07  -0.04    -0.26  -0.11  -0.05     0.06  -0.52  -0.12
   3   6     0.04   0.02  -0.01     0.06   0.04  -0.00    -0.00   0.11  -0.11
   4   6    -0.21   0.05  -0.09    -0.06  -0.02  -0.02     0.09   0.06   0.06
   5   8    -0.03  -0.13   0.06     0.08  -0.03   0.02     0.01   0.05  -0.01
   6   7    -0.28   0.03  -0.05     0.44  -0.03   0.07    -0.07  -0.00  -0.00
   7   8     0.10  -0.25   0.15    -0.18   0.40  -0.24     0.03  -0.05   0.03
   8   8     0.19   0.23  -0.10    -0.27  -0.35   0.16     0.03   0.05  -0.02
   9   1    -0.07  -0.05   0.02    -0.05  -0.03   0.02     0.03  -0.05  -0.00
  10   1     0.01   0.06  -0.06     0.01   0.06  -0.06     0.10   0.11  -0.05
  11   1     0.07   0.12  -0.06     0.06   0.11  -0.06     0.02  -0.01  -0.08
  12   1     0.41   0.24   0.02     0.33   0.21   0.02    -0.16   0.60   0.14
  13   1    -0.00  -0.04  -0.01    -0.01  -0.06  -0.02    -0.04   0.08   0.14
  14   1    -0.03   0.04   0.01    -0.03   0.05   0.02    -0.05   0.12   0.15
  15   1    -0.02  -0.02  -0.01    -0.03  -0.03  -0.01    -0.02  -0.01  -0.03
  16   1     0.31   0.08  -0.06     0.10   0.04  -0.02    -0.05  -0.03   0.02
  17   1     0.43   0.13   0.02     0.14   0.03   0.00    -0.34  -0.08  -0.01
                     28                     29                     30
                        a                      a                      a 
 Frequencies --  1335.5144              1403.9547              1417.7518
 Red. masses --     5.1371                 3.3238                 3.0929
 Frc consts  --     0.0000                 0.0000                 0.0000
 IR Inten    --    35.6854                 5.3375                 1.5642
 Raman Activ --     0.0000                 0.0000                 0.0000
 Depolar     --     0.0000                 0.0000                 0.0000
 Atom AN      X      Y      Z        X      Y      Z        X      Y      Z
   1   6     0.10   0.01   0.02    -0.17  -0.24   0.03    -0.21  -0.24   0.07
   2   6    -0.40   0.01   0.06    -0.00   0.10   0.03     0.03  -0.01  -0.02
   3   6     0.09  -0.01   0.04     0.08  -0.29  -0.15    -0.08   0.23   0.15
   4   6     0.36   0.02  -0.06     0.01  -0.02  -0.00     0.02   0.02   0.00
   5   8     0.00   0.08  -0.05    -0.00   0.00   0.00    -0.00   0.02  -0.01
   6   7    -0.12  -0.01  -0.01     0.01  -0.00   0.00    -0.02   0.00  -0.00
   7   8     0.04  -0.09   0.05    -0.00   0.00  -0.00     0.01  -0.01   0.01
   8   8     0.05   0.07  -0.03    -0.00  -0.00   0.00     0.01   0.01  -0.00
   9   1    -0.06   0.01   0.01     0.22   0.26   0.06     0.28   0.27   0.06
  10   1    -0.05   0.01  -0.03     0.26   0.16  -0.14     0.29   0.19  -0.15
  11   1     0.03   0.05  -0.01     0.09   0.32  -0.07     0.10   0.35  -0.13
  12   1     0.49  -0.11  -0.04     0.01  -0.11  -0.02    -0.04   0.01   0.00
  13   1     0.01  -0.08  -0.03     0.05   0.30   0.20    -0.03  -0.25  -0.21
  14   1    -0.04   0.04  -0.02    -0.22   0.21   0.23     0.19  -0.19  -0.22
  15   1    -0.07   0.01   0.01    -0.08   0.37   0.07     0.10  -0.32  -0.06
  16   1    -0.48  -0.10   0.04    -0.02   0.03   0.00    -0.02  -0.07  -0.00
  17   1    -0.31  -0.13   0.02     0.01   0.01  -0.02    -0.05  -0.04   0.05
                     31                     32                     33
                        a                      a                      a 
 Frequencies --  1445.6207              1486.2635              1488.2885
 Red. masses --     1.8296                 1.5925                 1.5647
 Frc consts  --     0.0000                 0.0000                 0.0000
 IR Inten    --     3.1571                 0.3228                 1.7548
 Raman Activ --     0.0000                 0.0000                 0.0000
 Depolar     --     0.0000                 0.0000                 0.0000
 Atom AN      X      Y      Z        X      Y      Z        X      Y      Z
   1   6    -0.02   0.00   0.01     0.14  -0.10   0.02    -0.01  -0.01  -0.17
   2   6    -0.01  -0.01  -0.00     0.00  -0.04  -0.01    -0.03  -0.05  -0.03
   3   6     0.02   0.04   0.02    -0.14   0.00  -0.02    -0.05  -0.05   0.11
   4   6     0.09  -0.21   0.12     0.01  -0.02   0.02     0.01  -0.01   0.01
   5   8    -0.01  -0.06   0.03    -0.00  -0.01   0.00     0.00   0.00   0.00
   6   7    -0.02  -0.01   0.00    -0.00  -0.00   0.00    -0.00  -0.00  -0.00
   7   8    -0.01  -0.00   0.00    -0.00   0.00  -0.00     0.00  -0.00   0.00
   8   8     0.02   0.02  -0.01     0.00   0.00  -0.00     0.00   0.00  -0.00
   9   1     0.06  -0.02  -0.01    -0.32   0.40   0.12    -0.28  -0.13  -0.03
  10   1     0.02  -0.01   0.03    -0.13   0.21  -0.38     0.40  -0.04   0.24
  11   1     0.02   0.04  -0.04    -0.07  -0.20   0.16    -0.05   0.26   0.48
  12   1    -0.00   0.01   0.00    -0.01   0.00   0.00     0.02   0.05   0.01
  13   1    -0.02  -0.04   0.03     0.02  -0.09  -0.23     0.15   0.23  -0.32
  14   1     0.02  -0.03  -0.07     0.12  -0.02   0.33    -0.22   0.15  -0.08
  15   1    -0.07  -0.06  -0.01     0.41   0.16   0.02     0.25  -0.13  -0.02
  16   1    -0.13   0.65   0.10    -0.01   0.08   0.01    -0.01   0.03   0.00
  17   1    -0.06   0.29  -0.60    -0.02   0.04  -0.08    -0.03   0.00  -0.02
                     34                     35                     36
                        a                      a                      a 
 Frequencies --  1495.3916              1499.4554              1702.6795
 Red. masses --     1.5762                 1.5331                14.6618
 Frc consts  --     0.0000                 0.0000                 0.0000
 IR Inten    --     3.2821                 4.3429               953.9052
 Raman Activ --     0.0000                 0.0000                 0.0000
 Depolar     --     0.0000                 0.0000                 0.0000
 Atom AN      X      Y      Z        X      Y      Z        X      Y      Z
   1   6    -0.07   0.10   0.07     0.06  -0.02   0.09    -0.00   0.00  -0.00
   2   6    -0.08   0.01   0.03     0.05  -0.03   0.05     0.00   0.01  -0.00
   3   6    -0.13  -0.07   0.02     0.06  -0.07   0.15    -0.00  -0.00  -0.00
   4   6     0.02  -0.01   0.00    -0.02   0.00  -0.01     0.01  -0.00   0.00
   5   8     0.00   0.00  -0.00     0.00  -0.00   0.00    -0.02   0.02  -0.01
   6   7    -0.00   0.00  -0.00     0.00  -0.00   0.00    -0.11  -0.72   0.37
   7   8     0.00  -0.00   0.00    -0.00   0.00  -0.00    -0.12   0.33  -0.19
   8   8     0.00   0.00  -0.00    -0.00   0.00   0.00     0.23   0.32  -0.15
   9   1     0.39  -0.24  -0.08     0.03   0.21   0.06     0.00  -0.00  -0.00
  10   1    -0.14  -0.15   0.17    -0.25   0.09  -0.25     0.00  -0.00   0.00
  11   1     0.09   0.01  -0.40    -0.01  -0.22  -0.18     0.00   0.00  -0.00
  12   1     0.02  -0.01   0.00    -0.03   0.01   0.02    -0.01  -0.00  -0.00
  13   1     0.12   0.07  -0.38     0.17   0.40  -0.17    -0.00  -0.00   0.00
  14   1    -0.05   0.09   0.25    -0.38   0.21  -0.40     0.00   0.00   0.00
  15   1     0.50   0.08   0.01    -0.06  -0.33  -0.05     0.00   0.00   0.00
  16   1    -0.03   0.01   0.01    -0.01  -0.00  -0.00     0.01  -0.01   0.00
  17   1    -0.00   0.01  -0.01     0.01   0.01  -0.00     0.01  -0.01   0.01
                     37                     38                     39
                        a                      a                      a 
 Frequencies --  2945.8308              2958.1836              2963.9443
 Red. masses --     1.9435                 1.7570                 1.5154
 Frc consts  --     0.0000                 0.0000                 0.0000
 IR Inten    --     6.2432                38.6489                33.1735
 Raman Activ --     0.0000                 0.0000                 0.0000
 Depolar     --     0.0000                 0.0000                 0.0000
 Atom AN      X      Y      Z        X      Y      Z        X      Y      Z
   1   6    -0.00  -0.00  -0.00     0.00   0.01   0.01     0.01  -0.00   0.01
   2   6     0.00  -0.02   0.08    -0.01   0.05  -0.22    -0.01   0.02  -0.10
   3   6     0.00   0.00   0.00     0.00  -0.01   0.01     0.00  -0.01   0.01
   4   6     0.02  -0.11  -0.25     0.03  -0.11  -0.07    -0.07   0.14  -0.10
   5   8     0.00  -0.00  -0.01    -0.00  -0.01   0.00     0.01   0.01  -0.01
   6   7    -0.00   0.00   0.00     0.00  -0.00   0.00    -0.00   0.00  -0.00
   7   8     0.00  -0.00  -0.00    -0.00   0.00  -0.00     0.00  -0.00   0.00
   8   8    -0.00  -0.00  -0.00     0.00   0.00  -0.00    -0.00  -0.00   0.00
   9   1    -0.00  -0.00   0.01    -0.00   0.01  -0.04    -0.00   0.01  -0.04
  10   1    -0.00   0.00   0.00     0.01  -0.02  -0.02    -0.00   0.00   0.00
  11   1     0.01  -0.00   0.00    -0.01   0.00  -0.00    -0.02   0.00  -0.00
  12   1    -0.02   0.07  -0.34     0.04  -0.18   0.80     0.02  -0.08   0.35
  13   1     0.00   0.00  -0.00    -0.02   0.00  -0.00    -0.01   0.00  -0.00
  14   1    -0.01  -0.01   0.00     0.01   0.01  -0.00     0.01   0.01  -0.00
  15   1    -0.00   0.00   0.01    -0.00   0.01  -0.05    -0.00   0.00  -0.02
  16   1     0.09  -0.09   0.68     0.01  -0.01  -0.02     0.07  -0.05   0.67
  17   1    -0.15   0.49   0.24    -0.13   0.42   0.23     0.14  -0.50  -0.30
                     40                     41                     42
                        a                      a                      a 
 Frequencies --  3034.8926              3041.1174              3044.9795
 Red. masses --     1.8412                 1.9138                 1.7778
 Frc consts  --     0.0000                 0.0000                 0.0000
 IR Inten    --    29.2893                84.0462                57.3581
 Raman Activ --     0.0000                 0.0000                 0.0000
 Depolar     --     0.0000                 0.0000                 0.0000
 Atom AN      X      Y      Z        X      Y      Z        X      Y      Z
   1   6     0.01  -0.02  -0.08     0.01  -0.05  -0.27     0.11  -0.15   0.06
   2   6     0.00  -0.00   0.02    -0.00   0.00  -0.03    -0.00  -0.01   0.01
   3   6    -0.00  -0.09   0.25    -0.06  -0.00  -0.07    -0.15  -0.09  -0.00
   4   6     0.00   0.00   0.00    -0.00   0.00  -0.00     0.00  -0.00  -0.00
   5   8    -0.00  -0.00   0.00     0.00   0.00   0.00    -0.00   0.00   0.00
   6   7     0.00   0.00   0.00    -0.00   0.00  -0.00     0.00   0.00  -0.00
   7   8    -0.00   0.00  -0.00     0.00  -0.00   0.00    -0.00   0.00  -0.00
   8   8    -0.00  -0.00   0.00    -0.00  -0.00   0.00    -0.00  -0.00   0.00
   9   1     0.02  -0.06   0.22     0.06  -0.19   0.74    -0.02   0.09  -0.46
  10   1    -0.04   0.11   0.07    -0.13   0.37   0.23    -0.13   0.40   0.30
  11   1    -0.02   0.00  -0.01     0.03  -0.02  -0.03    -0.22   0.04  -0.05
  12   1    -0.00   0.01  -0.04     0.01  -0.01   0.06    -0.00   0.00  -0.02
  13   1    -0.07   0.01   0.01     0.12  -0.03   0.02     0.21  -0.08   0.07
  14   1     0.11   0.12  -0.00     0.08   0.11  -0.04     0.35   0.44  -0.12
  15   1    -0.02   0.18  -0.89    -0.00  -0.06   0.27    -0.02  -0.03   0.06
  16   1    -0.00   0.00  -0.01     0.00  -0.00   0.02    -0.00  -0.00  -0.01
  17   1     0.00  -0.00  -0.00    -0.00   0.00  -0.00    -0.01   0.02   0.01
                     43                     44                     45
                        a                      a                      a 
 Frequencies --  3046.3112              3055.1424              3059.6327
 Red. masses --     1.7670                 1.4766                 1.5323
 Frc consts  --     0.0000                 0.0000                 0.0000
 IR Inten    --    28.0630                27.5155                44.4434
 Raman Activ --     0.0000                 0.0000                 0.0000
 Depolar     --     0.0000                 0.0000                 0.0000
 Atom AN      X      Y      Z        X      Y      Z        X      Y      Z
   1   6    -0.08   0.15   0.03    -0.05  -0.01  -0.02    -0.21   0.01  -0.04
   2   6    -0.01   0.00   0.00     0.00  -0.00   0.00    -0.01   0.00  -0.01
   3   6    -0.16  -0.11   0.00     0.15  -0.12   0.04    -0.06   0.02  -0.00
   4   6    -0.00   0.00  -0.00    -0.00  -0.00   0.00     0.00   0.00  -0.00
   5   8     0.00   0.00  -0.00     0.00   0.00   0.00    -0.00   0.00  -0.00
   6   7    -0.00   0.00  -0.00    -0.00   0.00  -0.00     0.00   0.00   0.00
   7   8    -0.00  -0.00   0.00     0.00  -0.00   0.00    -0.00   0.00  -0.00
   8   8    -0.00  -0.00   0.00     0.00   0.00  -0.00    -0.00  -0.00   0.00
   9   1     0.00  -0.03   0.20    -0.01   0.01  -0.04    -0.04   0.04  -0.17
  10   1     0.16  -0.49  -0.35    -0.03   0.08   0.05    -0.08   0.15   0.10
  11   1     0.11  -0.01   0.03     0.23  -0.06   0.05     0.85  -0.23   0.20
  12   1     0.00   0.00  -0.01    -0.00   0.00  -0.02     0.00  -0.00   0.02
  13   1     0.20  -0.08   0.06    -0.80   0.22  -0.22     0.24  -0.07   0.07
  14   1     0.40   0.50  -0.14     0.24   0.25  -0.06    -0.03  -0.02   0.01
  15   1    -0.02  -0.03   0.05     0.02  -0.04   0.14    -0.01   0.01  -0.06
  16   1     0.00  -0.00   0.01    -0.00   0.00  -0.00     0.00  -0.00   0.00
  17   1     0.00  -0.01  -0.00     0.00   0.00   0.00     0.00  -0.00  -0.00
