! r2scan-3c def2/J RI DEFGRID2 scfconv6 printgap
%output
    printlevel normal
end
%cpcm
    smd true
    smdsolvent "water"
end
* xyz 0 1
C -4.3245657598 -0.9377594019 -0.0610689945
C -3.2693835252 0.03339364 0.454897087
C -1.8680846653 -0.3728271902 -0.0053719414
C -0.8383111293 0.6052341912 0.517625128
I 1.1802774932 0.0793747468 -0.1022250871
H -4.1288836954 -1.9430928916 0.3042048206
H -5.3128872749 -0.635540704 0.2747259164
H -4.3221427932 -0.9613291903 -1.1481905744
H -3.2989454015 0.057512538 1.546286304
H -3.4918550161 1.0394517949 0.0930537183
H -1.6451350656 -1.3785537303 0.3575922053
H -1.8384130391 -0.3972353868 -1.0968991831
H -0.8157223693 0.622674737 1.6040474989
H -1.0084160279 1.6095961575 0.1388306879
*
