      -----------------------------------------------------------      
     |                   =====================                   |     
     |                           x T B                           |     
     |                   =====================                   |     
     |                         S. Grimme                         |     
     |          Mulliken Center for Theoretical Chemistry        |     
     |                    University of Bonn                     |     
      -----------------------------------------------------------      

   * xtb version 6.7.1 (edcfbbe) compiled by 'albert@albert-system' on 2024-07-22

   xtb is free software: you can redistribute it and/or modify it under
   the terms of the GNU Lesser General Public License as published by
   the Free Software Foundation, either version 3 of the License, or
   (at your option) any later version.
   
   xtb is distributed in the hope that it will be useful,
   but WITHOUT ANY WARRANTY; without even the implied warranty of
   MERCHANTABILITY or FITNESS FOR A PARTICULAR PURPOSE.  See the
   GNU Lesser General Public License for more details.
   
   Cite this work as:
   * C. Bannwarth, E. Caldeweyher, S. Ehlert, A. Hansen, P. Pracht,
     J. Seibert, S. Spicher, S. Grimme, WIREs Comput. Mol. Sci., 2020, 11,
     e01493. DOI: 10.1002/wcms.1493
   
   for GFN2-xTB:
   * C. Bannwarth, S. Ehlert and S. Grimme., J. Chem. Theory Comput., 2019,
     15, 1652-1671. DOI: 10.1021/acs.jctc.8b01176
   for GFN1-xTB:
   * S. Grimme, C. Bannwarth, P. Shushkov, J. Chem. Theory Comput., 2017,
     13, 1989-2009. DOI: 10.1021/acs.jctc.7b00118
   for GFN0-xTB:
   * P. Pracht, E. Caldeweyher, S. Ehlert, S. Grimme, ChemRxiv, 2019, preprint.
     DOI: 10.26434/chemrxiv.8326202.v1
   for GFN-FF:
   * S. Spicher and S. Grimme, Angew. Chem. Int. Ed., 2020, 59, 15665-15673.
     DOI: 10.1002/anie.202004239
   
   for ALPB and GBSA implicit solvation:
   * S. Ehlert, M. Stahn, S. Spicher, S. Grimme, J. Chem. Theory Comput.,
     2021, 17, 4250-4261. DOI: 10.1021/acs.jctc.1c00471
   
   for ddCOSMO and CPCM-X implicit solvation:
   * M. Stahn, S. Ehlert, S. Grimme, J. Phys. Chem. A,
     2023, XX, XXXX-XXXX. DOI: 10.1021/acs.jpca.3c04382
   
   for DFT-D4:
   * E. Caldeweyher, C. Bannwarth and S. Grimme, J. Chem. Phys., 2017,
     147, 034112. DOI: 10.1063/1.4993215
   * E. Caldeweyher, S. Ehlert, A. Hansen, H. Neugebauer, S. Spicher,
     C. Bannwarth and S. Grimme, J. Chem. Phys., 2019, 150, 154122.
     DOI: 10.1063/1.5090222
   * E. Caldeweyher, J.-M. Mewes, S. Ehlert and S. Grimme, Phys. Chem. Chem. Phys.
     2020, 22, 8499-8512. DOI: 10.1039/D0CP00502A
   
   for sTDA-xTB:
   * S. Grimme and C. Bannwarth, J. Chem. Phys., 2016, 145, 054103.
     DOI: 10.1063/1.4959605
   
   in the mass-spec context:
   * V. Asgeirsson, C. Bauer and S. Grimme, Chem. Sci., 2017, 8, 4879.
     DOI: 10.1039/c7sc00601b
   * J. Koopman and S. Grimme, ACS Omega 2019, 4, 12, 15120-15133.
     DOI: 10.1021/acsomega.9b02011
   
   for metadynamics refer to:
   * S. Grimme, J. Chem. Theory Comput., 2019, 155, 2847-2862
     DOI: 10.1021/acs.jctc.9b00143
   
   for SPH calculations refer to:
   * S. Spicher and S. Grimme, J. Chem. Theory Comput., 2021, 17, 1701-1714
     DOI: 10.1021/acs.jctc.0c01306
   
   for ONIOM refer to:
   * C. Plett, A. Katbashev, S. Ehlert, S. Grimme, M. Bursch,
     Phys. Chem. Chem. Phys., 2023, 25, 17860-17868. DOI: 10.1039/D3CP02178E
   
   for DIPRO refer to:
   * J. Kohn, N. Gildemeister, S. Grimme, D. Fazzi, A. Hansen,
     J. Chem. Phys., 2023, just accepted.
   
   for PTB refer to:
   * S. Grimme, M. Mueller, A. Hansen, J. Chem. Phys., 2023, 158, 124111.
     DOI: 10.1063/5.0137838
   
   with help from (in alphabetical order)
   P. Atkinson, C. Bannwarth, F. Bohle, G. Brandenburg, E. Caldeweyher
   M. Checinski, S. Dohm, S. Ehlert, S. Ehrlich, I. Gerasimov, C. Hölzer
   A. Katbashev, J. Kohn, J. Koopman, C. Lavigne, S. Lehtola, F. März, M. Müller,
   F. Musil, H. Neugebauer, J. Pisarek, C. Plett, P. Pracht, F. Pultar,
   J. Seibert, P. Shushkov, S. Spicher, M. Stahn, M. Steiner, T. Strunk,
   J. Stückrath, T. Rose, and J. Unsleber
   
 * started run on 2025/04/11 at 14:13:37.554     
   ID    Z sym.   atoms
    1    6 C      1-7
    2    1 H      8-23

           -------------------------------------------------
          |                Calculation Setup                |
           -------------------------------------------------

          program call               : /software/projects/pawsey0265/mwang1/xtb/bin/xtb solv.coord --gfn2 --sp --chrg 0 --norestart --parallel 1 --alpb water reference -I xtb_sp-xcontrol-inp
          hostname                   : nid001220
          coordinate file            : solv.coord
          omp threads                :                     1


           -------------------------------------------------
          |                 G F N 2 - x T B                 |
           -------------------------------------------------

        Reference                      10.1021/acs.jctc.8b01176
      * Hamiltonian:
        H0-scaling (s, p, d)           1.850000    2.230000    2.230000
        zeta-weighting                 0.500000
      * Dispersion:
        s8                             2.700000
        a1                             0.520000
        a2                             5.000000
        s9                             5.000000
      * Repulsion:
        kExp                           1.500000    1.000000
        rExp                           1.000000
      * Coulomb:
        alpha                          2.000000
        third order                    shell-resolved
        anisotropic                    true
        a3                             3.000000
        a5                             4.000000
        cn-shift                       1.200000
        cn-exp                         4.000000
        max-rad                        5.000000

      * Solvation model:               ALPB
        Solvent                        water
        Parameter file                 internal GFN2-xTB/ALPB
        Dielectric constant                8.0200E+01
        Reference state                gsolv=reference [X=1]
        Free energy shift                  2.8945E-03 Eh       1.8164E+00 kcal/mol
        Temperature                        2.9815E+02 K
        Density                            1.0000E+00 kg/L
        Solvent mass                       1.8000E+01 g/mol
        Interaction kernel             P16
        Born radius scaling (c1)           1.4744E+00
        Born radii integrator          GBOBC
        Born offset                        0.0000E+00 a0       0.0000E+00 AA
        H-bond correction              true
        Ion screening                  false
        Surface tension                    1.0000E-05 Eh       1.5569E+01 dyn/cm
        Grid points                               974 per atom

          ...................................................
          :                      SETUP                      :
          :.................................................:
          :  # basis functions                  44          :
          :  # atomic orbitals                  44          :
          :  # shells                           30          :
          :  # electrons                        44          :
          :  max. iterations                   250          :
          :  Hamiltonian                  GFN2-xTB          :
          :  restarted?                      false          :
          :  GBSA solvation                   true          :
          :  PC potential                    false          :
          :  electronic temp.          300.0000000     K    :
          :  accuracy                    1.0000000          :
          :  -> integral cutoff          0.2500000E+02      :
          :  -> integral neglect         0.1000000E-07      :
          :  -> SCF convergence          0.1000000E-05 Eh   :
          :  -> wf. convergence          0.1000000E-03 e    :
          :  Broyden damping             0.4000000          :
          :  net charge                          0          :
          :  unpaired electrons                  0          :
          ...................................................

 iter      E             dE          RMSdq      gap      omega  full diag
   1    -23.4636033 -0.234636E+02  0.233E+00   13.05       0.0  T
   2    -23.5042865 -0.406832E-01  0.125E+00   12.97       1.0  T
   3    -23.5054713 -0.118481E-02  0.600E-01   12.96       1.0  T
   4    -23.5056134 -0.142105E-03  0.986E-02   12.96       1.0  T
   5    -23.5056486 -0.352714E-04  0.506E-02   12.96       1.0  T
   6    -23.5056490 -0.335086E-06  0.323E-03   12.96       6.5  T
   7    -23.5056491 -0.928371E-07  0.108E-03   12.96      19.4  T
   8    -23.5056491 -0.114903E-08  0.463E-04   12.96      45.0  T
   9    -23.5056491 -0.431804E-09  0.131E-04   12.96     159.6  T

   *** convergence criteria satisfied after 9 iterations ***

         #    Occupation            Energy/Eh            Energy/eV
      -------------------------------------------------------------
         1        2.0000           -0.6226404             -16.9429
       ...           ...                  ...                  ...
        16        2.0000           -0.4489609             -12.2168
        17        2.0000           -0.4376367             -11.9087
        18        2.0000           -0.4348284             -11.8323
        19        2.0000           -0.4267846             -11.6134
        20        2.0000           -0.4159364             -11.3182
        21        2.0000           -0.4147546             -11.2860
        22        2.0000           -0.4124666             -11.2238 (HOMO)
        23                          0.0638912               1.7386 (LUMO)
        24                          0.0948980               2.5823
        25                          0.1045139               2.8440
        26                          0.1120794               3.0498
        27                          0.1320760               3.5940
       ...                                ...                  ...
        44                          0.3289644               8.9516
      -------------------------------------------------------------
                  HL-Gap            0.4763578 Eh           12.9624 eV
             Fermi-level           -0.1742877 Eh           -4.7426 eV

 SCC (total)                   0 d,  0 h,  0 min,  0.036 sec
 SCC setup                      ...        0 min,  0.004 sec ( 12.304%)
 Dispersion                     ...        0 min,  0.000 sec (  0.650%)
 classical contributions        ...        0 min,  0.000 sec (  0.156%)
 integral evaluation            ...        0 min,  0.003 sec (  9.240%)
 iterations                     ...        0 min,  0.020 sec ( 56.257%)
 molecular gradient             ...        0 min,  0.008 sec ( 20.916%)
 printout                       ...        0 min,  0.000 sec (  0.396%)

         :::::::::::::::::::::::::::::::::::::::::::::::::::::
         ::                     SUMMARY                     ::
         :::::::::::::::::::::::::::::::::::::::::::::::::::::
         :: total energy             -23.154387142460 Eh    ::
         :: total w/o Gsasa/hb       -23.155830764316 Eh    ::
         :: gradient norm              0.000130625508 Eh/a0 ::
         :: HOMO-LUMO gap             12.962355613994 eV    ::
         ::.................................................::
         :: SCC energy               -23.505586805919 Eh    ::
         :: -> isotropic ES            0.005466996562 Eh    ::
         :: -> anisotropic ES          0.007719655012 Eh    ::
         :: -> anisotropic XC          0.014483059263 Eh    ::
         :: -> dispersion             -0.013984958706 Eh    ::
         :: -> Gsolv                   0.001295249676 Eh    ::
         ::    -> Gelec               -0.000148372180 Eh    ::
         ::    -> Gsasa               -0.000951581902 Eh    ::
         ::    -> Ghb                 -0.000499345402 Eh    ::
         ::    -> Gshift               0.002894549160 Eh    ::
         :: repulsion energy           0.351199663459 Eh    ::
         :: add. restraining           0.000000000000 Eh    ::
         :: total charge              -0.000000000000 e     ::
         :::::::::::::::::::::::::::::::::::::::::::::::::::::

           -------------------------------------------------
          |                Property Printout                |
           -------------------------------------------------

    * Orbital Energies and Occupations

         #    Occupation            Energy/Eh            Energy/eV
      -------------------------------------------------------------
         1        2.0000           -0.6226404             -16.9429
       ...           ...                  ...                  ...
        10        2.0000           -0.5043251             -13.7234
        11        2.0000           -0.4834750             -13.1560
        12        2.0000           -0.4785369             -13.0217
        13        2.0000           -0.4713815             -12.8269
        14        2.0000           -0.4583785             -12.4731
        15        2.0000           -0.4526813             -12.3181
        16        2.0000           -0.4489609             -12.2168
        17        2.0000           -0.4376367             -11.9087
        18        2.0000           -0.4348284             -11.8323
        19        2.0000           -0.4267846             -11.6134
        20        2.0000           -0.4159364             -11.3182
        21        2.0000           -0.4147546             -11.2860
        22        2.0000           -0.4124666             -11.2238 (HOMO)
        23                          0.0638912               1.7386 (LUMO)
        24                          0.0948980               2.5823
        25                          0.1045139               2.8440
        26                          0.1120794               3.0498
        27                          0.1320760               3.5940
        28                          0.1392077               3.7880
        29                          0.1458032               3.9675
        30                          0.1590703               4.3285
        31                          0.1640026               4.4627
        32                          0.1751743               4.7667
        33                          0.1834157               4.9910
       ...                                ...                  ...
        44                          0.3289644               8.9516
      -------------------------------------------------------------
                  HL-Gap            0.4763578 Eh           12.9624 eV
             Fermi-level           -0.1742877 Eh           -4.7426 eV

     #   Z          covCN         q      C6AA      α(0)
     1   6 C        3.752    -0.110    22.659     6.788
     2   6 C        3.800    -0.057    21.596     6.617
     3   6 C        3.800    -0.063    21.705     6.633
     4   6 C        3.804    -0.068    21.799     6.647
     5   6 C        3.849    -0.013    20.778     6.484
     6   6 C        3.756    -0.113    22.725     6.797
     7   6 C        3.756    -0.111    22.679     6.790
     8   1 H        0.925     0.035     2.521     2.483
     9   1 H        0.925     0.034     2.530     2.488
    10   1 H        0.925     0.037     2.484     2.465
    11   1 H        0.924     0.027     2.628     2.535
    12   1 H        0.924     0.033     2.544     2.494
    13   1 H        0.924     0.032     2.564     2.504
    14   1 H        0.924     0.030     2.581     2.512
    15   1 H        0.924     0.030     2.591     2.517
    16   1 H        0.924     0.038     2.472     2.459
    17   1 H        0.924     0.025     2.666     2.553
    18   1 H        0.925     0.034     2.537     2.491
    19   1 H        0.925     0.037     2.494     2.469
    20   1 H        0.925     0.037     2.488     2.467
    21   1 H        0.925     0.037     2.486     2.466
    22   1 H        0.925     0.036     2.500     2.473
    23   1 H        0.925     0.034     2.536     2.490

 Mol. C6AA /au·bohr⁶  :       3390.047163
 Mol. C8AA /au·bohr⁸  :      70106.178362
 Mol. α(0) /au        :         86.620927


Wiberg/Mayer (AO) data.
largest (>0.10) Wiberg bond orders for each atom

 ---------------------------------------------------------------------------
     #   Z sym  total        # sym  WBO       # sym  WBO       # sym  WBO
 ---------------------------------------------------------------------------
     1   6 C    3.997 --     2 C    1.020     8 H    0.988     9 H    0.987
                            10 H    0.986
     2   6 C    3.998 --     1 C    1.020     3 C    1.009    11 H    0.979
                            12 H    0.978
     3   6 C    3.997 --     2 C    1.009     4 C    1.003    14 H    0.980
                            13 H    0.975
     4   6 C    3.996 --     3 C    1.003     5 C    0.997    15 H    0.980
                            16 H    0.974
     5   6 C    3.996 --     7 C    1.010     6 C    1.008     4 C    0.997
                            17 H    0.969
     6   6 C    3.996 --     5 C    1.008    19 H    0.987    18 H    0.987
                            20 H    0.986
     7   6 C    3.997 --     5 C    1.010    23 H    0.987    22 H    0.986
                            21 H    0.984
     8   1 H    0.999 --     1 C    0.988
     9   1 H    0.999 --     1 C    0.987
    10   1 H    0.999 --     1 C    0.986
    11   1 H    0.999 --     2 C    0.979
    12   1 H    0.999 --     2 C    0.978
    13   1 H    0.999 --     3 C    0.975
    14   1 H    0.999 --     3 C    0.980
    15   1 H    0.999 --     4 C    0.980
    16   1 H    0.999 --     4 C    0.974
    17   1 H    0.999 --     5 C    0.969
    18   1 H    0.999 --     6 C    0.987
    19   1 H    0.999 --     6 C    0.987
    20   1 H    0.998 --     6 C    0.986
    21   1 H    0.999 --     7 C    0.984
    22   1 H    0.999 --     7 C    0.986
    23   1 H    0.999 --     7 C    0.987
 ---------------------------------------------------------------------------

Topologies differ in total number of bonds
Writing topology from bond orders to xtbtopo.mol

molecular dipole:
                 x           y           z       tot (Debye)
 q only:       -0.004      -0.006      -0.038
   full:       -0.005      -0.005      -0.030       0.079
molecular quadrupole (traceless):
                xx          xy          yy          xz          yz          zz
 q only:        0.007       0.027       0.081       0.011      -0.087      -0.088
  q+dip:       -0.592       0.286      -0.267       0.171       0.181       0.859
   full:       -0.242       0.132      -0.123       0.113       0.048       0.365


           -------------------------------------------------
          | TOTAL ENERGY              -23.154387142460 Eh   |
          | GRADIENT NORM               0.000130625508 Eh/α |
          | HOMO-LUMO GAP              12.962355613994 eV   |
           -------------------------------------------------

------------------------------------------------------------------------
 * finished run on 2025/04/11 at 14:13:37.641     
------------------------------------------------------------------------
 total:
 * wall-time:     0 d,  0 h,  0 min,  0.085 sec
 *  cpu-time:     0 d,  0 h,  0 min,  0.048 sec
 * ratio c/w:     0.565 speedup
 SCF:
 * wall-time:     0 d,  0 h,  0 min,  0.037 sec
 *  cpu-time:     0 d,  0 h,  0 min,  0.032 sec
 * ratio c/w:     0.878 speedup

