! pbe def2-sv(p) def2/J RI DEFGRID1 loosescf d4 GCP(DFT/SV(P)) printgap
%output
    printlevel normal
end
* xyz 0 1
C -2.0065860505 -1.5714759636 0.0384253679
C -2.3780182086 -0.1010348042 0.1854838806
C -1.4213058045 0.8084313514 -0.5968253187
C -0.0418409958 0.7547334378 0.0066910928
O 0.2399043081 1.1472236989 1.1201705936
O 0.8395734995 0.2210768082 -0.8296352306
C 2.1994687486 0.0717671883 -0.3892494737
C 2.3840435431 -1.2139006652 0.40263449
H -2.0085499188 -1.8621152509 -1.0092964427
H -1.0144133457 -1.7580156458 0.4442448091
H -2.7172634353 -2.1960066185 0.5731134562
H -2.3481663892 0.1846881724 1.2388837483
H -3.3911966076 0.0593310198 -0.1841130695
H -1.7724143857 1.8390522651 -0.5349386123
H -1.3613616141 0.4985973298 -1.6391178329
H 2.7854007762 0.0596844692 -1.3085535309
H 2.4655036046 0.9401030525 0.2212554284
H 1.7998167288 -1.1732937429 1.3196050672
H 2.0610474747 -2.0674088546 -0.187613056
H 3.4317237163 -1.3313107022 0.6593163095
*
