26
 xtb: 6.7.1 (edcfbbe)
C            3.10489713838584       -0.59351808718269       -1.24267480375103
C            1.84394426067338       -0.47262388610033       -0.38727665992620
C            1.72036825012013       -1.70414409053943        0.51848036430815
C            0.66791167113410       -0.27331680738786       -1.31051381572145
N           -0.59466327731088       -0.27698645929880       -1.11398618017709
O           -0.92040651172647       -0.52865502509896        0.25637544260566
C           -2.26923186627112       -0.42274407401752        0.54867474518897
O           -2.58306165349973       -0.67165350291530        1.71047848975051
N           -3.09767906948251       -0.04983759310925       -0.42714183888841
C           -4.53344905670017        0.03790372799377       -0.18498782654883
S            1.94967293636672        1.00765815011126        0.75234047222731
C            2.27381805814032        2.37841345142696       -0.41288101359701
H            3.98856543209146       -0.66969417443631       -0.60453254982225
H            3.03709177881084       -1.49992169380499       -1.85621232223625
H            3.22510665691239        0.25888935037384       -1.91650839848430
H            0.95957169144621       -1.59124094517917        1.29092690876939
H            2.68580082882437       -1.88898289561977        0.99806096883545
H            1.46745426095119       -2.57691140881167       -0.09217428165899
H            0.90071045790738       -0.07366351054151       -2.35762743843519
H           -2.72626176251287        0.07975564474013       -1.35605382745052
H           -4.96453279842284       -0.94693183842606        0.02347867945618
H           -5.00372765301854        0.44806727863281       -1.07932866453305
H           -4.74206353214421        0.70091968246165        0.65911789937126
H            1.50296902561816        2.43151707215838       -1.18661529046702
H            3.26403879799144        2.30060867280623       -0.86760199452749
H            2.23117319272540        3.29606398091566        0.18048610818900
