! pbe def2-sv(p) def2/J RI DEFGRID1 loosescf d4 GCP(DFT/SV(P)) printgap
%output
    printlevel normal
end
* xyz 0 1
C -4.6376373311 -0.9509115653 -0.3129621053
C -3.9726843646 -2.1552806882 -0.1280319671
C -2.6019534779 -2.1689249609 0.0503195876
C -1.8707617315 -0.9826776958 0.0465508969
C -2.5428580325 0.2301666438 -0.140392849
C -3.9252851322 0.2331488257 -0.3185579617
C -1.8076806655 1.5010477046 -0.1529328789
O -2.386548515 2.575120374 -0.3106989003
C -0.3489052595 1.4269460468 0.0299487926
C 0.3475249169 2.6221187922 -0.0105078786
C 1.7329368955 2.636292575 0.1332401586
C 2.4164103021 1.4687499414 0.3370937562
C 1.7458166635 0.2233826932 0.4112968995
C 0.3264714644 0.1990829947 0.2349693993
C -0.4087520193 -1.0455952074 0.2443877253
O 0.1250962785 -2.1591932769 0.4031915138
N 2.4131508044 -0.9097407413 0.6635975132
C 3.8354478179 -1.075394649 0.8149267809
C 4.5638063276 -1.2469094576 -0.5260621814
O 4.6592348896 0.0081593905 -1.1671391335
H -5.707156557 -0.9372398004 -0.4520743544
H -4.5240426211 -3.0824586878 -0.1227380518
H -2.0666029602 -3.0953770219 0.196734933
H -4.4156191105 1.1849647161 -0.4603509457
H -0.208783246 3.5334993777 -0.1680015085
H 2.2659749941 3.5723883412 0.0784339498
H 3.4900383291 1.4873095654 0.4090760162
H 1.8484364352 -1.7563470159 0.6175395141
H 3.9968239161 -1.9742103401 1.4108356138
H 4.2651197073 -0.2217418731 1.3411984852
H 4.0082501585 -1.9592566341 -1.1487378082
H 5.5657725823 -1.6493546194 -0.3293990627
H 5.0669749025 -0.0983415911 -2.0356698725
*
