      -----------------------------------------------------------      
     |                   =====================                   |     
     |                           x T B                           |     
     |                   =====================                   |     
     |                         S. Grimme                         |     
     |          Mulliken Center for Theoretical Chemistry        |     
     |                    University of Bonn                     |     
      -----------------------------------------------------------      

   * xtb version 6.7.1 (edcfbbe) compiled by 'albert@albert-system' on 2024-07-22

   xtb is free software: you can redistribute it and/or modify it under
   the terms of the GNU Lesser General Public License as published by
   the Free Software Foundation, either version 3 of the License, or
   (at your option) any later version.
   
   xtb is distributed in the hope that it will be useful,
   but WITHOUT ANY WARRANTY; without even the implied warranty of
   MERCHANTABILITY or FITNESS FOR A PARTICULAR PURPOSE.  See the
   GNU Lesser General Public License for more details.
   
   Cite this work as:
   * C. Bannwarth, E. Caldeweyher, S. Ehlert, A. Hansen, P. Pracht,
     J. Seibert, S. Spicher, S. Grimme, WIREs Comput. Mol. Sci., 2020, 11,
     e01493. DOI: 10.1002/wcms.1493
   
   for GFN2-xTB:
   * C. Bannwarth, S. Ehlert and S. Grimme., J. Chem. Theory Comput., 2019,
     15, 1652-1671. DOI: 10.1021/acs.jctc.8b01176
   for GFN1-xTB:
   * S. Grimme, C. Bannwarth, P. Shushkov, J. Chem. Theory Comput., 2017,
     13, 1989-2009. DOI: 10.1021/acs.jctc.7b00118
   for GFN0-xTB:
   * P. Pracht, E. Caldeweyher, S. Ehlert, S. Grimme, ChemRxiv, 2019, preprint.
     DOI: 10.26434/chemrxiv.8326202.v1
   for GFN-FF:
   * S. Spicher and S. Grimme, Angew. Chem. Int. Ed., 2020, 59, 15665-15673.
     DOI: 10.1002/anie.202004239
   
   for ALPB and GBSA implicit solvation:
   * S. Ehlert, M. Stahn, S. Spicher, S. Grimme, J. Chem. Theory Comput.,
     2021, 17, 4250-4261. DOI: 10.1021/acs.jctc.1c00471
   
   for ddCOSMO and CPCM-X implicit solvation:
   * M. Stahn, S. Ehlert, S. Grimme, J. Phys. Chem. A,
     2023, XX, XXXX-XXXX. DOI: 10.1021/acs.jpca.3c04382
   
   for DFT-D4:
   * E. Caldeweyher, C. Bannwarth and S. Grimme, J. Chem. Phys., 2017,
     147, 034112. DOI: 10.1063/1.4993215
   * E. Caldeweyher, S. Ehlert, A. Hansen, H. Neugebauer, S. Spicher,
     C. Bannwarth and S. Grimme, J. Chem. Phys., 2019, 150, 154122.
     DOI: 10.1063/1.5090222
   * E. Caldeweyher, J.-M. Mewes, S. Ehlert and S. Grimme, Phys. Chem. Chem. Phys.
     2020, 22, 8499-8512. DOI: 10.1039/D0CP00502A
   
   for sTDA-xTB:
   * S. Grimme and C. Bannwarth, J. Chem. Phys., 2016, 145, 054103.
     DOI: 10.1063/1.4959605
   
   in the mass-spec context:
   * V. Asgeirsson, C. Bauer and S. Grimme, Chem. Sci., 2017, 8, 4879.
     DOI: 10.1039/c7sc00601b
   * J. Koopman and S. Grimme, ACS Omega 2019, 4, 12, 15120-15133.
     DOI: 10.1021/acsomega.9b02011
   
   for metadynamics refer to:
   * S. Grimme, J. Chem. Theory Comput., 2019, 155, 2847-2862
     DOI: 10.1021/acs.jctc.9b00143
   
   for SPH calculations refer to:
   * S. Spicher and S. Grimme, J. Chem. Theory Comput., 2021, 17, 1701-1714
     DOI: 10.1021/acs.jctc.0c01306
   
   for ONIOM refer to:
   * C. Plett, A. Katbashev, S. Ehlert, S. Grimme, M. Bursch,
     Phys. Chem. Chem. Phys., 2023, 25, 17860-17868. DOI: 10.1039/D3CP02178E
   
   for DIPRO refer to:
   * J. Kohn, N. Gildemeister, S. Grimme, D. Fazzi, A. Hansen,
     J. Chem. Phys., 2023, just accepted.
   
   for PTB refer to:
   * S. Grimme, M. Mueller, A. Hansen, J. Chem. Phys., 2023, 158, 124111.
     DOI: 10.1063/5.0137838
   
   with help from (in alphabetical order)
   P. Atkinson, C. Bannwarth, F. Bohle, G. Brandenburg, E. Caldeweyher
   M. Checinski, S. Dohm, S. Ehlert, S. Ehrlich, I. Gerasimov, C. Hölzer
   A. Katbashev, J. Kohn, J. Koopman, C. Lavigne, S. Lehtola, F. März, M. Müller,
   F. Musil, H. Neugebauer, J. Pisarek, C. Plett, P. Pracht, F. Pultar,
   J. Seibert, P. Shushkov, S. Spicher, M. Stahn, M. Steiner, T. Strunk,
   J. Stückrath, T. Rose, and J. Unsleber
   
 * started run on 2025/04/11 at 16:11:56.609     
   ID    Z sym.   atoms
    1    6 C      1-5
    2    8 O      6, 7
    3    1 H      8-17

           -------------------------------------------------
          |                Calculation Setup                |
           -------------------------------------------------

          program call               : /srv/scratch/z5358697/.xtb/bin/xtb solv.coord --gfn2 --sp --chrg 0 --norestart --parallel 1 --alpb water reference -I xtb_sp-xcontrol-inp
          hostname                   : k018
          coordinate file            : solv.coord
          omp threads                :                     1


           -------------------------------------------------
          |                 G F N 2 - x T B                 |
           -------------------------------------------------

        Reference                      10.1021/acs.jctc.8b01176
      * Hamiltonian:
        H0-scaling (s, p, d)           1.850000    2.230000    2.230000
        zeta-weighting                 0.500000
      * Dispersion:
        s8                             2.700000
        a1                             0.520000
        a2                             5.000000
        s9                             5.000000
      * Repulsion:
        kExp                           1.500000    1.000000
        rExp                           1.000000
      * Coulomb:
        alpha                          2.000000
        third order                    shell-resolved
        anisotropic                    true
        a3                             3.000000
        a5                             4.000000
        cn-shift                       1.200000
        cn-exp                         4.000000
        max-rad                        5.000000

      * Solvation model:               ALPB
        Solvent                        water
        Parameter file                 internal GFN2-xTB/ALPB
        Dielectric constant                8.0200E+01
        Reference state                gsolv=reference [X=1]
        Free energy shift                  2.8945E-03 Eh       1.8164E+00 kcal/mol
        Temperature                        2.9815E+02 K
        Density                            1.0000E+00 kg/L
        Solvent mass                       1.8000E+01 g/mol
        Interaction kernel             P16
        Born radius scaling (c1)           1.4744E+00
        Born radii integrator          GBOBC
        Born offset                        0.0000E+00 a0       0.0000E+00 AA
        H-bond correction              true
        Ion screening                  false
        Surface tension                    1.0000E-05 Eh       1.5569E+01 dyn/cm
        Grid points                               974 per atom

          ...................................................
          :                      SETUP                      :
          :.................................................:
          :  # basis functions                  38          :
          :  # atomic orbitals                  38          :
          :  # shells                           24          :
          :  # electrons                        42          :
          :  max. iterations                   250          :
          :  Hamiltonian                  GFN2-xTB          :
          :  restarted?                      false          :
          :  GBSA solvation                   true          :
          :  PC potential                    false          :
          :  electronic temp.          300.0000000     K    :
          :  accuracy                    1.0000000          :
          :  -> integral cutoff          0.2500000E+02      :
          :  -> integral neglect         0.1000000E-07      :
          :  -> SCF convergence          0.1000000E-05 Eh   :
          :  -> wf. convergence          0.1000000E-03 e    :
          :  Broyden damping             0.4000000          :
          :  net charge                          0          :
          :  unpaired electrons                  0          :
          ...................................................

 iter      E             dE          RMSdq      gap      omega  full diag
   1    -24.1814040 -0.241814E+02  0.383E+00    5.62       0.0  T
   2    -24.2323145 -0.509105E-01  0.190E+00    4.77       1.0  T
   3    -24.2341315 -0.181699E-02  0.995E-01    5.06       1.0  T
   4    -24.2353425 -0.121101E-02  0.160E-01    4.85       1.0  T
   5    -24.2354797 -0.137178E-03  0.736E-02    4.89       1.0  T
   6    -24.2354816 -0.196453E-05  0.208E-02    4.88       1.2  T
   7    -24.2354828 -0.115210E-05  0.526E-03    4.89       4.6  T
   8    -24.2354828 -0.463883E-07  0.289E-03    4.89       8.4  T
   9    -24.2354828 -0.996638E-08  0.539E-04    4.89      45.0  T
  10    -24.2354828 -0.182748E-08  0.182E-04    4.89     132.9  T

   *** convergence criteria satisfied after 10 iterations ***

         #    Occupation            Energy/Eh            Energy/eV
      -------------------------------------------------------------
         1        2.0000           -0.7458651             -20.2960
       ...           ...                  ...                  ...
        15        2.0000           -0.4785415             -13.0218
        16        2.0000           -0.4689237             -12.7601
        17        2.0000           -0.4530217             -12.3273
        18        2.0000           -0.4447680             -12.1028
        19        2.0000           -0.4349370             -11.8352
        20        2.0000           -0.4277783             -11.6404
        21        2.0000           -0.4189102             -11.3991 (HOMO)
        22                         -0.2392492              -6.5103 (LUMO)
        23                          0.0645763               1.7572
        24                          0.0767682               2.0890
        25                          0.1190797               3.2403
        26                          0.1223018               3.3280
       ...                                ...                  ...
        38                          0.6061263              16.4935
      -------------------------------------------------------------
                  HL-Gap            0.1796609 Eh            4.8888 eV
             Fermi-level           -0.3290797 Eh           -8.9547 eV

 SCC (total)                   0 d,  0 h,  0 min,  0.018 sec
 SCC setup                      ...        0 min,  0.001 sec (  5.817%)
 Dispersion                     ...        0 min,  0.000 sec (  0.459%)
 classical contributions        ...        0 min,  0.000 sec (  0.108%)
 integral evaluation            ...        0 min,  0.001 sec (  7.045%)
 iterations                     ...        0 min,  0.012 sec ( 64.907%)
 molecular gradient             ...        0 min,  0.004 sec ( 20.687%)
 printout                       ...        0 min,  0.000 sec (  0.888%)

         :::::::::::::::::::::::::::::::::::::::::::::::::::::
         ::                     SUMMARY                     ::
         :::::::::::::::::::::::::::::::::::::::::::::::::::::
         :: total energy             -23.962626036903 Eh    ::
         :: total w/o Gsasa/hb       -23.958367653622 Eh    ::
         :: gradient norm              0.000058704736 Eh/a0 ::
         :: HOMO-LUMO gap              4.888822674480 eV    ::
         ::.................................................::
         :: SCC energy               -24.235452855077 Eh    ::
         :: -> isotropic ES            0.066681059514 Eh    ::
         :: -> anisotropic ES          0.001946520608 Eh    ::
         :: -> anisotropic XC          0.005822337653 Eh    ::
         :: -> dispersion             -0.009664040255 Eh    ::
         :: -> Gsolv                  -0.014601955697 Eh    ::
         ::    -> Gelec               -0.010343572416 Eh    ::
         ::    -> Gsasa                0.002393352392 Eh    ::
         ::    -> Ghb                 -0.009546284833 Eh    ::
         ::    -> Gshift               0.002894549160 Eh    ::
         :: repulsion energy           0.272826818174 Eh    ::
         :: add. restraining           0.000000000000 Eh    ::
         :: total charge              -0.000000000000 e     ::
         :::::::::::::::::::::::::::::::::::::::::::::::::::::

           -------------------------------------------------
          |                Property Printout                |
           -------------------------------------------------

    * Orbital Energies and Occupations

         #    Occupation            Energy/Eh            Energy/eV
      -------------------------------------------------------------
         1        2.0000           -0.7458651             -20.2960
       ...           ...                  ...                  ...
         9        2.0000           -0.5628244             -15.3152
        10        2.0000           -0.5472140             -14.8905
        11        2.0000           -0.5158590             -14.0372
        12        2.0000           -0.5001421             -13.6096
        13        2.0000           -0.4952134             -13.4754
        14        2.0000           -0.4898694             -13.3300
        15        2.0000           -0.4785415             -13.0218
        16        2.0000           -0.4689237             -12.7601
        17        2.0000           -0.4530217             -12.3273
        18        2.0000           -0.4447680             -12.1028
        19        2.0000           -0.4349370             -11.8352
        20        2.0000           -0.4277783             -11.6404
        21        2.0000           -0.4189102             -11.3991 (HOMO)
        22                         -0.2392492              -6.5103 (LUMO)
        23                          0.0645763               1.7572
        24                          0.0767682               2.0890
        25                          0.1190797               3.2403
        26                          0.1223018               3.3280
        27                          0.1471921               4.0053
        28                          0.1602106               4.3596
        29                          0.1702687               4.6332
        30                          0.1830917               4.9822
        31                          0.1942032               5.2845
        32                          0.2118904               5.7658
       ...                                ...                  ...
        38                          0.6061263              16.4935
      -------------------------------------------------------------
                  HL-Gap            0.1796609 Eh            4.8888 eV
             Fermi-level           -0.3290797 Eh           -8.9547 eV

     #   Z          covCN         q      C6AA      α(0)
     1   6 C        3.752    -0.115    22.757     6.803
     2   6 C        3.801    -0.056    21.580     6.614
     3   6 C        3.804    -0.063    21.705     6.633
     4   6 C        3.804    -0.099    22.394     6.737
     5   6 C        2.690     0.373    20.685     7.443
     6   8 O        0.856    -0.497    23.729     6.531
     7   8 O        1.659    -0.411    21.053     6.194
     8   1 H        0.925     0.041     2.433     2.439
     9   1 H        0.925     0.041     2.440     2.443
    10   1 H        0.925     0.043     2.406     2.426
    11   1 H        0.924     0.023     2.689     2.565
    12   1 H        0.924     0.036     2.500     2.473
    13   1 H        0.924     0.056     2.251     2.346
    14   1 H        0.924     0.057     2.239     2.340
    15   1 H        0.925     0.069     2.097     2.264
    16   1 H        0.924     0.089     1.888     2.149
    17   1 H        0.803     0.414     0.460     1.065

 Mol. C6AA /au·bohr⁶  :       2216.422588
 Mol. C8AA /au·bohr⁸  :      47350.528235
 Mol. α(0) /au        :         69.464981


Wiberg/Mayer (AO) data.
largest (>0.10) Wiberg bond orders for each atom

 ---------------------------------------------------------------------------
     #   Z sym  total        # sym  WBO       # sym  WBO       # sym  WBO
 ---------------------------------------------------------------------------
     1   6 C    3.996 --     2 C    1.019     8 H    0.987    10 H    0.987
                             9 H    0.987
     2   6 C    3.997 --     1 C    1.019     3 C    1.009    11 H    0.978
                            12 H    0.978
     3   6 C    3.991 --     2 C    1.009     4 C    0.983    13 H    0.975
                            14 H    0.975
     4   6 C    3.990 --     5 C    0.985     3 C    0.983    15 H    0.974
                            16 H    0.950
     5   6 C    3.902 --     6 O    1.698     7 O    1.183     4 C    0.985
     6   8 O    1.964 --     5 C    1.698     7 O    0.172
     7   8 O    2.190 --     5 C    1.183    17 H    0.804     6 O    0.172
     8   1 H    0.998 --     1 C    0.987
     9   1 H    0.998 --     1 C    0.987
    10   1 H    0.998 --     1 C    0.987
    11   1 H    0.999 --     2 C    0.978
    12   1 H    0.999 --     2 C    0.978
    13   1 H    0.997 --     3 C    0.975
    14   1 H    0.997 --     3 C    0.975
    15   1 H    0.995 --     4 C    0.974
    16   1 H    0.992 --     4 C    0.950
    17   1 H    0.829 --     7 O    0.804
 ---------------------------------------------------------------------------

Topologies differ in total number of bonds
Writing topology from bond orders to xtbtopo.mol

molecular dipole:
                 x           y           z       tot (Debye)
 q only:       -0.452       0.597      -0.902
   full:       -0.350       0.525      -0.927       2.849
molecular quadrupole (traceless):
                xx          xy          yy          xz          yz          zz
 q only:        0.051       0.706       0.605      -6.393       4.939      -0.656
  q+dip:       -0.399       0.416       1.333      -7.753       6.142      -0.934
   full:        0.358       1.039       1.072      -7.407       6.128      -1.430


           -------------------------------------------------
          | TOTAL ENERGY              -23.962626036903 Eh   |
          | GRADIENT NORM               0.000058704736 Eh/α |
          | HOMO-LUMO GAP               4.888822674480 eV   |
           -------------------------------------------------

------------------------------------------------------------------------
 * finished run on 2025/04/11 at 16:11:56.662     
------------------------------------------------------------------------
 total:
 * wall-time:     0 d,  0 h,  0 min,  0.053 sec
 *  cpu-time:     0 d,  0 h,  0 min,  0.019 sec
 * ratio c/w:     0.366 speedup
 SCF:
 * wall-time:     0 d,  0 h,  0 min,  0.019 sec
 *  cpu-time:     0 d,  0 h,  0 min,  0.012 sec
 * ratio c/w:     0.649 speedup

