      -----------------------------------------------------------      
     |                   =====================                   |     
     |                           x T B                           |     
     |                   =====================                   |     
     |                         S. Grimme                         |     
     |          Mulliken Center for Theoretical Chemistry        |     
     |                    University of Bonn                     |     
      -----------------------------------------------------------      

   * xtb version 6.7.1 (edcfbbe) compiled by 'albert@albert-system' on 2024-07-22

   xtb is free software: you can redistribute it and/or modify it under
   the terms of the GNU Lesser General Public License as published by
   the Free Software Foundation, either version 3 of the License, or
   (at your option) any later version.
   
   xtb is distributed in the hope that it will be useful,
   but WITHOUT ANY WARRANTY; without even the implied warranty of
   MERCHANTABILITY or FITNESS FOR A PARTICULAR PURPOSE.  See the
   GNU Lesser General Public License for more details.
   
   Cite this work as:
   * C. Bannwarth, E. Caldeweyher, S. Ehlert, A. Hansen, P. Pracht,
     J. Seibert, S. Spicher, S. Grimme, WIREs Comput. Mol. Sci., 2020, 11,
     e01493. DOI: 10.1002/wcms.1493
   
   for GFN2-xTB:
   * C. Bannwarth, S. Ehlert and S. Grimme., J. Chem. Theory Comput., 2019,
     15, 1652-1671. DOI: 10.1021/acs.jctc.8b01176
   for GFN1-xTB:
   * S. Grimme, C. Bannwarth, P. Shushkov, J. Chem. Theory Comput., 2017,
     13, 1989-2009. DOI: 10.1021/acs.jctc.7b00118
   for GFN0-xTB:
   * P. Pracht, E. Caldeweyher, S. Ehlert, S. Grimme, ChemRxiv, 2019, preprint.
     DOI: 10.26434/chemrxiv.8326202.v1
   for GFN-FF:
   * S. Spicher and S. Grimme, Angew. Chem. Int. Ed., 2020, 59, 15665-15673.
     DOI: 10.1002/anie.202004239
   
   for ALPB and GBSA implicit solvation:
   * S. Ehlert, M. Stahn, S. Spicher, S. Grimme, J. Chem. Theory Comput.,
     2021, 17, 4250-4261. DOI: 10.1021/acs.jctc.1c00471
   
   for ddCOSMO and CPCM-X implicit solvation:
   * M. Stahn, S. Ehlert, S. Grimme, J. Phys. Chem. A,
     2023, XX, XXXX-XXXX. DOI: 10.1021/acs.jpca.3c04382
   
   for DFT-D4:
   * E. Caldeweyher, C. Bannwarth and S. Grimme, J. Chem. Phys., 2017,
     147, 034112. DOI: 10.1063/1.4993215
   * E. Caldeweyher, S. Ehlert, A. Hansen, H. Neugebauer, S. Spicher,
     C. Bannwarth and S. Grimme, J. Chem. Phys., 2019, 150, 154122.
     DOI: 10.1063/1.5090222
   * E. Caldeweyher, J.-M. Mewes, S. Ehlert and S. Grimme, Phys. Chem. Chem. Phys.
     2020, 22, 8499-8512. DOI: 10.1039/D0CP00502A
   
   for sTDA-xTB:
   * S. Grimme and C. Bannwarth, J. Chem. Phys., 2016, 145, 054103.
     DOI: 10.1063/1.4959605
   
   in the mass-spec context:
   * V. Asgeirsson, C. Bauer and S. Grimme, Chem. Sci., 2017, 8, 4879.
     DOI: 10.1039/c7sc00601b
   * J. Koopman and S. Grimme, ACS Omega 2019, 4, 12, 15120-15133.
     DOI: 10.1021/acsomega.9b02011
   
   for metadynamics refer to:
   * S. Grimme, J. Chem. Theory Comput., 2019, 155, 2847-2862
     DOI: 10.1021/acs.jctc.9b00143
   
   for SPH calculations refer to:
   * S. Spicher and S. Grimme, J. Chem. Theory Comput., 2021, 17, 1701-1714
     DOI: 10.1021/acs.jctc.0c01306
   
   for ONIOM refer to:
   * C. Plett, A. Katbashev, S. Ehlert, S. Grimme, M. Bursch,
     Phys. Chem. Chem. Phys., 2023, 25, 17860-17868. DOI: 10.1039/D3CP02178E
   
   for DIPRO refer to:
   * J. Kohn, N. Gildemeister, S. Grimme, D. Fazzi, A. Hansen,
     J. Chem. Phys., 2023, just accepted.
   
   for PTB refer to:
   * S. Grimme, M. Mueller, A. Hansen, J. Chem. Phys., 2023, 158, 124111.
     DOI: 10.1063/5.0137838
   
   with help from (in alphabetical order)
   P. Atkinson, C. Bannwarth, F. Bohle, G. Brandenburg, E. Caldeweyher
   M. Checinski, S. Dohm, S. Ehlert, S. Ehrlich, I. Gerasimov, C. Hölzer
   A. Katbashev, J. Kohn, J. Koopman, C. Lavigne, S. Lehtola, F. März, M. Müller,
   F. Musil, H. Neugebauer, J. Pisarek, C. Plett, P. Pracht, F. Pultar,
   J. Seibert, P. Shushkov, S. Spicher, M. Stahn, M. Steiner, T. Strunk,
   J. Stückrath, T. Rose, and J. Unsleber
   
 * started run on 2025/04/11 at 16:35:41.818     
   ID    Z sym.   atoms
    1    6 C      1-5, 7
    2    8 O      6
    3    1 H      8-19

           -------------------------------------------------
          |                Calculation Setup                |
           -------------------------------------------------

          program call               : /srv/scratch/z5358697/.xtb/bin/xtb xtb_rrho.coord --gfn2 --ohess vtight --chrg 0 --enso --norestart -I rrho-xcontrol-inp --parallel 1 --alpb water
          hostname                   : k065
          coordinate file            : xtb_rrho.coord
          omp threads                :                     1


           -------------------------------------------------
          |                 G F N 2 - x T B                 |
           -------------------------------------------------

        Reference                      10.1021/acs.jctc.8b01176
      * Hamiltonian:
        H0-scaling (s, p, d)           1.850000    2.230000    2.230000
        zeta-weighting                 0.500000
      * Dispersion:
        s8                             2.700000
        a1                             0.520000
        a2                             5.000000
        s9                             5.000000
      * Repulsion:
        kExp                           1.500000    1.000000
        rExp                           1.000000
      * Coulomb:
        alpha                          2.000000
        third order                    shell-resolved
        anisotropic                    true
        a3                             3.000000
        a5                             4.000000
        cn-shift                       1.200000
        cn-exp                         4.000000
        max-rad                        5.000000

      * Solvation model:               ALPB
        Solvent                        water
        Parameter file                 internal GFN2-xTB/ALPB
        Dielectric constant                8.0200E+01
        Reference state                gsolv [1 M gas/solution]
        Free energy shift                  1.0808E-03 Eh       6.7819E-01 kcal/mol
        Temperature                        2.9815E+02 K
        Density                            1.0000E+00 kg/L
        Solvent mass                       1.8000E+01 g/mol
        Interaction kernel             P16
        Born radius scaling (c1)           1.4744E+00
        Born radii integrator          GBOBC
        Born offset                        0.0000E+00 a0       0.0000E+00 AA
        H-bond correction              true
        Ion screening                  false
        Surface tension                    1.0000E-05 Eh       1.5569E+01 dyn/cm
        Grid points                               974 per atom

          ...................................................
          :                      SETUP                      :
          :.................................................:
          :  # basis functions                  40          :
          :  # atomic orbitals                  40          :
          :  # shells                           26          :
          :  # electrons                        42          :
          :  max. iterations                   250          :
          :  Hamiltonian                  GFN2-xTB          :
          :  restarted?                      false          :
          :  GBSA solvation                   true          :
          :  PC potential                    false          :
          :  electronic temp.          300.0000000     K    :
          :  accuracy                    1.0000000          :
          :  -> integral cutoff          0.2500000E+02      :
          :  -> integral neglect         0.1000000E-07      :
          :  -> SCF convergence          0.1000000E-05 Eh   :
          :  -> wf. convergence          0.1000000E-03 e    :
          :  Broyden damping             0.4000000          :
          :  net charge                          0          :
          :  unpaired electrons                  0          :
          ...................................................

 iter      E             dE          RMSdq      gap      omega  full diag
   1    -23.2606863 -0.232607E+02  0.350E+00    4.67       0.0  T
   2    -23.3215155 -0.608292E-01  0.164E+00    3.68       1.0  T
   3    -23.3255503 -0.403481E-02  0.101E+00    4.10       1.0  T
   4    -23.3275988 -0.204852E-02  0.175E-01    3.86       1.0  T
   5    -23.3278368 -0.238037E-03  0.645E-02    3.92       1.0  T
   6    -23.3278380 -0.110437E-05  0.142E-02    3.91       1.6  T
   7    -23.3278395 -0.159866E-05  0.419E-03    3.91       5.5  T
   8    -23.3278396 -0.156200E-07  0.190E-03    3.91      12.1  T
   9    -23.3278396 -0.121921E-07  0.469E-04    3.91      48.9  T
  10    -23.3278396 -0.194177E-09  0.212E-04    3.91     108.4  T

   *** convergence criteria satisfied after 10 iterations ***

         #    Occupation            Energy/Eh            Energy/eV
      -------------------------------------------------------------
         1        2.0000           -0.7091573             -19.2972
       ...           ...                  ...                  ...
        15        2.0000           -0.4693964             -12.7729
        16        2.0000           -0.4639038             -12.6235
        17        2.0000           -0.4572884             -12.4434
        18        2.0000           -0.4305860             -11.7168
        19        2.0000           -0.4296435             -11.6912
        20        2.0000           -0.4244071             -11.5487
        21        2.0000           -0.3957085             -10.7678 (HOMO)
        22                         -0.2518956              -6.8544 (LUMO)
        23                          0.0652450               1.7754
        24                          0.0854538               2.3253
        25                          0.1105325               3.0077
        26                          0.1261336               3.4323
       ...                                ...                  ...
        40                          0.5671155              15.4320
      -------------------------------------------------------------
                  HL-Gap            0.1438129 Eh            3.9133 eV
             Fermi-level           -0.3238020 Eh           -8.8111 eV

 SCC (total)                   0 d,  0 h,  0 min,  0.039 sec
 SCC setup                      ...        0 min,  0.001 sec (  3.361%)
 Dispersion                     ...        0 min,  0.000 sec (  0.285%)
 classical contributions        ...        0 min,  0.000 sec (  0.071%)
 integral evaluation            ...        0 min,  0.002 sec (  4.797%)
 iterations                     ...        0 min,  0.029 sec ( 74.469%)
 molecular gradient             ...        0 min,  0.007 sec ( 16.651%)
 printout                       ...        0 min,  0.000 sec (  0.324%)

         :::::::::::::::::::::::::::::::::::::::::::::::::::::
         ::                     SUMMARY                     ::
         :::::::::::::::::::::::::::::::::::::::::::::::::::::
         :: total energy             -23.030026258635 Eh    ::
         :: total w/o Gsasa/hb       -23.030087244199 Eh    ::
         :: gradient norm              0.033181886523 Eh/a0 ::
         :: HOMO-LUMO gap              3.913348746686 eV    ::
         ::.................................................::
         :: SCC energy               -23.327789345888 Eh    ::
         :: -> isotropic ES            0.042823339312 Eh    ::
         :: -> anisotropic ES          0.003882813264 Eh    ::
         :: -> anisotropic XC          0.011475023628 Eh    ::
         :: -> dispersion             -0.011096452466 Eh    ::
         :: -> Gsolv                  -0.008836125961 Eh    ::
         ::    -> Gelec               -0.008897111525 Eh    ::
         ::    -> Gsasa                0.000911687823 Eh    ::
         ::    -> Ghb                 -0.001931461957 Eh    ::
         ::    -> Gshift               0.001080759698 Eh    ::
         :: repulsion energy           0.297763087253 Eh    ::
         :: add. restraining           0.000000000000 Eh    ::
         :: total charge               0.000000000000 e     ::
         :::::::::::::::::::::::::::::::::::::::::::::::::::::

      ----------------------------------------------------------- 
     |                   =====================                   |
     |                        A N C O P T                        |
     |                   =====================                   |
     |               Approximate Normal Coordinate               |
     |                Rational Function Optimizer                |
      ----------------------------------------------------------- 
      ----------------------------------------------------------- 
     |                   =====================                   |
     |                        A N C O P T                        |
     |                   =====================                   |
     |               Approximate Normal Coordinate               |
     |                Rational Function Optimizer                |
      ----------------------------------------------------------- 

          ...................................................
          :                      SETUP                      :
          :.................................................:
          :   optimization level         verytight          :
          :   max. optcycles                   380          :
          :   ANC micro-cycles                  20          :
          :   degrees of freedom                51          :
          :.................................................:
          :   RF solver                   davidson          :
          :   write xtbopt.log                true          :
          :   linear?                        false          :
          :   energy convergence         0.1000000E-06 Eh   :
          :   grad. convergence          0.2000000E-03 Eh/α :
          :   maxmium RF displ.          1.0000000          :
          :   Hlow (freq-cutoff)         0.1000000E-01      :
          :   Hmax (freq-cutoff)         5.0000000          :
          :   S6 in model hess.         20.0000000          :
          ...................................................

generating ANC from exact Hessian ...
Using Lindh-Hessian (1995)
 Shifting diagonal of input Hessian by   8.633424724740693E-003
 Lowest  eigenvalues of input Hessian
    0.000000    0.000000    0.000000    0.000000    0.000000    0.000000
    0.010000    0.011271    0.012410    0.016162    0.017831    0.019785
    0.022484    0.026561    0.034660    0.049031    0.055133    0.058449
 Highest eigenvalues
    1.144779    1.184518    1.238086    1.263534    1.425831    2.066498
 

........................................................................
.............................. CYCLE    1 ..............................
........................................................................

 iter      E             dE          RMSdq      gap      omega  full diag
   1    -23.3278396 -0.233278E+02  0.506E-05    3.91       0.0  T
   2    -23.3278396 -0.227018E-11  0.319E-05    3.91     718.3  T
   3    -23.3278396 -0.934364E-12  0.781E-06    3.91    2936.3  T
     SCC iter.                  ...        0 min,  0.001 sec
     gradient                   ...        0 min,  0.004 sec
 * total energy  :   -23.0300263 Eh     change       -0.2921787E-09 Eh
   gradient norm :     0.0331863 Eh/α   predicted     0.0000000E+00 (-100.00%)
   displ. norm   :     0.1262887 α      lambda       -0.1619979E-02
   maximum displ.:     0.0516252 α      in ANC's #15, #20, #8, ...

........................................................................
.............................. CYCLE    2 ..............................
........................................................................

 iter      E             dE          RMSdq      gap      omega  full diag
   1    -23.3383671 -0.233384E+02  0.126E-01    3.96       0.0  T
   2    -23.3383959 -0.288180E-04  0.688E-02    3.95       1.0  T
   3    -23.3383964 -0.509984E-06  0.225E-02    3.96       1.0  T
   4    -23.3383971 -0.699161E-06  0.494E-03    3.95       4.6  T
   5    -23.3383973 -0.191135E-06  0.242E-03    3.95       9.5  T
   6    -23.3383973 -0.197199E-07  0.725E-04    3.95      31.7  T
   7    -23.3383973 -0.716319E-09  0.335E-04    3.95      68.5  T
     SCC iter.                  ...        0 min,  0.002 sec
     gradient                   ...        0 min,  0.004 sec
 * total energy  :   -23.0310616 Eh     change       -0.1035340E-02 Eh
   gradient norm :     0.0123298 Eh/α   predicted    -0.8229538E-03 ( -20.51%)
   displ. norm   :     0.0775424 α      lambda       -0.2595093E-03
   maximum displ.:     0.0344847 α      in ANC's #3, #8, #5, ...

........................................................................
.............................. CYCLE    3 ..............................
........................................................................

 iter      E             dE          RMSdq      gap      omega  full diag
   1    -23.3424005 -0.233424E+02  0.534E-02    3.97       0.0  T
   2    -23.3424080 -0.752622E-05  0.287E-02    3.97       1.0  T
   3    -23.3424083 -0.225106E-06  0.108E-02    3.97       2.1  T
   4    -23.3424083 -0.490084E-07  0.197E-03    3.97      11.7  T
   5    -23.3424083 -0.160728E-07  0.100E-03    3.97      22.9  T
   6    -23.3424083 -0.390527E-08  0.311E-04    3.97      73.8  T
   7    -23.3424083 -0.307544E-09  0.157E-04    3.97     146.0  T
     SCC iter.                  ...        0 min,  0.002 sec
     gradient                   ...        0 min,  0.004 sec
 * total energy  :   -23.0312082 Eh     change       -0.1465690E-03 Eh
   gradient norm :     0.0019796 Eh/α   predicted    -0.1305393E-03 ( -10.94%)
   displ. norm   :     0.0588159 α      lambda       -0.2422263E-04
   maximum displ.:     0.0337116 α      in ANC's #2, #5, #3, ...

........................................................................
.............................. CYCLE    4 ..............................
........................................................................

 iter      E             dE          RMSdq      gap      omega  full diag
   1    -23.3424554 -0.233425E+02  0.217E-02    3.97       0.0  T
   2    -23.3424559 -0.432005E-06  0.125E-02    3.97       1.8  T
   3    -23.3424559 -0.356610E-08  0.295E-03    3.97       7.8  T
   4    -23.3424559 -0.287397E-07  0.871E-04    3.97      26.3  T
   5    -23.3424559 -0.443659E-08  0.323E-04    3.97      71.1  T
     SCC iter.                  ...        0 min,  0.002 sec
     gradient                   ...        0 min,  0.004 sec
 * total energy  :   -23.0312303 Eh     change       -0.2209417E-04 Eh
   gradient norm :     0.0017128 Eh/α   predicted    -0.1278653E-04 ( -42.13%)
   displ. norm   :     0.0434785 α      lambda       -0.9446378E-05
   maximum displ.:     0.0306634 α      in ANC's #2, #5, #3, ...

........................................................................
.............................. CYCLE    5 ..............................
........................................................................

 iter      E             dE          RMSdq      gap      omega  full diag
   1    -23.3419418 -0.233419E+02  0.134E-02    3.97       0.0  T
   2    -23.3419418 -0.791235E-07  0.791E-03    3.97       2.9  T
   3    -23.3419418  0.444157E-08  0.125E-03    3.97      18.4  T
   4    -23.3419418 -0.110252E-07  0.340E-04    3.97      67.4  T
   5    -23.3419418 -0.836870E-09  0.180E-04    3.97     127.6  T
     SCC iter.                  ...        0 min,  0.002 sec
     gradient                   ...        0 min,  0.004 sec
 * total energy  :   -23.0312397 Eh     change       -0.9394469E-05 Eh
   gradient norm :     0.0009278 Eh/α   predicted    -0.4728492E-05 ( -49.67%)
   displ. norm   :     0.0429538 α      lambda       -0.5948233E-05
   maximum displ.:     0.0313918 α      in ANC's #2, #5, #7, ...

........................................................................
.............................. CYCLE    6 ..............................
........................................................................

 iter      E             dE          RMSdq      gap      omega  full diag
   1    -23.3418812 -0.233419E+02  0.145E-02    3.97       0.0  T
   2    -23.3418813 -0.381288E-07  0.860E-03    3.97       2.7  T
   3    -23.3418813 -0.997289E-09  0.722E-04    3.97      31.8  T
   4    -23.3418813 -0.427067E-08  0.297E-04    3.97      77.3  T
     SCC iter.                  ...        0 min,  0.001 sec
     gradient                   ...        0 min,  0.004 sec
 * total energy  :   -23.0312453 Eh     change       -0.5626229E-05 Eh
   gradient norm :     0.0006100 Eh/α   predicted    -0.2977916E-05 ( -47.07%)
   displ. norm   :     0.0396402 α      lambda       -0.3896577E-05
   maximum displ.:     0.0291175 α      in ANC's #2, #4, #5, ...

........................................................................
.............................. CYCLE    7 ..............................
........................................................................

 iter      E             dE          RMSdq      gap      omega  full diag
   1    -23.3420761 -0.233421E+02  0.151E-02    3.97       0.0  T
   2    -23.3420761 -0.211683E-07  0.891E-03    3.97       2.6  T
   3    -23.3420761 -0.459366E-08  0.819E-04    3.97      28.0  T
   4    -23.3420761 -0.632451E-08  0.408E-04    3.97      56.2  T
     SCC iter.                  ...        0 min,  0.001 sec
     gradient                   ...        0 min,  0.004 sec
 * total energy  :   -23.0312491 Eh     change       -0.3833346E-05 Eh
   gradient norm :     0.0005336 Eh/α   predicted    -0.1955515E-05 ( -48.99%)
   displ. norm   :     0.0340221 α      lambda       -0.2692577E-05
   maximum displ.:     0.0251004 α      in ANC's #2, #4, #1, ...

........................................................................
.............................. CYCLE    8 ..............................
........................................................................

 iter      E             dE          RMSdq      gap      omega  full diag
   1    -23.3421245 -0.233421E+02  0.170E-02    3.97       0.0  T
   2    -23.3421246 -0.194911E-07  0.100E-02    3.97       2.3  T
   3    -23.3421246 -0.898563E-08  0.587E-04    3.97      39.1  T
   4    -23.3421246 -0.120782E-08  0.362E-04    3.97      63.4  T
     SCC iter.                  ...        0 min,  0.001 sec
     gradient                   ...        0 min,  0.004 sec
 * total energy  :   -23.0312523 Eh     change       -0.3232189E-05 Eh
   gradient norm :     0.0004928 Eh/α   predicted    -0.1356188E-05 ( -58.04%)
   displ. norm   :     0.0478808 α      lambda       -0.3323351E-05
   maximum displ.:     0.0362966 α      in ANC's #2, #1, #4, ...

........................................................................
.............................. CYCLE    9 ..............................
........................................................................

 iter      E             dE          RMSdq      gap      omega  full diag
   1    -23.3420846 -0.233421E+02  0.248E-02    3.97       0.0  T
   2    -23.3420847 -0.391793E-07  0.146E-02    3.97       1.6  T
   3    -23.3420847 -0.220908E-07  0.810E-04    3.97      28.3  T
   4    -23.3420847 -0.597765E-09  0.419E-04    3.97      54.8  T
     SCC iter.                  ...        0 min,  0.001 sec
     gradient                   ...        0 min,  0.004 sec
 * total energy  :   -23.0312560 Eh     change       -0.3605389E-05 Eh
   gradient norm :     0.0003896 Eh/α   predicted    -0.1664604E-05 ( -53.83%)
   displ. norm   :     0.0478808 α      lambda        0.0000000E+00
   maximum displ.:     0.0362966 α      in ANC's #2, #1, #4, ...

........................................................................
.............................. CYCLE   10 ..............................
........................................................................

 iter      E             dE          RMSdq      gap      omega  full diag
   1    -23.3419906 -0.233420E+02  0.248E-02    3.97       0.0  T
   2    -23.3419907 -0.406605E-07  0.146E-02    3.97       1.6  T
   3    -23.3419907 -0.207623E-07  0.879E-04    3.97      26.1  T
   4    -23.3419907 -0.198422E-08  0.519E-04    3.97      44.2  T
     SCC iter.                  ...        0 min,  0.001 sec
     gradient                   ...        0 min,  0.004 sec
 * total energy  :   -23.0312566 Eh     change       -0.6949631E-06 Eh
   gradient norm :     0.0007554 Eh/α   predicted    -0.1437356E-08 ( -99.79%)
   displ. norm   :     0.0124960 α      lambda       -0.1907926E-05
   maximum displ.:     0.0089872 α      in ANC's #2, #7, #8, ...

........................................................................
.............................. CYCLE   11 ..............................
........................................................................

 iter      E             dE          RMSdq      gap      omega  full diag
   1    -23.3421163 -0.233421E+02  0.546E-03    3.97       0.0  T
   2    -23.3421163 -0.178382E-07  0.319E-03    3.97       7.2  T
   3    -23.3421163 -0.630596E-09  0.520E-04    3.97      44.1  T
   4    -23.3421163 -0.735998E-09  0.123E-04    3.97     187.0  T
     SCC iter.                  ...        0 min,  0.001 sec
     gradient                   ...        0 min,  0.004 sec
 * total energy  :   -23.0312588 Eh     change       -0.2123938E-05 Eh
   gradient norm :     0.0003269 Eh/α   predicted    -0.9556593E-06 ( -55.01%)
   displ. norm   :     0.0235142 α      lambda       -0.2126689E-05
   maximum displ.:     0.0153496 α      in ANC's #2, #7, #4, ...

........................................................................
.............................. CYCLE   12 ..............................
........................................................................

 iter      E             dE          RMSdq      gap      omega  full diag
   1    -23.3421568 -0.233422E+02  0.668E-03    3.97       0.0  T
   2    -23.3421568 -0.723410E-08  0.398E-03    3.97       5.8  T
   3    -23.3421568 -0.106892E-08  0.301E-04    3.97      76.1  T
   4    -23.3421568 -0.446626E-09  0.138E-04    3.97     166.7  T
     SCC iter.                  ...        0 min,  0.001 sec
     gradient                   ...        0 min,  0.004 sec
 * total energy  :   -23.0312611 Eh     change       -0.2306729E-05 Eh
   gradient norm :     0.0004118 Eh/α   predicted    -0.1065848E-05 ( -53.79%)
   displ. norm   :     0.0220642 α      lambda       -0.1127096E-05
   maximum displ.:     0.0164679 α      in ANC's #2, #7, #6, ...

........................................................................
.............................. CYCLE   13 ..............................
........................................................................

 iter      E             dE          RMSdq      gap      omega  full diag
   1    -23.3421223 -0.233421E+02  0.687E-03    3.97       0.0  T
   2    -23.3421223 -0.340878E-08  0.409E-03    3.97       5.6  T
   3    -23.3421223 -0.127357E-08  0.217E-04    3.97     105.9  T
   4    -23.3421223 -0.872582E-10  0.128E-04    3.97     179.3  T
     SCC iter.                  ...        0 min,  0.001 sec
     gradient                   ...        0 min,  0.004 sec
 * total energy  :   -23.0312623 Eh     change       -0.1254934E-05 Eh
   gradient norm :     0.0002484 Eh/α   predicted    -0.5675429E-06 ( -54.78%)
   displ. norm   :     0.0172042 α      lambda       -0.6132953E-06
   maximum displ.:     0.0138923 α      in ANC's #2, #6, #3, ...

........................................................................
.............................. CYCLE   14 ..............................
........................................................................

 iter      E             dE          RMSdq      gap      omega  full diag
   1    -23.3420970 -0.233421E+02  0.631E-03    3.97       0.0  T
   2    -23.3420970 -0.287741E-08  0.375E-03    3.97       6.1  T
   3    -23.3420970 -0.100108E-08  0.208E-04    3.97     110.4  T
   4    -23.3420970 -0.124409E-09  0.118E-04    3.97     194.9  T
     SCC iter.                  ...        0 min,  0.001 sec
     gradient                   ...        0 min,  0.004 sec
 * total energy  :   -23.0312631 Eh     change       -0.7542227E-06 Eh
   gradient norm :     0.0001275 Eh/α   predicted    -0.3107473E-06 ( -58.80%)
   displ. norm   :     0.0183826 α      lambda       -0.5965915E-06
   maximum displ.:     0.0148809 α      in ANC's #2, #3, #6, ...

........................................................................
.............................. CYCLE   15 ..............................
........................................................................

 iter      E             dE          RMSdq      gap      omega  full diag
   1    -23.3420770 -0.233421E+02  0.646E-03    3.97       0.0  T
   2    -23.3420770 -0.311266E-08  0.383E-03    3.97       6.0  T
   3    -23.3420770 -0.129524E-08  0.208E-04    3.97     110.0  T
   4    -23.3420770 -0.416165E-10  0.120E-04    3.97     190.6  T
     SCC iter.                  ...        0 min,  0.001 sec
     gradient                   ...        0 min,  0.004 sec
 * total energy  :   -23.0312639 Eh     change       -0.7773886E-06 Eh
   gradient norm :     0.0001853 Eh/α   predicted    -0.2990082E-06 ( -61.54%)
   displ. norm   :     0.0241327 α      lambda       -0.6990275E-06
   maximum displ.:     0.0189892 α      in ANC's #2, #3, #5, ...

........................................................................
.............................. CYCLE   16 ..............................
........................................................................

 iter      E             dE          RMSdq      gap      omega  full diag
   1    -23.3420695 -0.233421E+02  0.805E-03    3.97       0.0  T
   2    -23.3420695 -0.322569E-08  0.477E-03    3.97       4.8  T
   3    -23.3420695 -0.183591E-08  0.250E-04    3.97      91.6  T
   4    -23.3420695 -0.498979E-10  0.138E-04    3.97     166.2  T
     SCC iter.                  ...        0 min,  0.001 sec
     gradient                   ...        0 min,  0.004 sec
 * total energy  :   -23.0312648 Eh     change       -0.9229630E-06 Eh
   gradient norm :     0.0002098 Eh/α   predicted    -0.3527983E-06 ( -61.78%)
   displ. norm   :     0.0279038 α      lambda       -0.6767962E-06
   maximum displ.:     0.0221859 α      in ANC's #2, #3, #5, ...

........................................................................
.............................. CYCLE   17 ..............................
........................................................................

 iter      E             dE          RMSdq      gap      omega  full diag
   1    -23.3420811 -0.233421E+02  0.899E-03    3.97       0.0  T
   2    -23.3420811 -0.414662E-08  0.533E-03    3.97       4.3  T
   3    -23.3420811 -0.201623E-08  0.297E-04    3.97      77.1  T
   4    -23.3420811 -0.272202E-09  0.177E-04    3.97     129.9  T
     SCC iter.                  ...        0 min,  0.001 sec
     gradient                   ...        0 min,  0.004 sec
 * total energy  :   -23.0312656 Eh     change       -0.8254264E-06 Eh
   gradient norm :     0.0001336 Eh/α   predicted    -0.3393016E-06 ( -58.89%)
   displ. norm   :     0.0204929 α      lambda       -0.3432541E-06
   maximum displ.:     0.0171927 α      in ANC's #2, #3, #5, ...

........................................................................
.............................. CYCLE   18 ..............................
........................................................................

 iter      E             dE          RMSdq      gap      omega  full diag
   1    -23.3420944 -0.233421E+02  0.660E-03    3.97       0.0  T
   2    -23.3420944 -0.221229E-08  0.392E-03    3.97       5.9  T
   3    -23.3420945 -0.102517E-08  0.229E-04    3.97     100.2  T
   4    -23.3420945 -0.216865E-09  0.133E-04    3.97     172.0  T
     SCC iter.                  ...        0 min,  0.001 sec
     gradient                   ...        0 min,  0.004 sec
 * total energy  :   -23.0312660 Eh     change       -0.4306218E-06 Eh
   gradient norm :     0.0000534 Eh/α   predicted    -0.1763992E-06 ( -59.04%)
   displ. norm   :     0.0088879 α      lambda       -0.1264261E-06
   maximum displ.:     0.0082351 α      in ANC's #2, #3, #5, ...

........................................................................
.............................. CYCLE   19 ..............................
........................................................................

 iter      E             dE          RMSdq      gap      omega  full diag
   1    -23.3421095 -0.233421E+02  0.307E-03    3.97       0.0  T
   2    -23.3421095 -0.527404E-09  0.182E-03    3.97      12.6  T
   3    -23.3421095 -0.219465E-09  0.110E-04    3.97     207.8  T
   4    -23.3421095 -0.621050E-10  0.630E-05    3.97     364.2  T
     SCC iter.                  ...        0 min,  0.001 sec
     gradient                   ...        0 min,  0.004 sec
 * total energy  :   -23.0312662 Eh     change       -0.1791560E-06 Eh
   gradient norm :     0.0000445 Eh/α   predicted    -0.6600695E-07 ( -63.16%)
   displ. norm   :     0.0048703 α      lambda       -0.8452984E-07
   maximum displ.:     0.0046997 α      in ANC's #2, #6, #5, ...

........................................................................
.............................. CYCLE   20 ..............................
........................................................................

 iter      E             dE          RMSdq      gap      omega  full diag
   1    -23.3421200 -0.233421E+02  0.178E-03    3.97       0.0  T
   2    -23.3421200 -0.174939E-09  0.105E-03    3.97      21.7  T
   3    -23.3421200 -0.805045E-10  0.613E-05    3.97     374.3  T
   4    -23.3421200 -0.167653E-10  0.368E-05    3.97     623.4  T
     SCC iter.                  ...        0 min,  0.001 sec
     gradient                   ...        0 min,  0.004 sec
 * total energy  :   -23.0312664 Eh     change       -0.1293298E-06 Eh
   gradient norm :     0.0000507 Eh/α   predicted    -0.4499395E-07 ( -65.21%)
   displ. norm   :     0.0058983 α      lambda       -0.1073733E-06
   maximum displ.:     0.0048437 α      in ANC's #2, #3, #6, ...
 * RMSD in coord.:     0.1162548 α      energy gain  -0.1240095E-02 Eh

generating ANC from exact Hessian ...
Using Lindh-Hessian (1995)
 Shifting diagonal of input Hessian by   8.598721760422088E-003
 Lowest  eigenvalues of input Hessian
    0.000000    0.000000    0.000000    0.000000    0.000000    0.000000
    0.010000    0.011317    0.012474    0.016422    0.018075    0.020189
    0.022925    0.027090    0.034614    0.050974    0.057118    0.059927
 Highest eigenvalues
    1.172328    1.206945    1.242804    1.271975    1.417256    2.123801
 

........................................................................
.............................. CYCLE   21 ..............................
........................................................................

 iter      E             dE          RMSdq      gap      omega  full diag
   1    -23.3421230 -0.233421E+02  0.206E-03    3.97       0.0  T
   2    -23.3421230 -0.234404E-09  0.123E-03    3.97      18.7  T
   3    -23.3421230 -0.104198E-09  0.686E-05    3.97     334.2  T
   4    -23.3421230 -0.197140E-10  0.414E-05    3.97     553.9  T
     SCC iter.                  ...        0 min,  0.001 sec
     gradient                   ...        0 min,  0.004 sec
 * total energy  :   -23.0312665 Eh     change       -0.1633780E-06 Eh
   gradient norm :     0.0000527 Eh/α   predicted     0.0000000E+00 (-100.00%)
   displ. norm   :     0.0000791 α      lambda        0.0000000E+00
   maximum displ.:     0.0000440 α      in ANC's #51, #2, #29, ...

........................................................................
.............................. CYCLE   22 ..............................
........................................................................

 iter      E             dE          RMSdq      gap      omega  full diag
   1    -23.3421127 -0.233421E+02  0.124E-04    3.97       0.0  T
   2    -23.3421127 -0.150020E-09  0.694E-05    3.97     330.6  T
   3    -23.3421127 -0.695621E-11  0.392E-05    3.97     585.8  T
     SCC iter.                  ...        0 min,  0.001 sec
     gradient                   ...        0 min,  0.004 sec
 * total energy  :   -23.0312665 Eh     change       -0.2162292E-08 Eh
   gradient norm :     0.0000511 Eh/α   predicted    -0.1609836E-08 ( -25.55%)
   displ. norm   :     0.0000791 α      lambda        0.0000000E+00
   maximum displ.:     0.0000440 α      in ANC's #51, #2, #29, ...

   *** GEOMETRY OPTIMIZATION CONVERGED AFTER 22 ITERATIONS ***

------------------------------------------------------------------------
 total energy gain   :        -0.0012403 Eh       -0.7783 kcal/mol
 total RMSD          :         0.1162591 a0        0.0615 Å
 total power (kW/mol):        -0.1480138 (step)  -15.1827 (real)
------------------------------------------------------------------------

 ANCopt (total)                0 d,  0 h,  0 min,  0.214 sec
 optimizer setup                ...        0 min,  0.000 sec (  0.176%)
 model hessian                  ...        0 min,  0.023 sec ( 10.753%)
 ANC generation                 ...        0 min,  0.001 sec (  0.326%)
 coordinate transformation      ...        0 min,  0.000 sec (  0.051%)
 single point calculation       ...        0 min,  0.172 sec ( 80.256%)
 optimization log               ...        0 min,  0.016 sec (  7.581%)
 hessian update                 ...        0 min,  0.000 sec (  0.055%)
 rational function              ...        0 min,  0.001 sec (  0.372%)

================
 final structure:
================
$coord
        4.75829320724956        1.31288757564268       -1.30804620978483      C
        3.37132127586042       -1.05410502114090       -0.42540839642883      C
        1.81383064238799       -0.64061772459940        1.97497178972282      C
       -0.46767582500056        1.08081151737963        1.56227380193644      C
       -2.49965265011643       -0.10628867088996       -0.04886103706894      C
       -2.68214210958319       -2.37391961955277       -0.36461184158156      O
       -4.31034148445880        1.73951393877896       -1.22104217115278      C
        5.94198315003271        2.05149192648319        0.20116247089097      H
        5.95907266958046        0.86857242729812       -2.91495048522890      H
        3.44414378451222        2.78067395931954       -1.88702941855604      H
        4.75909551419887       -2.53481659839424       -0.04932187764561      H
        2.13025426840025       -1.74203980230625       -1.92478783612642      H
        3.02152760059622        0.16768734369429        3.43822329606220      H
        1.13097939359054       -2.47151255124071        2.63971465455310      H
       -1.35040317667902        1.48603147239529        3.38647971944057      H
        0.09475342845833        2.88228539594382        0.74147893042775      H
       -4.85290722240385        3.17832220380111        0.13738942365616      H
       -3.36237518213897        2.66748135319619       -2.79286626682756      H
       -5.96821904517472        0.76053139350696       -1.93416462637236      H
$end
 
 Bond Distances (Angstroems)
 ---------------------------
C1-C2=1.5250         C1-H8=1.0876         C1-H9=1.0873         C1-H10=1.0866        C2-C1=1.5250         C2-C3=1.5299         
C2-H11=1.0922        C2-H12=1.0924        C3-C2=1.5299         C3-C4=1.5281         C3-H13=1.0913        C3-H14=1.0923        
C4-C3=1.5281         C4-C5=1.5092         C4-H15=1.0936        C4-H16=1.0890        C5-C4=1.5092         C5-O6=1.2154         
C5-C7=1.5023         O6-C5=1.2154         C7-C5=1.5023         C7-H17=1.0858        C7-H18=1.0884        C7-H19=1.0865        
H8-C1=1.0876         H9-C1=1.0873         H10-C1=1.0866        H11-C2=1.0922        H12-C2=1.0924        H13-C3=1.0913        
H14-C3=1.0923        H15-C4=1.0936        H16-C4=1.0890        H17-C7=1.0858        H18-C7=1.0884        H19-C7=1.0865        
 C  H  Rav=1.0894 sigma=0.0027  Rmin=1.0858  Rmax=1.0936    12
 C  C  Rav=1.5189 sigma=0.0111  Rmin=1.5023  Rmax=1.5299     5
 O  C  Rav=1.2154 sigma=0.0000  Rmin=1.2154  Rmax=1.2154     1
 
 selected bond angles (degree)
 --------------------
H8-C1-C2=110.33                H9-C1-C2=110.07                H9-C1-H8=108.39                H10-C1-C2=111.43               
H10-C1-H8=108.59               H10-C1-H9=107.94               C3-C2-C1=113.33                H11-C2-C1=108.75               
H11-C2-C3=108.27               H12-C2-C1=109.91               H12-C2-C3=109.08               H12-C2-H11=107.31              
C4-C3-C2=113.09                H13-C3-C2=109.25               H13-C3-C4=109.29               H14-C3-C2=108.59               
H14-C3-C4=108.27               H14-C3-H13=108.23              C5-C4-C3=113.30                H15-C4-C3=109.16               
H15-C4-C5=106.02               H16-C4-C3=111.28               H16-C4-C5=109.50               H16-C4-H15=107.29              
O6-C5-C4=123.04                C7-C5-C4=114.65                C7-C5-O6=122.31                H17-C7-C5=110.56               
H18-C7-C5=108.36               H18-C7-H17=108.15              H19-C7-C5=110.39               H19-C7-H17=110.54              
H19-C7-H18=108.78              
 
 selected dihedral angles (degree)
 ---------------------------------
C3-C2-C1-H8= 55.44            C3-C2-C1-H9=175.01            C3-C2-C1-H10=294.74           H11-C2-C1-H8=294.97           
H11-C2-C1-H9= 54.55           H11-C2-C1-H10=174.27          H12-C2-C1-H8=177.77           H12-C2-C1-H9=297.34           
H12-C2-C1-H10= 57.07          C4-C3-C2-C1= 68.58            C4-C3-C2-H11=189.31           C4-C3-C2-H12=305.78           
H13-C3-C2-C1=306.61           H13-C3-C2-H11= 67.35          H13-C3-C2-H12=183.82          H14-C3-C2-C1=188.77           
H14-C3-C2-H11=309.50          H14-C3-C2-H12= 65.97          C5-C4-C3-C2= 69.21            C5-C4-C3-H13=191.15           
C5-C4-C3-H14=308.84           H15-C4-C3-C2=187.09           H15-C4-C3-H13=309.03          H15-C4-C3-H14= 66.72          
H16-C4-C3-C2=305.32           H16-C4-C3-H13= 67.25          H16-C4-C3-H14=184.94          O6-C5-C4-C3= 20.37            
O6-C5-C4-H15=260.68           O6-C5-C4-H16=145.23           C7-C5-C4-C3=199.77            C7-C5-C4-H15= 80.08           
C7-C5-C4-H16=324.64           H17-C7-C5-C4=317.16           H17-C7-C5-O6=136.56           H18-C7-C5-C4= 75.51           
H18-C7-C5-O6=254.92           H19-C7-C5-C4=194.53           H19-C7-C5-O6= 13.94           
           -------------------------------------------------
          |                Final Singlepoint                |
           -------------------------------------------------

          ...................................................
          :                      SETUP                      :
          :.................................................:
          :  # basis functions                  40          :
          :  # atomic orbitals                  40          :
          :  # shells                           26          :
          :  # electrons                        42          :
          :  max. iterations                   250          :
          :  Hamiltonian                  GFN2-xTB          :
          :  restarted?                      false          :
          :  GBSA solvation                   true          :
          :  PC potential                    false          :
          :  electronic temp.          300.0000000     K    :
          :  accuracy                    1.0000000          :
          :  -> integral cutoff          0.2500000E+02      :
          :  -> integral neglect         0.1000000E-07      :
          :  -> SCF convergence          0.1000000E-05 Eh   :
          :  -> wf. convergence          0.1000000E-03 e    :
          :  Broyden damping             0.4000000          :
          :  net charge                          0          :
          :  unpaired electrons                  0          :
          ...................................................

 iter      E             dE          RMSdq      gap      omega  full diag
   1    -23.3421127 -0.233421E+02  0.123E-05    3.97       0.0  T
   2    -23.3421127 -0.255795E-12  0.736E-06    3.97    3115.8  T
   3    -23.3421127 -0.355271E-14  0.311E-06    3.97    7373.8  T

   *** convergence criteria satisfied after 3 iterations ***

         #    Occupation            Energy/Eh            Energy/eV
      -------------------------------------------------------------
         1        2.0000           -0.7130382             -19.4028
       ...           ...                  ...                  ...
        15        2.0000           -0.4693751             -12.7723
        16        2.0000           -0.4653781             -12.6636
        17        2.0000           -0.4572805             -12.4432
        18        2.0000           -0.4305492             -11.7158
        19        2.0000           -0.4295517             -11.6887
        20        2.0000           -0.4241050             -11.5405
        21        2.0000           -0.3956600             -10.7665 (HOMO)
        22                         -0.2496802              -6.7941 (LUMO)
        23                          0.0724909               1.9726
        24                          0.0953773               2.5953
        25                          0.1177021               3.2028
        26                          0.1355131               3.6875
       ...                                ...                  ...
        40                          0.6033927              16.4192
      -------------------------------------------------------------
                  HL-Gap            0.1459798 Eh            3.9723 eV
             Fermi-level           -0.3226701 Eh           -8.7803 eV

 SCC (total)                   0 d,  0 h,  0 min,  0.008 sec
 SCC setup                      ...        0 min,  0.001 sec ( 14.082%)
 Dispersion                     ...        0 min,  0.000 sec (  0.660%)
 classical contributions        ...        0 min,  0.000 sec (  0.219%)
 integral evaluation            ...        0 min,  0.001 sec ( 17.316%)
 iterations                     ...        0 min,  0.001 sec ( 13.541%)
 molecular gradient             ...        0 min,  0.004 sec ( 52.496%)
 printout                       ...        0 min,  0.000 sec (  1.507%)

         :::::::::::::::::::::::::::::::::::::::::::::::::::::
         ::                     SUMMARY                     ::
         :::::::::::::::::::::::::::::::::::::::::::::::::::::
         :: total energy             -23.031266518872 Eh    ::
         :: total w/o Gsasa/hb       -23.031355398428 Eh    ::
         :: gradient norm              0.000051328800 Eh/a0 ::
         :: HOMO-LUMO gap              3.972312529509 eV    ::
         ::.................................................::
         :: SCC energy               -23.342063188328 Eh    ::
         :: -> isotropic ES            0.041334746951 Eh    ::
         :: -> anisotropic ES          0.003518613246 Eh    ::
         :: -> anisotropic XC          0.011267766830 Eh    ::
         :: -> dispersion             -0.011159122744 Eh    ::
         :: -> Gsolv                  -0.008243058965 Eh    ::
         ::    -> Gelec               -0.008331938521 Eh    ::
         ::    -> Gsasa                0.000910828130 Eh    ::
         ::    -> Ghb                 -0.001902708272 Eh    ::
         ::    -> Gshift               0.001080759698 Eh    ::
         :: repulsion energy           0.310796669456 Eh    ::
         :: add. restraining           0.000000000000 Eh    ::
         :: total charge               0.000000000000 e     ::
         :::::::::::::::::::::::::::::::::::::::::::::::::::::

           ------------------------------------------------- 
          |                Numerical Hessian                |
           ------------------------------------------------- 
step length          :   0.00500
SCC accuracy         :   0.30000
Hessian scale factor :   1.00000
frozen atoms in %    :   0.00000    0
RMS gradient         :   0.00005
estimated CPU  time      0.02 min
estimated wall time      0.02 min

writing file <hessian>.

 projected vibrational frequencies (cm⁻¹)
eigval :       -0.00    -0.00    -0.00     0.00     0.00     0.00
eigval :       38.59    45.63   110.23   124.91   205.72   243.60
eigval :      313.05   386.89   434.58   475.98   589.71   764.54
eigval :      801.62   838.37   905.75   930.45   985.11   994.25
eigval :     1029.80  1095.90  1097.25  1141.10  1157.45  1167.00
eigval :     1226.69  1273.51  1318.21  1350.52  1355.40  1359.47
eigval :     1409.04  1423.55  1435.93  1448.46  1472.27  1495.51
eigval :     1499.42  1506.89  1705.37  2954.11  2963.13  2972.20
eigval :     2983.38  2987.30  3008.73  3021.73  3028.58  3032.07
eigval :     3044.14  3048.75  3057.77
           -------------------------------------------------
          |                Property Printout                |
           -------------------------------------------------

    * Orbital Energies and Occupations

         #    Occupation            Energy/Eh            Energy/eV
      -------------------------------------------------------------
         1        2.0000           -0.7130382             -19.4028
       ...           ...                  ...                  ...
         9        2.0000           -0.5352765             -14.5656
        10        2.0000           -0.5131017             -13.9622
        11        2.0000           -0.5047173             -13.7341
        12        2.0000           -0.4989081             -13.5760
        13        2.0000           -0.4733966             -12.8818
        14        2.0000           -0.4713337             -12.8256
        15        2.0000           -0.4693750             -12.7723
        16        2.0000           -0.4653781             -12.6636
        17        2.0000           -0.4572805             -12.4432
        18        2.0000           -0.4305492             -11.7158
        19        2.0000           -0.4295517             -11.6887
        20        2.0000           -0.4241050             -11.5405
        21        2.0000           -0.3956600             -10.7665 (HOMO)
        22                         -0.2496803              -6.7941 (LUMO)
        23                          0.0724909               1.9726
        24                          0.0953773               2.5953
        25                          0.1177021               3.2028
        26                          0.1355131               3.6875
        27                          0.1377504               3.7484
        28                          0.1523336               4.1452
        29                          0.1653378               4.4991
        30                          0.1764782               4.8022
        31                          0.1855890               5.0501
        32                          0.2014732               5.4824
       ...                                ...                  ...
        40                          0.6033927              16.4192
      -------------------------------------------------------------
                  HL-Gap            0.1459798 Eh            3.9723 eV
             Fermi-level           -0.3226701 Eh           -8.7803 eV

     #   Z          covCN         q      C6AA      α(0)
     1   6 C        3.751    -0.112    22.705     6.795
     2   6 C        3.800    -0.055    21.568     6.612
     3   6 C        3.802    -0.059    21.638     6.623
     4   6 C        3.804    -0.098    22.361     6.732
     5   6 C        2.811     0.251    22.794     7.822
     6   8 O        0.857    -0.440    22.497     6.359
     7   6 C        3.754    -0.160    23.669     6.937
     8   1 H        0.925     0.042     2.426     2.436
     9   1 H        0.925     0.036     2.501     2.473
    10   1 H        0.925     0.038     2.469     2.457
    11   1 H        0.924     0.031     2.567     2.506
    12   1 H        0.924     0.027     2.626     2.534
    13   1 H        0.924     0.044     2.396     2.420
    14   1 H        0.924     0.040     2.445     2.445
    15   1 H        0.924     0.084     1.937     2.177
    16   1 H        0.925     0.077     2.010     2.217
    17   1 H        0.925     0.086     1.914     2.163
    18   1 H        0.925     0.095     1.830     2.116
    19   1 H        0.925     0.072     2.065     2.247

 Mol. C6AA /au·bohr⁶  :       2609.873996
 Mol. C8AA /au·bohr⁸  :      55883.380574
 Mol. α(0) /au        :         76.072389


Wiberg/Mayer (AO) data.
largest (>0.10) Wiberg bond orders for each atom

 ---------------------------------------------------------------------------
     #   Z sym  total        # sym  WBO       # sym  WBO       # sym  WBO
 ---------------------------------------------------------------------------
     1   6 C    3.996 --     2 C    1.020     9 H    0.987     8 H    0.987
                            10 H    0.985
     2   6 C    3.997 --     1 C    1.020     3 C    1.008    11 H    0.978
                            12 H    0.978
     3   6 C    3.996 --     2 C    1.008     4 C    1.005    14 H    0.976
                            13 H    0.976
     4   6 C    3.995 --     3 C    1.005     5 C    1.002    16 H    0.956
                            15 H    0.934
     5   6 C    3.897 --     6 O    1.807     7 C    1.017     4 C    1.002
     6   8 O    2.016 --     5 C    1.807
     7   6 C    3.991 --     5 C    1.017    19 H    0.981    17 H    0.964
                            18 H    0.946
     8   1 H    0.998 --     1 C    0.987
     9   1 H    0.999 --     1 C    0.987
    10   1 H    0.999 --     1 C    0.985
    11   1 H    0.999 --     2 C    0.978
    12   1 H    0.999 --     2 C    0.978
    13   1 H    0.998 --     3 C    0.976
    14   1 H    0.998 --     3 C    0.976
    15   1 H    0.993 --     4 C    0.934
    16   1 H    0.994 --     4 C    0.956
    17   1 H    0.993 --     7 C    0.964
    18   1 H    0.991 --     7 C    0.946
    19   1 H    0.995 --     7 C    0.981
 ---------------------------------------------------------------------------

Topologies differ in total number of bonds
Writing topology from bond orders to xtbtopo.mol

molecular dipole:
                 x           y           z       tot (Debye)
 q only:        0.171       1.518       0.228
   full:        0.147       1.603       0.234       4.136
molecular quadrupole (traceless):
                xx          xy          yy          xz          yz          zz
 q only:        1.119      -6.125      -2.289       0.463      -0.852       1.170
  q+dip:        0.991      -6.442      -2.980       0.534      -0.731       1.989
   full:        1.127      -6.541      -3.345      -0.170      -0.914       2.218

           -------------------------------------------------
          |                Geometry Summary                 |
           -------------------------------------------------

      molecular mass/u    :      100.1591093
   center of mass at/Å    :        0.0007401       0.0010832      -0.0020472
  moments of inertia/u·Å² :        0.1158107E+03   0.3418799E+03   0.3668729E+03
rotational constants/cm⁻¹ :        0.1455619E+00   0.4930863E-01   0.4594951E-01

 * 16 selected distances

     #   Z          #   Z                                           value/Å
     1   6 C        2   6 C                                       1.5250403
     2   6 C        3   6 C                                       1.5299149 (max)
     3   6 C        4   6 C                                       1.5281142
     5   6 C        6   8 O                                       1.2153983
     1   6 C        8   1 H                                       1.0876323
     1   6 C        9   1 H                                       1.0872537
     1   6 C       10   1 H                                       1.0866326
     2   6 C       11   1 H                                       1.0921923
     2   6 C       12   1 H                                       1.0924198
     3   6 C       13   1 H                                       1.0913111
     3   6 C       14   1 H                                       1.0922538
     4   6 C       15   1 H                                       1.0936364
     4   6 C       16   1 H                                       1.0890436
     7   6 C       17   1 H                                       1.0857659 (min)
     7   6 C       18   1 H                                       1.0884077
     7   6 C       19   1 H                                       1.0864911

 * 3 distinct bonds (by element types)

   Z      Z             #   av. dist./Å        max./Å        min./Å
   1 H    6 C          12     1.0894200     1.0936364     1.0857659
   6 C    6 C           3     1.5276898     1.5299149     1.5250403
   6 C    8 O           1     1.2153983     1.2153983     1.2153983

           -------------------------------------------------
          |               Frequency Printout                |
           -------------------------------------------------
 projected vibrational frequencies (cm⁻¹)
eigval :       -0.00    -0.00    -0.00     0.00     0.00     0.00
eigval :       38.59    45.63   110.23   124.91   205.72   243.60
eigval :      313.05   386.89   434.58   475.98   589.71   764.54
eigval :      801.62   838.37   905.75   930.45   985.11   994.25
eigval :     1029.80  1095.90  1097.25  1141.10  1157.45  1167.00
eigval :     1226.69  1273.51  1318.21  1350.52  1355.40  1359.47
eigval :     1409.04  1423.55  1435.93  1448.46  1472.27  1495.51
eigval :     1499.42  1506.89  1705.37  2954.11  2963.13  2972.20
eigval :     2983.38  2987.30  3008.73  3021.73  3028.58  3032.07
eigval :     3044.14  3048.75  3057.77
 reduced masses (amu)
   1: 10.60   2: 11.52   3: 10.64   4: 10.31   5: 11.15   6: 10.20   7: 10.30   8:  9.28
   9:  2.70  10:  5.08  11:  8.81  12:  4.92  13:  7.84  14:  7.56  15:  8.52  16:  8.08
  17: 10.44  18:  4.28  19:  7.36  20:  4.89  21:  6.59  22:  4.83  23:  6.88  24:  6.27
  25:  5.45  26:  6.22  27:  4.91  28:  8.09  29:  6.09  30:  6.35  31:  4.25  32:  2.72
  33:  5.21  34:  4.29  35:  5.02  36:  3.31  37:  3.12  38:  2.09  39:  1.80  40:  1.64
  41:  1.92  42:  1.70  43:  1.78  44:  1.56  45: 13.22  46:  1.79  47:  1.94  48:  1.90
  49:  1.58  50:  1.49  51:  1.69  52:  1.79  53:  1.90  54:  1.91  55:  1.33  56:  1.44
  57:  1.94
 IR intensities (km·mol⁻¹)
   1:  0.09   2:  1.26   3:  0.57   4:  5.36   5:  0.35   6:  0.54   7:  5.04   8:  2.47
   9:  1.95  10:  1.36  11:  3.89  12:  1.15  13:  4.56  14:  1.89  15:  5.46  16:  1.89
  17: 14.42  18: 15.32  19:  4.56  20:  4.78  21:  2.77  22:  6.58  23: 14.69  24: 32.09
  25:  4.20  26:  7.51  27:  4.34  28: 61.11  29: 60.54  30: 60.64  31:  6.76  32:  7.12
  33: 44.83  34: 13.87  35:  0.44  36: 57.68  37:  3.84  38: 12.99  39: 25.94  40:  8.25
  41:  0.08  42:  1.01  43:  1.14  44:  0.98  45:538.36  46: 12.54  47: 53.41  48: 35.86
  49:104.54  50: 82.75  51: 23.65  52:  5.42  53: 80.76  54: 85.53  55: 47.05  56:  6.03
  57: 25.49
 Raman intensities (Ä⁴*amu⁻¹)
   1:  0.00   2:  0.00   3:  0.00   4:  0.00   5:  0.00   6:  0.00   7:  0.00   8:  0.00
   9:  0.00  10:  0.00  11:  0.00  12:  0.00  13:  0.00  14:  0.00  15:  0.00  16:  0.00
  17:  0.00  18:  0.00  19:  0.00  20:  0.00  21:  0.00  22:  0.00  23:  0.00  24:  0.00
  25:  0.00  26:  0.00  27:  0.00  28:  0.00  29:  0.00  30:  0.00  31:  0.00  32:  0.00
  33:  0.00  34:  0.00  35:  0.00  36:  0.00  37:  0.00  38:  0.00  39:  0.00  40:  0.00
  41:  0.00  42:  0.00  43:  0.00  44:  0.00  45:  0.00  46:  0.00  47:  0.00  48:  0.00
  49:  0.00  50:  0.00  51:  0.00  52:  0.00  53:  0.00  54:  0.00  55:  0.00  56:  0.00
  57:  0.00
 output can be read by thermo (or use thermo option).
 writing <g98.out> molden fake output.
 recommended (thermochemical) frequency scaling factor: 1.0
           -------------------------------------------------
          |             Thermodynamic Functions             |
           -------------------------------------------------

Molecule has no symmetry elements
It seems to be the C1 point group
c1  symmetry found (for desy threshold:  0.10E+00) used in thermo

          ...................................................
          :                      SETUP                      :
          :.................................................:
          :  # frequencies                          51      :
          :  # imaginary freq.                       0      :
          :  linear?                             false      :
          :  only rotor calc.                    false      :
          :  symmetry                               c1      :
          :  rotational number                       1      :
          :  scaling factor                  1.0000000      :
          :  rotor cutoff                    0.0000000 cm⁻¹ :
          :  imag. cutoff                 -100.0000000 cm⁻¹ :
          :.................................................:

    mode    ω/cm⁻¹     T·S(HO)/kcal·mol⁻¹    T·S(FR)/kcal·mol⁻¹   T·S(vib)
   ------------------------------------------------------------------------
       1     38.59    -1.58925 (100.00%)    -1.13285 (  0.00%)    -1.58925
       2     45.63    -1.49022 (100.00%)    -1.08323 (  0.00%)    -1.49022
       3    110.23    -0.97343 (100.00%)    -0.82220 (  0.00%)    -0.97343
       4    124.91    -0.90132 (100.00%)    -0.78519 (  0.00%)    -0.90132
       5    205.72    -0.62056 (100.00%)    -0.63744 (  0.00%)    -0.62056
       6    243.60    -0.52963 (100.00%)    -0.58737 (  0.00%)    -0.52963
   ------------------------------------------------------------------------

   temp. (K)  partition function   enthalpy   heat capacity  entropy
                                   cal/mol     cal/K/mol   cal/K/mol   J/K/mol
 298.15  VIB   871.                 3912.884     25.220     26.577
         ROT  0.291E+06              888.752      2.981     27.984
         INT  0.254E+09             4801.637     28.200     54.561
         TR   0.970E+27             1481.254      4.968     39.705
         TOT                        6282.8907    33.1686    94.2657   394.4076

       T/K    H(0)-H(T)+PV         H(T)/Eh          T*S/Eh         G(T)/Eh
   ------------------------------------------------------------------------
    298.15    0.100124E-01    0.176910E+00    0.447887E-01    0.132121E+00
   ------------------------------------------------------------------------

         :::::::::::::::::::::::::::::::::::::::::::::::::::::
         ::                  THERMODYNAMIC                  ::
         :::::::::::::::::::::::::::::::::::::::::::::::::::::
         :: total free energy         -22.899145111598 Eh   ::
         ::.................................................::
         :: total energy              -23.031266518917 Eh   ::
         :: zero point energy           0.166897653738 Eh   ::
         :: G(RRHO) w/o ZPVE           -0.034776246418 Eh   ::
         :: G(RRHO) contrib.            0.132121407319 Eh   ::
         :::::::::::::::::::::::::::::::::::::::::::::::::::::

optimized geometry written to: xtbopt.coord


           -------------------------------------------------
          | TOTAL ENERGY              -23.031266518917 Eh   |
          | TOTAL ENTHALPY            -22.854356441474 Eh   |
          | TOTAL FREE ENERGY         -22.899145111598 Eh   |
          | GRADIENT NORM               0.000051326501 Eh/α |
          | HOMO-LUMO GAP               3.972311657202 eV   |
           -------------------------------------------------

------------------------------------------------------------------------
 * finished run on 2025/04/11 at 16:35:43.115     
------------------------------------------------------------------------
 total:
 * wall-time:     0 d,  0 h,  0 min,  1.295 sec
 *  cpu-time:     0 d,  0 h,  0 min,  1.167 sec
 * ratio c/w:     0.901 speedup
 SCF:
 * wall-time:     0 d,  0 h,  0 min,  0.039 sec
 *  cpu-time:     0 d,  0 h,  0 min,  0.018 sec
 * ratio c/w:     0.465 speedup
 ANC optimizer:
 * wall-time:     0 d,  0 h,  0 min,  0.243 sec
 *  cpu-time:     0 d,  0 h,  0 min,  0.198 sec
 * ratio c/w:     0.814 speedup
 analytical hessian:
 * wall-time:     0 d,  0 h,  0 min,  0.945 sec
 *  cpu-time:     0 d,  0 h,  0 min,  0.933 sec
 * ratio c/w:     0.988 speedup

