 Entering Gaussian System
 *********************************************
 Gaussian 98:
 frequency output generated by the xtb code
 *********************************************
                         Standard orientation:
 --------------------------------------------------------------------
  Center     Atomic     Atomic              Coordinates (Angstroms)
  Number     Number      Type              X           Y           Z
 --------------------------------------------------------------------
    1          6             0        1.687374    0.287010   -1.037428
    2          6             0        1.593380   -0.209198    0.365718
    3          8             0        2.435712   -0.886214    0.908498
    4          6             0        0.345436    0.200309    1.146915
    5          8             0       -0.647674    0.855008    0.379469
    6          7             0       -1.480585    0.066359   -0.366399
    7          8             0       -1.304627   -1.110779   -0.328483
    8          8             0       -2.295191    0.677846   -0.978047
    9          1             0        1.053120   -0.334313   -1.670295
   10          1             0        1.339746    1.314746   -1.105350
   11          1             0        2.710086    0.198951   -1.391484
   12          1             0        0.636954    0.930176    1.906003
   13          1             0       -0.064048   -0.684285    1.645868
 --------------------------------------------------------------------
     1 basis functions        1 primitive gaussians
     1 alpha electrons        1 beta electrons
 
 Harmonic frequencies (cm**-1), IR intensities (km*mol⁻¹),
 Raman scattering activities (A**4/amu), Raman depolarization ratios,
 reduced masses (AMU), force constants (mDyne/A) and normal coordinates:
                      1                      2                      3
                        a                      a                      a 
 Frequencies --    36.3075                60.8004                88.9516
 Red. masses --    13.5029                13.4359                14.0906
 Frc consts  --     0.0000                 0.0000                 0.0000
 IR Inten    --    19.6998                 1.3762                 5.5002
 Raman Activ --     0.0000                 0.0000                 0.0000
 Depolar     --     0.0000                 0.0000                 0.0000
 Atom AN      X      Y      Z        X      Y      Z        X      Y      Z
   1   6     0.08   0.28   0.07     0.27   0.35   0.11    -0.40   0.02  -0.05
   2   6    -0.11  -0.01  -0.04     0.12   0.04  -0.02    -0.13   0.01  -0.02
   3   8    -0.41  -0.48  -0.21     0.08  -0.06  -0.06     0.01   0.06  -0.22
   4   6     0.03   0.30   0.03     0.01  -0.12  -0.10    -0.02  -0.06   0.18
   5   8    -0.04   0.16  -0.03     0.11  -0.10  -0.21    -0.08  -0.04   0.31
   6   7     0.10  -0.05   0.04    -0.13  -0.06   0.03     0.14  -0.01   0.02
   7   8     0.32  -0.02   0.16    -0.56  -0.11   0.43    -0.03  -0.03   0.24
   8   8     0.00  -0.26  -0.03     0.08   0.02  -0.18     0.53   0.03  -0.44
   9   1     0.04   0.13  -0.04     0.06   0.18  -0.02    -0.12  -0.02   0.01
  10   1     0.04   0.09   0.06     0.12   0.12   0.10    -0.15  -0.01  -0.00
  11   1     0.03   0.08   0.05     0.08   0.09   0.04    -0.13   0.04  -0.06
  12   1     0.06   0.16  -0.08    -0.03  -0.06   0.00     0.01  -0.03   0.05
  13   1     0.01   0.14   0.11    -0.01  -0.05  -0.07     0.01  -0.02   0.05
                      4                      5                      6
                        a                      a                      a 
 Frequencies --   168.9317               270.0353               298.9444
 Red. masses --     1.3355                12.2559                10.4840
 Frc consts  --     0.0000                 0.0000                 0.0000
 IR Inten    --     5.0122                 8.3989                 9.9193
 Raman Activ --     0.0000                 0.0000                 0.0000
 Depolar     --     0.0000                 0.0000                 0.0000
 Atom AN      X      Y      Z        X      Y      Z        X      Y      Z
   1   6     0.08   0.00  -0.02     0.46  -0.12  -0.22     0.11  -0.03  -0.09
   2   6     0.02   0.02  -0.01     0.02   0.07  -0.19    -0.12  -0.06  -0.11
   3   8    -0.04  -0.06  -0.03    -0.12   0.08   0.02    -0.10   0.10   0.02
   4   6     0.01   0.01  -0.01     0.06   0.05  -0.05    -0.25  -0.38  -0.17
   5   8    -0.01   0.00   0.02    -0.43  -0.06   0.50     0.03   0.26   0.01
   6   7    -0.02   0.01   0.01    -0.12  -0.02   0.09     0.06   0.15   0.07
   7   8    -0.07   0.01   0.04    -0.07  -0.01  -0.03     0.33   0.21   0.33
   8   8     0.00   0.04   0.01     0.08   0.03  -0.13    -0.07  -0.18  -0.06
   9   1     0.48  -0.40  -0.07     0.12   0.01  -0.09     0.06   0.01  -0.07
  10   1    -0.49  -0.19  -0.17     0.23  -0.00  -0.12     0.05  -0.00  -0.03
  11   1     0.13   0.48   0.19     0.15  -0.14   0.02     0.05  -0.01   0.03
  12   1     0.01   0.00  -0.00     0.07   0.03  -0.05    -0.10  -0.31   0.15
  13   1     0.01   0.00  -0.00     0.11   0.00   0.04    -0.14  -0.21  -0.28
                      7                      8                      9
                        a                      a                      a 
 Frequencies --   421.7144               453.3694               491.2756
 Red. masses --    14.1908                 8.9644                10.4571
 Frc consts  --     0.0000                 0.0000                 0.0000
 IR Inten    --     2.7877                 5.1983                24.8381
 Raman Activ --     0.0000                 0.0000                 0.0000
 Depolar     --     0.0000                 0.0000                 0.0000
 Atom AN      X      Y      Z        X      Y      Z        X      Y      Z
   1   6    -0.02  -0.04   0.21     0.07  -0.11   0.06     0.18  -0.14   0.14
   2   6     0.17  -0.29   0.09     0.25   0.51   0.27    -0.39  -0.11   0.10
   3   8     0.51  -0.14  -0.10     0.02  -0.25  -0.31     0.18   0.22  -0.47
   4   6     0.05   0.00  -0.01    -0.03   0.09   0.18    -0.25   0.02   0.31
   5   8    -0.23   0.16   0.14    -0.02   0.06   0.02     0.07  -0.01  -0.13
   6   7    -0.21   0.16  -0.06    -0.06   0.01  -0.04     0.05  -0.02  -0.03
   7   8     0.06   0.23   0.06    -0.04   0.01  -0.04    -0.01  -0.03   0.00
   8   8    -0.31  -0.18  -0.33    -0.09  -0.09  -0.08     0.02   0.04   0.07
   9   1    -0.01   0.02   0.04    -0.05  -0.19   0.23     0.16   0.01  -0.12
  10   1    -0.05  -0.02   0.15     0.05  -0.04  -0.22     0.17  -0.01  -0.05
  11   1    -0.02   0.06   0.01    -0.01  -0.18  -0.04     0.14  -0.14   0.30
  12   1     0.07   0.07  -0.09    -0.22  -0.10   0.25    -0.03   0.08   0.00
  13   1    -0.01   0.08   0.10     0.01  -0.13  -0.20    -0.13   0.08   0.17
                     10                     11                     12
                        a                      a                      a 
 Frequencies --   639.5535               690.8955               740.7188
 Red. masses --    14.1924                12.6348                14.4734
 Frc consts  --     0.0000                 0.0000                 0.0000
 IR Inten    --     1.6158                21.1302               105.1350
 Raman Activ --     0.0000                 0.0000                 0.0000
 Depolar     --     0.0000                 0.0000                 0.0000
 Atom AN      X      Y      Z        X      Y      Z        X      Y      Z
   1   6     0.01  -0.03   0.13     0.01   0.07  -0.06    -0.00  -0.00  -0.01
   2   6     0.11   0.01   0.07     0.00   0.17   0.02     0.05  -0.02   0.00
   3   8     0.16  -0.09  -0.08    -0.15   0.03   0.02     0.04  -0.03   0.01
   4   6    -0.25   0.05  -0.32     0.08  -0.29   0.15    -0.05   0.02  -0.04
   5   8    -0.48  -0.15  -0.25     0.06  -0.53  -0.09    -0.20   0.07   0.19
   6   7    -0.02  -0.10   0.09    -0.03   0.18  -0.19     0.56   0.03  -0.65
   7   8     0.28  -0.10   0.20     0.24   0.25   0.28    -0.21  -0.06   0.21
   8   8     0.23   0.39   0.17    -0.24   0.13  -0.13    -0.14  -0.02   0.25
   9   1    -0.03  -0.05   0.11    -0.02  -0.06   0.08    -0.00   0.01  -0.01
  10   1    -0.03  -0.02   0.02     0.02   0.01  -0.14     0.00   0.00   0.02
  11   1    -0.02  -0.01  -0.03    -0.01  -0.05  -0.03    -0.01   0.01  -0.02
  12   1    -0.13   0.07  -0.13     0.04   0.14  -0.17    -0.02   0.00  -0.01
  13   1    -0.06   0.03  -0.06     0.14   0.00   0.27    -0.01   0.00  -0.01
                     13                     14                     15
                        a                      a                      a 
 Frequencies --   790.0468               812.5607               845.8644
 Red. masses --    11.0202                11.6816                 8.4020
 Frc consts  --     0.0000                 0.0000                 0.0000
 IR Inten    --   202.2289               298.9404               116.7505
 Raman Activ --     0.0000                 0.0000                 0.0000
 Depolar     --     0.0000                 0.0000                 0.0000
 Atom AN      X      Y      Z        X      Y      Z        X      Y      Z
   1   6     0.02   0.04   0.24    -0.04  -0.06   0.40     0.14   0.21  -0.23
   2   6    -0.04   0.10   0.03    -0.18   0.10   0.01     0.10  -0.01   0.03
   3   8    -0.06   0.05  -0.09    -0.13   0.13  -0.13     0.08  -0.08   0.08
   4   6    -0.05  -0.22  -0.31     0.25  -0.07  -0.38    -0.36  -0.22   0.12
   5   8    -0.07  -0.01  -0.03     0.21   0.16   0.23     0.16   0.32   0.11
   6   7     0.33   0.25   0.31    -0.25  -0.23  -0.26    -0.16  -0.19  -0.10
   7   8    -0.25   0.14  -0.19     0.11  -0.14   0.09     0.03  -0.15  -0.01
   8   8     0.12  -0.33   0.06    -0.05   0.17  -0.02     0.04   0.08   0.03
   9   1    -0.04  -0.14   0.25    -0.02  -0.09   0.18    -0.08  -0.12   0.21
  10   1    -0.01  -0.01  -0.14     0.00  -0.02  -0.01    -0.02   0.02  -0.25
  11   1    -0.02  -0.10   0.02    -0.00  -0.11   0.16    -0.04  -0.01  -0.25
  12   1     0.14   0.07  -0.27     0.22  -0.09  -0.09     0.17   0.05  -0.17
  13   1    -0.01   0.07   0.13     0.09   0.00  -0.04    -0.24   0.15   0.28
                     16                     17                     18
                        a                      a                      a 
 Frequencies --   997.9659              1013.4974              1059.6568
 Red. masses --     6.9795                 6.8820                11.6339
 Frc consts  --     0.0000                 0.0000                 0.0000
 IR Inten    --    11.8983                19.1054                69.1255
 Raman Activ --     0.0000                 0.0000                 0.0000
 Depolar     --     0.0000                 0.0000                 0.0000
 Atom AN      X      Y      Z        X      Y      Z        X      Y      Z
   1   6     0.36  -0.03   0.23     0.12  -0.38   0.03     0.05   0.13  -0.03
   2   6    -0.09  -0.21  -0.34     0.16   0.33   0.02    -0.12  -0.20   0.04
   3   8    -0.13   0.18  -0.10    -0.12   0.03  -0.14     0.10  -0.02   0.01
   4   6     0.03   0.13   0.26    -0.29  -0.10  -0.09    -0.30   0.37  -0.31
   5   8    -0.05  -0.06  -0.09     0.20  -0.00   0.14     0.38  -0.34   0.35
   6   7     0.03   0.03  -0.01    -0.03  -0.02  -0.00    -0.03   0.04  -0.02
   7   8     0.01  -0.01   0.01    -0.01   0.03  -0.01    -0.00   0.12   0.01
   8   8    -0.03   0.02  -0.01     0.02  -0.03   0.01    -0.02  -0.07  -0.03
   9   1    -0.16  -0.14   0.42    -0.05   0.17  -0.16    -0.01  -0.06   0.10
  10   1    -0.18  -0.09   0.18    -0.09  -0.09   0.53    -0.01   0.02  -0.13
  11   1    -0.06   0.08  -0.38     0.00   0.23  -0.14    -0.02  -0.03  -0.08
  12   1     0.03  -0.07   0.15    -0.08   0.13  -0.16    -0.34   0.12  -0.00
  13   1     0.01  -0.05  -0.08     0.01   0.04   0.15    -0.01   0.02  -0.13
                     19                     20                     21
                        a                      a                      a 
 Frequencies --  1160.4715              1175.2513              1266.6754
 Red. masses --     7.6394                 6.4193                 3.5916
 Frc consts  --     0.0000                 0.0000                 0.0000
 IR Inten    --   149.1645               121.7941                 2.7039
 Raman Activ --     0.0000                 0.0000                 0.0000
 Depolar     --     0.0000                 0.0000                 0.0000
 Atom AN      X      Y      Z        X      Y      Z        X      Y      Z
   1   6    -0.16   0.03   0.24    -0.14  -0.04   0.14     0.02  -0.01   0.00
   2   6     0.32  -0.06  -0.54     0.32   0.10  -0.31     0.03   0.02  -0.06
   3   8    -0.05   0.02   0.06    -0.03  -0.02   0.03    -0.09   0.06  -0.03
   4   6    -0.14  -0.10   0.15    -0.25   0.22   0.05     0.42  -0.15  -0.07
   5   8     0.07   0.19   0.02     0.06  -0.27   0.05    -0.03  -0.03   0.08
   6   7    -0.00  -0.02   0.01     0.03   0.05   0.02     0.01   0.01   0.01
   7   8     0.00  -0.09  -0.01     0.02   0.02   0.02     0.01  -0.03   0.00
   8   8    -0.02   0.03  -0.01    -0.06   0.02  -0.05    -0.02   0.02  -0.02
   9   1     0.05  -0.06   0.03     0.04  -0.01  -0.04    -0.02  -0.01   0.03
  10   1     0.03   0.02  -0.07     0.04   0.01   0.00    -0.01  -0.01   0.04
  11   1     0.02  -0.17   0.27     0.02  -0.09   0.22     0.01   0.00   0.01
  12   1    -0.40   0.25  -0.09     0.47  -0.23   0.08    -0.44   0.08   0.09
  13   1     0.22  -0.11   0.08    -0.41   0.16  -0.09    -0.65   0.36   0.07
                     22                     23                     24
                        a                      a                      a 
 Frequencies --  1280.4841              1350.0072              1353.5708
 Red. masses --    15.0879                 2.7669                 2.3929
 Frc consts  --     0.0000                 0.0000                 0.0000
 IR Inten    --   591.1367               126.4688                 2.9400
 Raman Activ --     0.0000                 0.0000                 0.0000
 Depolar     --     0.0000                 0.0000                 0.0000
 Atom AN      X      Y      Z        X      Y      Z        X      Y      Z
   1   6     0.02  -0.01  -0.01    -0.05   0.09  -0.32    -0.03   0.06  -0.26
   2   6    -0.04  -0.01   0.10    -0.01  -0.01   0.01    -0.03  -0.01   0.07
   3   8    -0.00   0.01  -0.02     0.02  -0.01   0.01    -0.01   0.01  -0.01
   4   6    -0.02   0.01  -0.02    -0.05   0.04  -0.15     0.06  -0.04   0.18
   5   8     0.08   0.04   0.07    -0.00   0.01  -0.03     0.00  -0.01   0.04
   6   7     0.30   0.29   0.28     0.05   0.04   0.04    -0.04  -0.01  -0.03
   7   8     0.07  -0.60   0.00     0.01  -0.07  -0.00    -0.00   0.03   0.00
   8   8    -0.40   0.28  -0.30    -0.04   0.03  -0.03     0.04  -0.02   0.02
   9   1    -0.00   0.03  -0.03    -0.03  -0.33   0.31    -0.04  -0.24   0.24
  10   1     0.00  -0.00  -0.03     0.13   0.09   0.43     0.09   0.07   0.32
  11   1    -0.01   0.04  -0.05     0.11  -0.04   0.29     0.09  -0.01   0.23
  12   1     0.03   0.06  -0.07    -0.07  -0.27   0.27     0.12   0.35  -0.37
  13   1    -0.00  -0.04  -0.08     0.18   0.13   0.36    -0.19  -0.20  -0.49
                     25                     26                     27
                        a                      a                      a 
 Frequencies --  1425.8913              1435.8167              1721.1786
 Red. masses --     1.9708                 1.5762                13.4527
 Frc consts  --     0.0000                 0.0000                 0.0000
 IR Inten    --    24.5891                16.9311               985.3057
 Raman Activ --     0.0000                 0.0000                 0.0000
 Depolar     --     0.0000                 0.0000                 0.0000
 Atom AN      X      Y      Z        X      Y      Z        X      Y      Z
   1   6     0.21   0.08  -0.15    -0.02   0.21   0.04     0.01  -0.04   0.05
   2   6    -0.03   0.05   0.01    -0.01   0.04   0.04    -0.50   0.42  -0.37
   3   8     0.05  -0.05   0.03     0.00   0.00  -0.00     0.41  -0.33   0.26
   4   6    -0.01   0.00  -0.01    -0.00  -0.02  -0.00     0.02  -0.01   0.02
   5   8    -0.00  -0.00  -0.00     0.00   0.00   0.00     0.01  -0.02  -0.00
   6   7     0.02   0.01   0.00     0.00   0.00   0.01    -0.09   0.20  -0.06
   7   8     0.00  -0.01  -0.00     0.00  -0.01  -0.00     0.02  -0.12   0.01
   8   8    -0.01   0.00  -0.00    -0.01   0.00  -0.01     0.07  -0.06   0.05
   9   1    -0.33   0.31   0.03     0.47  -0.21  -0.24     0.01  -0.03   0.02
  10   1    -0.64  -0.21   0.00    -0.20  -0.02   0.31     0.04   0.01   0.04
  11   1     0.12  -0.35   0.34    -0.16  -0.61  -0.31    -0.01   0.04  -0.04
  12   1     0.01  -0.01  -0.00     0.02   0.01  -0.02    -0.01   0.02  -0.00
  13   1     0.01  -0.00   0.00    -0.02   0.00  -0.00    -0.04   0.01  -0.01
                     28                     29                     30
                        a                      a                      a 
 Frequencies --  1732.3923              2956.7959              2983.9190
 Red. masses --    14.5468                 1.7751                 1.7085
 Frc consts  --     0.0000                 0.0000                 0.0000
 IR Inten    --   573.3523                 2.5081                18.6521
 Raman Activ --     0.0000                 0.0000                 0.0000
 Depolar     --     0.0000                 0.0000                 0.0000
 Atom AN      X      Y      Z        X      Y      Z        X      Y      Z
   1   6     0.00  -0.01   0.01     0.00   0.00  -0.00     0.00   0.01   0.01
   2   6    -0.15   0.12  -0.10    -0.01  -0.00   0.00     0.01  -0.01  -0.01
   3   8     0.12  -0.09   0.07     0.00   0.00  -0.00    -0.00   0.00  -0.00
   4   6     0.00  -0.01   0.00    -0.10  -0.22   0.10    -0.06  -0.16  -0.18
   5   8     0.01   0.03   0.01     0.00  -0.01   0.01    -0.01   0.00  -0.01
   6   7     0.37  -0.65   0.25     0.00  -0.00  -0.00     0.00  -0.00  -0.00
   7   8    -0.06   0.37  -0.02    -0.00   0.00   0.00     0.00   0.00   0.00
   8   8    -0.28   0.21  -0.21    -0.00   0.00  -0.00     0.00  -0.00   0.00
   9   1    -0.00  -0.02   0.02     0.00   0.00   0.00    -0.02  -0.02  -0.02
  10   1     0.01   0.01   0.02     0.00  -0.01  -0.00     0.00  -0.00   0.00
  11   1    -0.00   0.01  -0.01    -0.00   0.00   0.00     0.00   0.00   0.00
  12   1    -0.01   0.02  -0.01     0.01   0.03   0.06     0.26   0.65   0.66
  13   1    -0.02  -0.01  -0.01     0.36   0.78  -0.44    -0.03  -0.08   0.01
                     31                     32                     33
                        a                      a                      a 
 Frequencies --  3003.6083              3040.9427              3068.9289
 Red. masses --     1.7801                 1.5816                 1.8158
 Frc consts  --     0.0000                 0.0000                 0.0000
 IR Inten    --     0.4923                 0.3856                 5.0359
 Raman Activ --     0.0000                 0.0000                 0.0000
 Depolar     --     0.0000                 0.0000                 0.0000
 Atom AN      X      Y      Z        X      Y      Z        X      Y      Z
   1   6    -0.15  -0.16  -0.14     0.05  -0.22   0.04    -0.25   0.07   0.08
   2   6    -0.01  -0.00  -0.01     0.00  -0.01   0.00    -0.01   0.00   0.00
   3   8     0.00  -0.00   0.00    -0.00   0.00  -0.00     0.00  -0.00   0.00
   4   6    -0.00  -0.00  -0.01    -0.00  -0.00   0.00     0.00   0.00   0.00
   5   8    -0.00  -0.00  -0.00     0.00   0.00  -0.00     0.00  -0.00   0.00
   6   7     0.00   0.00   0.00    -0.00  -0.00  -0.00     0.00   0.00   0.00
   7   8    -0.00  -0.00  -0.00     0.00  -0.00   0.00    -0.00   0.00  -0.00
   8   8     0.00  -0.00  -0.00     0.00   0.00   0.00    -0.00  -0.00   0.00
   9   1     0.56   0.54   0.56    -0.05  -0.08  -0.05    -0.05  -0.01  -0.01
  10   1    -0.05   0.06  -0.02    -0.30   0.90  -0.05     0.03  -0.17   0.02
  11   1     0.03  -0.03  -0.03     0.19  -0.04  -0.06     0.89  -0.07  -0.30
  12   1     0.01   0.02   0.02     0.00   0.00   0.00    -0.00  -0.00  -0.00
  13   1    -0.00  -0.00   0.00     0.00   0.01  -0.00     0.00   0.00  -0.00
