      -----------------------------------------------------------      
     |                   =====================                   |     
     |                           x T B                           |     
     |                   =====================                   |     
     |                         S. Grimme                         |     
     |          Mulliken Center for Theoretical Chemistry        |     
     |                    University of Bonn                     |     
      -----------------------------------------------------------      

   * xtb version 6.7.1 (edcfbbe) compiled by 'albert@albert-system' on 2024-07-22

   xtb is free software: you can redistribute it and/or modify it under
   the terms of the GNU Lesser General Public License as published by
   the Free Software Foundation, either version 3 of the License, or
   (at your option) any later version.
   
   xtb is distributed in the hope that it will be useful,
   but WITHOUT ANY WARRANTY; without even the implied warranty of
   MERCHANTABILITY or FITNESS FOR A PARTICULAR PURPOSE.  See the
   GNU Lesser General Public License for more details.
   
   Cite this work as:
   * C. Bannwarth, E. Caldeweyher, S. Ehlert, A. Hansen, P. Pracht,
     J. Seibert, S. Spicher, S. Grimme, WIREs Comput. Mol. Sci., 2020, 11,
     e01493. DOI: 10.1002/wcms.1493
   
   for GFN2-xTB:
   * C. Bannwarth, S. Ehlert and S. Grimme., J. Chem. Theory Comput., 2019,
     15, 1652-1671. DOI: 10.1021/acs.jctc.8b01176
   for GFN1-xTB:
   * S. Grimme, C. Bannwarth, P. Shushkov, J. Chem. Theory Comput., 2017,
     13, 1989-2009. DOI: 10.1021/acs.jctc.7b00118
   for GFN0-xTB:
   * P. Pracht, E. Caldeweyher, S. Ehlert, S. Grimme, ChemRxiv, 2019, preprint.
     DOI: 10.26434/chemrxiv.8326202.v1
   for GFN-FF:
   * S. Spicher and S. Grimme, Angew. Chem. Int. Ed., 2020, 59, 15665-15673.
     DOI: 10.1002/anie.202004239
   
   for ALPB and GBSA implicit solvation:
   * S. Ehlert, M. Stahn, S. Spicher, S. Grimme, J. Chem. Theory Comput.,
     2021, 17, 4250-4261. DOI: 10.1021/acs.jctc.1c00471
   
   for ddCOSMO and CPCM-X implicit solvation:
   * M. Stahn, S. Ehlert, S. Grimme, J. Phys. Chem. A,
     2023, XX, XXXX-XXXX. DOI: 10.1021/acs.jpca.3c04382
   
   for DFT-D4:
   * E. Caldeweyher, C. Bannwarth and S. Grimme, J. Chem. Phys., 2017,
     147, 034112. DOI: 10.1063/1.4993215
   * E. Caldeweyher, S. Ehlert, A. Hansen, H. Neugebauer, S. Spicher,
     C. Bannwarth and S. Grimme, J. Chem. Phys., 2019, 150, 154122.
     DOI: 10.1063/1.5090222
   * E. Caldeweyher, J.-M. Mewes, S. Ehlert and S. Grimme, Phys. Chem. Chem. Phys.
     2020, 22, 8499-8512. DOI: 10.1039/D0CP00502A
   
   for sTDA-xTB:
   * S. Grimme and C. Bannwarth, J. Chem. Phys., 2016, 145, 054103.
     DOI: 10.1063/1.4959605
   
   in the mass-spec context:
   * V. Asgeirsson, C. Bauer and S. Grimme, Chem. Sci., 2017, 8, 4879.
     DOI: 10.1039/c7sc00601b
   * J. Koopman and S. Grimme, ACS Omega 2019, 4, 12, 15120-15133.
     DOI: 10.1021/acsomega.9b02011
   
   for metadynamics refer to:
   * S. Grimme, J. Chem. Theory Comput., 2019, 155, 2847-2862
     DOI: 10.1021/acs.jctc.9b00143
   
   for SPH calculations refer to:
   * S. Spicher and S. Grimme, J. Chem. Theory Comput., 2021, 17, 1701-1714
     DOI: 10.1021/acs.jctc.0c01306
   
   for ONIOM refer to:
   * C. Plett, A. Katbashev, S. Ehlert, S. Grimme, M. Bursch,
     Phys. Chem. Chem. Phys., 2023, 25, 17860-17868. DOI: 10.1039/D3CP02178E
   
   for DIPRO refer to:
   * J. Kohn, N. Gildemeister, S. Grimme, D. Fazzi, A. Hansen,
     J. Chem. Phys., 2023, just accepted.
   
   for PTB refer to:
   * S. Grimme, M. Mueller, A. Hansen, J. Chem. Phys., 2023, 158, 124111.
     DOI: 10.1063/5.0137838
   
   with help from (in alphabetical order)
   P. Atkinson, C. Bannwarth, F. Bohle, G. Brandenburg, E. Caldeweyher
   M. Checinski, S. Dohm, S. Ehlert, S. Ehrlich, I. Gerasimov, C. Hölzer
   A. Katbashev, J. Kohn, J. Koopman, C. Lavigne, S. Lehtola, F. März, M. Müller,
   F. Musil, H. Neugebauer, J. Pisarek, C. Plett, P. Pracht, F. Pultar,
   J. Seibert, P. Shushkov, S. Spicher, M. Stahn, M. Steiner, T. Strunk,
   J. Stückrath, T. Rose, and J. Unsleber
   
 * started run on 2025/04/11 at 16:09:19.176     
   ID    Z sym.   atoms
    1    6 C      1-5, 7
    2    8 O      6
    3    1 H      8-19

           -------------------------------------------------
          |                Calculation Setup                |
           -------------------------------------------------

          program call               : /srv/scratch/z5358697/.xtb/bin/xtb solv.coord --gfn2 --sp --chrg 0 --norestart --parallel 1 --alpb water reference -I xtb_sp-xcontrol-inp
          hostname                   : k065
          coordinate file            : solv.coord
          omp threads                :                     1


           -------------------------------------------------
          |                 G F N 2 - x T B                 |
           -------------------------------------------------

        Reference                      10.1021/acs.jctc.8b01176
      * Hamiltonian:
        H0-scaling (s, p, d)           1.850000    2.230000    2.230000
        zeta-weighting                 0.500000
      * Dispersion:
        s8                             2.700000
        a1                             0.520000
        a2                             5.000000
        s9                             5.000000
      * Repulsion:
        kExp                           1.500000    1.000000
        rExp                           1.000000
      * Coulomb:
        alpha                          2.000000
        third order                    shell-resolved
        anisotropic                    true
        a3                             3.000000
        a5                             4.000000
        cn-shift                       1.200000
        cn-exp                         4.000000
        max-rad                        5.000000

      * Solvation model:               ALPB
        Solvent                        water
        Parameter file                 internal GFN2-xTB/ALPB
        Dielectric constant                8.0200E+01
        Reference state                gsolv=reference [X=1]
        Free energy shift                  2.8945E-03 Eh       1.8164E+00 kcal/mol
        Temperature                        2.9815E+02 K
        Density                            1.0000E+00 kg/L
        Solvent mass                       1.8000E+01 g/mol
        Interaction kernel             P16
        Born radius scaling (c1)           1.4744E+00
        Born radii integrator          GBOBC
        Born offset                        0.0000E+00 a0       0.0000E+00 AA
        H-bond correction              true
        Ion screening                  false
        Surface tension                    1.0000E-05 Eh       1.5569E+01 dyn/cm
        Grid points                               974 per atom

          ...................................................
          :                      SETUP                      :
          :.................................................:
          :  # basis functions                  40          :
          :  # atomic orbitals                  40          :
          :  # shells                           26          :
          :  # electrons                        42          :
          :  max. iterations                   250          :
          :  Hamiltonian                  GFN2-xTB          :
          :  restarted?                      false          :
          :  GBSA solvation                   true          :
          :  PC potential                    false          :
          :  electronic temp.          300.0000000     K    :
          :  accuracy                    1.0000000          :
          :  -> integral cutoff          0.2500000E+02      :
          :  -> integral neglect         0.1000000E-07      :
          :  -> SCF convergence          0.1000000E-05 Eh   :
          :  -> wf. convergence          0.1000000E-03 e    :
          :  Broyden damping             0.4000000          :
          :  net charge                          0          :
          :  unpaired electrons                  0          :
          ...................................................

 iter      E             dE          RMSdq      gap      omega  full diag
   1    -23.2710995 -0.232711E+02  0.379E+00    4.61       0.0  T
   2    -23.3340353 -0.629358E-01  0.184E+00    3.67       1.0  T
   3    -23.3373315 -0.329620E-02  0.107E+00    4.07       1.0  T
   4    -23.3393396 -0.200815E-02  0.179E-01    3.84       1.0  T
   5    -23.3396091 -0.269512E-03  0.701E-02    3.90       1.0  T
   6    -23.3396121 -0.295171E-05  0.180E-02    3.89       1.3  T
   7    -23.3396134 -0.130377E-05  0.516E-03    3.89       4.4  T
   8    -23.3396134 -0.397733E-07  0.218E-03    3.89      10.5  T
   9    -23.3396134 -0.886154E-08  0.724E-04    3.89      31.7  T
  10    -23.3396134 -0.121834E-08  0.203E-04    3.89     112.8  T

   *** convergence criteria satisfied after 10 iterations ***

         #    Occupation            Energy/Eh            Energy/eV
      -------------------------------------------------------------
         1        2.0000           -0.7146556             -19.4468
       ...           ...                  ...                  ...
        15        2.0000           -0.4709187             -12.8143
        16        2.0000           -0.4636883             -12.6176
        17        2.0000           -0.4512564             -12.2793
        18        2.0000           -0.4394483             -11.9580
        19        2.0000           -0.4291371             -11.6774
        20        2.0000           -0.4267374             -11.6121
        21        2.0000           -0.3972646             -10.8101 (HOMO)
        22                         -0.2542352              -6.9181 (LUMO)
        23                          0.0760393               2.0691
        24                          0.0999119               2.7187
        25                          0.1089345               2.9643
        26                          0.1275572               3.4710
       ...                                ...                  ...
        40                          0.5921729              16.1138
      -------------------------------------------------------------
                  HL-Gap            0.1430295 Eh            3.8920 eV
             Fermi-level           -0.3257499 Eh           -8.8641 eV

 SCC (total)                   0 d,  0 h,  0 min,  0.047 sec
 SCC setup                      ...        0 min,  0.004 sec (  7.900%)
 Dispersion                     ...        0 min,  0.000 sec (  0.576%)
 classical contributions        ...        0 min,  0.000 sec (  0.163%)
 integral evaluation            ...        0 min,  0.005 sec (  9.815%)
 iterations                     ...        0 min,  0.033 sec ( 68.741%)
 molecular gradient             ...        0 min,  0.006 sec ( 12.440%)
 printout                       ...        0 min,  0.000 sec (  0.304%)

         :::::::::::::::::::::::::::::::::::::::::::::::::::::
         ::                     SUMMARY                     ::
         :::::::::::::::::::::::::::::::::::::::::::::::::::::
         :: total energy             -23.028870310127 Eh    ::
         :: total w/o Gsasa/hb       -23.031205620770 Eh    ::
         :: gradient norm              0.000140799959 Eh/a0 ::
         :: HOMO-LUMO gap              3.892029536136 eV    ::
         ::.................................................::
         :: SCC energy               -23.339582890531 Eh    ::
         :: -> isotropic ES            0.041429330949 Eh    ::
         :: -> anisotropic ES          0.002927787930 Eh    ::
         :: -> anisotropic XC          0.011388174599 Eh    ::
         :: -> dispersion             -0.010847866641 Eh    ::
         :: -> Gsolv                  -0.006199078092 Eh    ::
         ::    -> Gelec               -0.008534388734 Eh    ::
         ::    -> Gsasa                0.001397956227 Eh    ::
         ::    -> Ghb                 -0.001957194745 Eh    ::
         ::    -> Gshift               0.002894549160 Eh    ::
         :: repulsion energy           0.310712580404 Eh    ::
         :: add. restraining           0.000000000000 Eh    ::
         :: total charge              -0.000000000000 e     ::
         :::::::::::::::::::::::::::::::::::::::::::::::::::::

           -------------------------------------------------
          |                Property Printout                |
           -------------------------------------------------

    * Orbital Energies and Occupations

         #    Occupation            Energy/Eh            Energy/eV
      -------------------------------------------------------------
         1        2.0000           -0.7146556             -19.4468
       ...           ...                  ...                  ...
         9        2.0000           -0.5334583             -14.5161
        10        2.0000           -0.5234833             -14.2447
        11        2.0000           -0.5069461             -13.7947
        12        2.0000           -0.4941624             -13.4468
        13        2.0000           -0.4819140             -13.1135
        14        2.0000           -0.4732140             -12.8768
        15        2.0000           -0.4709187             -12.8143
        16        2.0000           -0.4636883             -12.6176
        17        2.0000           -0.4512564             -12.2793
        18        2.0000           -0.4394483             -11.9580
        19        2.0000           -0.4291371             -11.6774
        20        2.0000           -0.4267374             -11.6121
        21        2.0000           -0.3972646             -10.8101 (HOMO)
        22                         -0.2542352              -6.9181 (LUMO)
        23                          0.0760393               2.0691
        24                          0.0999119               2.7187
        25                          0.1089345               2.9643
        26                          0.1275572               3.4710
        27                          0.1361165               3.7039
        28                          0.1452530               3.9525
        29                          0.1644546               4.4750
        30                          0.1813535               4.9349
        31                          0.1921885               5.2297
        32                          0.1996592               5.4330
       ...                                ...                  ...
        40                          0.5921729              16.1138
      -------------------------------------------------------------
                  HL-Gap            0.1430295 Eh            3.8920 eV
             Fermi-level           -0.3257499 Eh           -8.8641 eV

     #   Z          covCN         q      C6AA      α(0)
     1   6 C        3.752    -0.115    22.763     6.804
     2   6 C        3.800    -0.059    21.637     6.623
     3   6 C        3.803    -0.056    21.571     6.612
     4   6 C        3.804    -0.092    22.260     6.717
     5   6 C        2.812     0.250    22.800     7.823
     6   8 O        0.857    -0.445    22.607     6.375
     7   6 C        3.754    -0.159    23.637     6.933
     8   1 H        0.925     0.043     2.411     2.428
     9   1 H        0.925     0.039     2.457     2.451
    10   1 H        0.925     0.041     2.435     2.440
    11   1 H        0.924     0.040     2.451     2.448
    12   1 H        0.924     0.036     2.504     2.474
    13   1 H        0.924     0.051     2.309     2.376
    14   1 H        0.924     0.033     2.538     2.491
    15   1 H        0.925     0.074     2.042     2.235
    16   1 H        0.924     0.058     2.222     2.331
    17   1 H        0.925     0.073     2.057     2.243
    18   1 H        0.925     0.097     1.809     2.103
    19   1 H        0.925     0.090     1.876     2.142

 Mol. C6AA /au·bohr⁶  :       2608.536901
 Mol. C8AA /au·bohr⁸  :      55861.165282
 Mol. α(0) /au        :         76.050523


Wiberg/Mayer (AO) data.
largest (>0.10) Wiberg bond orders for each atom

 ---------------------------------------------------------------------------
     #   Z sym  total        # sym  WBO       # sym  WBO       # sym  WBO
 ---------------------------------------------------------------------------
     1   6 C    3.995 --     2 C    1.020     8 H    0.987     9 H    0.987
                            10 H    0.986
     2   6 C    3.997 --     1 C    1.020     3 C    1.006    12 H    0.978
                            11 H    0.976
     3   6 C    3.993 --     2 C    1.006    14 H    0.979     4 C    0.976
                            13 H    0.975
     4   6 C    3.994 --     5 C    0.998     3 C    0.976    16 H    0.973
                            15 H    0.955
     5   6 C    3.894 --     6 O    1.804     7 C    1.022     4 C    0.998
     6   8 O    2.006 --     5 C    1.804
     7   6 C    3.990 --     5 C    1.022    17 H    0.981    19 H    0.962
                            18 H    0.942
     8   1 H    0.998 --     1 C    0.987
     9   1 H    0.998 --     1 C    0.987
    10   1 H    0.998 --     1 C    0.986
    11   1 H    0.997 --     2 C    0.976
    12   1 H    0.999 --     2 C    0.978
    13   1 H    0.997 --     3 C    0.975
    14   1 H    0.999 --     3 C    0.979
    15   1 H    0.995 --     4 C    0.955
    16   1 H    0.997 --     4 C    0.973
    17   1 H    0.995 --     7 C    0.981
    18   1 H    0.991 --     7 C    0.942
    19   1 H    0.992 --     7 C    0.962
 ---------------------------------------------------------------------------

Topologies differ in total number of bonds
Writing topology from bond orders to xtbtopo.mol

molecular dipole:
                 x           y           z       tot (Debye)
 q only:        0.950       1.374       0.061
   full:        0.985       1.423       0.068       4.401
molecular quadrupole (traceless):
                xx          xy          yy          xz          yz          zz
 q only:       -2.851      -8.165      -0.009      -0.831      -0.096       2.859
  q+dip:       -3.922      -9.237       0.307      -0.860       0.062       3.615
   full:       -3.927      -9.205      -0.357      -0.610      -0.186       4.284


           -------------------------------------------------
          | TOTAL ENERGY              -23.028870310127 Eh   |
          | GRADIENT NORM               0.000140799959 Eh/α |
          | HOMO-LUMO GAP               3.892029536136 eV   |
           -------------------------------------------------

------------------------------------------------------------------------
 * finished run on 2025/04/11 at 16:09:19.264     
------------------------------------------------------------------------
 total:
 * wall-time:     0 d,  0 h,  0 min,  0.088 sec
 *  cpu-time:     0 d,  0 h,  0 min,  0.035 sec
 * ratio c/w:     0.396 speedup
 SCF:
 * wall-time:     0 d,  0 h,  0 min,  0.048 sec
 *  cpu-time:     0 d,  0 h,  0 min,  0.025 sec
 * ratio c/w:     0.518 speedup

