 Entering Gaussian System
 *********************************************
 Gaussian 98:
 frequency output generated by the xtb code
 *********************************************
                         Standard orientation:
 --------------------------------------------------------------------
  Center     Atomic     Atomic              Coordinates (Angstroms)
  Number     Number      Type              X           Y           Z
 --------------------------------------------------------------------
    1          6             0       -2.257312   -1.308346    0.258880
    2          6             0       -2.622230    0.167179    0.368059
    3          6             0       -1.700439    1.078140   -0.444085
    4          6             0       -0.268735    1.125735    0.074209
    5          8             0        0.444172   -0.032210   -0.384718
    6          6             0        1.722088   -0.142538   -0.051249
    7          8             0        2.306237    0.687135    0.617936
    8          6             0        2.331429   -1.404618   -0.583702
    9          1             0       -1.265662   -1.493030    0.662107
   10          1             0       -2.971266   -1.914733    0.811051
   11          1             0       -2.265642   -1.624804   -0.781137
   12          1             0       -3.643252    0.307924    0.008450
   13          1             0       -2.594934    0.473069    1.416123
   14          1             0       -1.676801    0.746840   -1.482909
   15          1             0       -2.093883    2.094583   -0.416350
   16          1             0        0.256848    2.012316   -0.296795
   17          1             0       -0.234753    1.148132    1.168712
   18          1             0        2.297943   -2.159543    0.199212
   19          1             0        3.370728   -1.225998   -0.841139
   20          1             0        1.766709   -1.755237   -1.440706
 --------------------------------------------------------------------
     1 basis functions        1 primitive gaussians
     1 alpha electrons        1 beta electrons
 
 Harmonic frequencies (cm**-1), IR intensities (km*mol⁻¹),
 Raman scattering activities (A**4/amu), Raman depolarization ratios,
 reduced masses (AMU), force constants (mDyne/A) and normal coordinates:
                      1                      2                      3
                        a                      a                      a 
 Frequencies --    17.3333                54.0529                49.5182
 Red. masses --    13.4424                 7.4013                 1.8981
 Frc consts  --     0.0000                 0.0000                 0.0000
 IR Inten    --     5.0840                 1.8253                 1.1452
 Raman Activ --     0.0000                 0.0000                 0.0000
 Depolar     --     0.0000                 0.0000                 0.0000
 Atom AN      X      Y      Z        X      Y      Z        X      Y      Z
   1   6     0.24   0.00   0.22    -0.10   0.12   0.34     0.00   0.04   0.17
   2   6     0.12  -0.02   0.12    -0.21   0.14  -0.22    -0.08   0.03  -0.08
   3   6    -0.07  -0.01  -0.08     0.06  -0.07  -0.15     0.02  -0.03  -0.04
   4   6     0.01   0.14  -0.29    -0.04  -0.18   0.16    -0.02  -0.07   0.08
   5   8     0.04   0.21  -0.42     0.05  -0.09   0.03     0.01  -0.04   0.02
   6   6    -0.08  -0.04   0.03     0.06  -0.01  -0.02     0.03   0.02  -0.03
   7   8    -0.25  -0.31   0.50    -0.03  -0.10   0.17     0.02   0.02  -0.04
   8   6    -0.05   0.03  -0.09     0.20   0.18  -0.30     0.05   0.05  -0.09
   9   1     0.08   0.03   0.05    -0.07   0.08   0.22    -0.02   0.04   0.11
  10   1     0.10  -0.00   0.10    -0.08   0.07   0.08    -0.02   0.02   0.03
  11   1     0.05  -0.03   0.07     0.08  -0.05   0.13     0.06  -0.03   0.06
  12   1     0.02  -0.04   0.07    -0.02  -0.00  -0.18    -0.01  -0.02  -0.08
  13   1     0.06   0.02   0.03    -0.17   0.13  -0.09    -0.08   0.05  -0.03
  14   1    -0.05  -0.03  -0.02     0.08  -0.06  -0.03     0.03  -0.02  -0.01
  15   1    -0.04  -0.01  -0.03     0.04  -0.01  -0.11     0.01  -0.01  -0.04
  16   1    -0.04   0.05  -0.12     0.01  -0.03   0.13     0.00  -0.01   0.06
  17   1     0.05   0.05  -0.09    -0.07  -0.13   0.05    -0.03  -0.05   0.02
  18   1    -0.03  -0.02  -0.06     0.28   0.06  -0.07    -0.49  -0.16  -0.21
  19   1    -0.01   0.02   0.01    -0.00   0.16  -0.26     0.16  -0.12   0.46
  20   1     0.01   0.04  -0.06    -0.04  -0.02   0.01     0.31   0.30  -0.34
                      4                      5                      6
                        a                      a                      a 
 Frequencies --    84.9789               167.5208               192.0247
 Red. masses --     7.7717                10.0327                11.6198
 Frc consts  --     0.0000                 0.0000                 0.0000
 IR Inten    --     1.4755                 7.6985                 6.3164
 Raman Activ --     0.0000                 0.0000                 0.0000
 Depolar     --     0.0000                 0.0000                 0.0000
 Atom AN      X      Y      Z        X      Y      Z        X      Y      Z
   1   6     0.52   0.00   0.07    -0.13  -0.15   0.04    -0.19  -0.07   0.07
   2   6    -0.01  -0.10  -0.24     0.02  -0.10  -0.08    -0.17  -0.06  -0.04
   3   6    -0.01   0.13   0.02     0.02  -0.20  -0.22    -0.02  -0.06   0.12
   4   6    -0.06   0.10   0.15    -0.07   0.23   0.03    -0.03  -0.09   0.20
   5   8    -0.13   0.10   0.11     0.08   0.28   0.28     0.25   0.37  -0.53
   6   6    -0.10  -0.02  -0.01     0.08   0.08   0.10     0.12   0.11  -0.14
   7   8     0.07  -0.05  -0.13     0.40  -0.11   0.09     0.16   0.01  -0.03
   8   6    -0.31  -0.14   0.02    -0.30   0.00  -0.18    -0.06  -0.15   0.24
   9   1     0.08   0.09   0.23     0.03  -0.03  -0.15    -0.05  -0.01   0.03
  10   1     0.09  -0.06  -0.12     0.05   0.01   0.18    -0.06  -0.01   0.03
  11   1     0.39  -0.01   0.02    -0.23  -0.12   0.04    -0.05  -0.04   0.03
  12   1     0.02  -0.14  -0.19    -0.00  -0.02  -0.00    -0.03  -0.01  -0.07
  13   1    -0.15   0.00  -0.07     0.03   0.00  -0.03    -0.11  -0.01  -0.01
  14   1     0.03   0.09  -0.01     0.08  -0.16  -0.03     0.02   0.00   0.03
  15   1    -0.03   0.03   0.05    -0.06  -0.08  -0.19    -0.00  -0.02   0.04
  16   1    -0.00   0.03   0.07    -0.05   0.07  -0.02    -0.06   0.07   0.22
  17   1    -0.04   0.00   0.04    -0.07   0.12   0.01    -0.02  -0.22   0.06
  18   1    -0.07  -0.01   0.04    -0.10  -0.03  -0.08    -0.06   0.05   0.15
  19   1    -0.10  -0.08  -0.06    -0.09  -0.07  -0.10    -0.01  -0.13   0.06
  20   1    -0.15  -0.05   0.05    -0.16   0.08  -0.04    -0.03  -0.10   0.11
                      7                      8                      9
                        a                      a                      a 
 Frequencies --   223.4373               301.5849               327.1039
 Red. masses --     3.6283                 8.4935                 8.0570
 Frc consts  --     0.0000                 0.0000                 0.0000
 IR Inten    --     2.5218                 6.0444                 1.4517
 Raman Activ --     0.0000                 0.0000                 0.0000
 Depolar     --     0.0000                 0.0000                 0.0000
 Atom AN      X      Y      Z        X      Y      Z        X      Y      Z
   1   6    -0.26  -0.12   0.02    -0.01  -0.04  -0.01    -0.22  -0.32   0.19
   2   6    -0.02  -0.06   0.10     0.39   0.06   0.09     0.14  -0.17  -0.29
   3   6    -0.03  -0.08   0.05     0.31  -0.15  -0.20     0.25   0.19   0.17
   4   6     0.06   0.15  -0.19     0.09  -0.06   0.25     0.28   0.19  -0.02
   5   8     0.08   0.08   0.04    -0.10   0.04  -0.08    -0.08   0.01  -0.01
   6   6     0.07   0.03   0.03    -0.13   0.05  -0.04    -0.08  -0.02  -0.02
   7   8     0.16  -0.03   0.05    -0.34   0.16  -0.02    -0.22   0.07  -0.03
   8   6    -0.01   0.02  -0.04    -0.21   0.03  -0.02    -0.03   0.02  -0.02
   9   1    -0.27  -0.17   0.42    -0.06  -0.13   0.09    -0.06  -0.13   0.02
  10   1    -0.37  -0.04  -0.39    -0.12   0.03  -0.11    -0.09   0.06   0.19
  11   1     0.36   0.10  -0.04     0.07   0.04  -0.02    -0.16  -0.24   0.10
  12   1     0.00   0.03   0.03     0.08   0.07   0.13     0.08  -0.03  -0.20
  13   1     0.00  -0.03   0.03     0.23   0.02   0.02    -0.09  -0.04  -0.08
  14   1    -0.04  -0.03   0.02     0.19  -0.19  -0.01     0.07   0.22  -0.00
  15   1    -0.03  -0.03   0.01     0.05  -0.06  -0.23     0.03   0.04   0.21
  16   1    -0.03   0.02  -0.17     0.08   0.01   0.22     0.09   0.02  -0.09
  17   1     0.07   0.15  -0.06    -0.06  -0.15   0.08     0.15   0.11  -0.01
  18   1    -0.00  -0.01  -0.02    -0.07   0.02   0.00    -0.00  -0.00  -0.01
  19   1    -0.00  -0.00  -0.02    -0.06  -0.03  -0.03    -0.01   0.02  -0.00
  20   1    -0.02   0.03  -0.01    -0.09   0.02   0.01    -0.00   0.01  -0.01
                     10                     11                     12
                        a                      a                      a 
 Frequencies --   406.1399               461.7023               581.5257
 Red. masses --    10.1220                 7.0427                 9.6851
 Frc consts  --     0.0000                 0.0000                 0.0000
 IR Inten    --     4.4789                 6.1962                17.1468
 Raman Activ --     0.0000                 0.0000                 0.0000
 Depolar     --     0.0000                 0.0000                 0.0000
 Atom AN      X      Y      Z        X      Y      Z        X      Y      Z
   1   6     0.02   0.07  -0.02     0.04   0.14  -0.11     0.00   0.00  -0.00
   2   6    -0.10   0.02   0.01    -0.30   0.01   0.07     0.02   0.01  -0.01
   3   6     0.03  -0.05   0.09     0.20  -0.33   0.26     0.03  -0.01   0.01
   4   6     0.13  -0.31  -0.18     0.25   0.20   0.08     0.01  -0.05  -0.01
   5   8     0.26  -0.24  -0.05    -0.02   0.08  -0.00    -0.12  -0.17   0.20
   6   6     0.21   0.14   0.15    -0.05  -0.06  -0.07     0.13   0.38  -0.59
   7   8    -0.09   0.37   0.20    -0.21   0.02  -0.05    -0.00  -0.21   0.25
   8   6    -0.36  -0.01  -0.12     0.03  -0.05  -0.02    -0.04   0.12   0.00
   9   1     0.02   0.06  -0.02     0.05   0.14  -0.09     0.00   0.00  -0.00
  10   1     0.04  -0.01   0.00     0.11  -0.08  -0.04    -0.00   0.01   0.00
  11   1     0.00   0.03  -0.01     0.01   0.10  -0.05    -0.00  -0.00   0.00
  12   1    -0.01   0.01  -0.04    -0.02   0.01  -0.17     0.01   0.01  -0.01
  13   1    -0.07   0.00   0.00    -0.26  -0.00   0.02     0.00   0.00  -0.00
  14   1    -0.08   0.06   0.00     0.17  -0.31   0.14     0.01   0.00   0.00
  15   1     0.08   0.01   0.12     0.03  -0.10  -0.20     0.02   0.00   0.01
  16   1     0.02  -0.09  -0.09    -0.01   0.03  -0.17     0.02  -0.05  -0.08
  17   1     0.08  -0.04  -0.05     0.23   0.18   0.01     0.02   0.07  -0.00
  18   1    -0.17  -0.04  -0.08     0.01  -0.01  -0.00    -0.19   0.29   0.25
  19   1    -0.10  -0.19  -0.16     0.01   0.00   0.01     0.04  -0.19   0.06
  20   1    -0.28   0.15   0.02     0.03  -0.03  -0.01     0.02  -0.18   0.07
                     13                     14                     15
                        a                      a                      a 
 Frequencies --   622.0089               808.9417               843.7360
 Red. masses --    11.6585                 3.2332                 7.3050
 Frc consts  --     0.0000                 0.0000                 0.0000
 IR Inten    --    10.5913                 8.1066                 5.2244
 Raman Activ --     0.0000                 0.0000                 0.0000
 Depolar     --     0.0000                 0.0000                 0.0000
 Atom AN      X      Y      Z        X      Y      Z        X      Y      Z
   1   6    -0.01  -0.03   0.01    -0.08   0.05  -0.05    -0.00   0.22   0.05
   2   6    -0.02  -0.02  -0.00    -0.21  -0.05  -0.21     0.20  -0.00  -0.00
   3   6    -0.15   0.09  -0.09     0.08  -0.19  -0.04     0.14  -0.44  -0.01
   4   6    -0.11   0.22   0.09     0.09  -0.06   0.09    -0.09  -0.18  -0.09
   5   8     0.21   0.13   0.22     0.04   0.12   0.04     0.06   0.31   0.19
   6   6     0.31  -0.11  -0.16    -0.04  -0.03  -0.02    -0.07  -0.02  -0.05
   7   8    -0.40   0.20   0.07    -0.05  -0.04  -0.04    -0.10  -0.04  -0.05
   8   6     0.24  -0.45  -0.19    -0.04   0.03   0.01    -0.03  -0.04  -0.03
   9   1    -0.01  -0.00   0.02    -0.01   0.38   0.13     0.01  -0.07  -0.07
  10   1    -0.01  -0.00  -0.00     0.11  -0.05   0.09    -0.04   0.05  -0.05
  11   1     0.01  -0.02   0.01     0.19  -0.22   0.06    -0.08   0.21  -0.03
  12   1    -0.03  -0.02   0.07    -0.16   0.25   0.36     0.11  -0.03  -0.17
  13   1     0.05  -0.01  -0.00     0.42  -0.14  -0.02    -0.08   0.16  -0.05
  14   1    -0.03   0.04  -0.03     0.05   0.17  -0.08    -0.17   0.22  -0.11
  15   1    -0.07   0.01  -0.01     0.07  -0.04   0.19     0.10  -0.10   0.41
  16   1    -0.04   0.07   0.05    -0.06  -0.01  -0.08    -0.14   0.02  -0.03
  17   1    -0.10   0.06   0.03     0.10   0.08   0.02    -0.12   0.03  -0.02
  18   1    -0.00  -0.10  -0.03     0.01   0.01   0.01     0.03   0.01   0.01
  19   1     0.08  -0.26  -0.10    -0.01   0.05   0.03    -0.01   0.08   0.05
  20   1     0.00  -0.10  -0.02     0.02  -0.01  -0.01     0.07  -0.08  -0.03
                     16                     17                     18
                        a                      a                      a 
 Frequencies --   870.4023               955.1518               963.3588
 Red. masses --     6.8359                 5.6112                 8.8887
 Frc consts  --     0.0000                 0.0000                 0.0000
 IR Inten    --     1.5096                17.2787                11.7755
 Raman Activ --     0.0000                 0.0000                 0.0000
 Depolar     --     0.0000                 0.0000                 0.0000
 Atom AN      X      Y      Z        X      Y      Z        X      Y      Z
   1   6     0.07   0.19  -0.09     0.06   0.05  -0.19    -0.08   0.12  -0.07
   2   6     0.29   0.06  -0.23     0.07   0.04  -0.00     0.09  -0.06   0.00
   3   6    -0.12  -0.07   0.26    -0.07   0.06   0.19     0.16  -0.18   0.14
   4   6    -0.34  -0.13   0.20     0.06  -0.12  -0.24    -0.03   0.19  -0.22
   5   8    -0.08  -0.05  -0.15     0.26   0.15   0.22    -0.44  -0.09  -0.10
   6   6     0.03   0.04   0.04    -0.03  -0.06  -0.05    -0.02   0.19   0.05
   7   8     0.08   0.06   0.05    -0.12  -0.05  -0.06     0.19   0.13   0.15
   8   6     0.08  -0.09  -0.01    -0.16   0.03  -0.03     0.20  -0.21  -0.03
   9   1    -0.04  -0.08   0.06    -0.05   0.03   0.12    -0.02   0.21   0.06
  10   1    -0.13   0.31   0.07    -0.08   0.28   0.13     0.04   0.03   0.06
  11   1    -0.03  -0.14   0.04     0.04  -0.34   0.06     0.07  -0.11   0.03
  12   1     0.06  -0.00  -0.02     0.05   0.07  -0.06     0.08   0.18  -0.09
  13   1     0.09  -0.05  -0.04    -0.09  -0.28   0.09    -0.04  -0.15   0.04
  14   1     0.14  -0.09   0.09    -0.22  -0.25   0.13    -0.11  -0.04   0.03
  15   1    -0.07  -0.03  -0.06     0.07   0.05  -0.14    -0.04  -0.08   0.11
  16   1    -0.29  -0.07  -0.30     0.05   0.02   0.12     0.11   0.08   0.21
  17   1     0.22   0.18   0.03    -0.15  -0.12  -0.05    -0.23  -0.16  -0.04
  18   1     0.01  -0.05  -0.03     0.03   0.06   0.04     0.02  -0.12  -0.07
  19   1     0.02  -0.07  -0.04    -0.04   0.18   0.11     0.05  -0.17  -0.11
  20   1    -0.02   0.02   0.00     0.11  -0.11  -0.05    -0.03   0.03   0.01
                     19                     20                     21
                        a                      a                      a 
 Frequencies --   979.0885              1002.9818              1018.0147
 Red. masses --     8.8762                 6.0454                 7.2082
 Frc consts  --     0.0000                 0.0000                 0.0000
 IR Inten    --     6.2637                36.5198                28.1103
 Raman Activ --     0.0000                 0.0000                 0.0000
 Depolar     --     0.0000                 0.0000                 0.0000
 Atom AN      X      Y      Z        X      Y      Z        X      Y      Z
   1   6    -0.03   0.26  -0.02     0.00   0.08   0.01    -0.02   0.24   0.04
   2   6     0.10  -0.15  -0.06     0.01  -0.06  -0.02     0.01  -0.20  -0.07
   3   6    -0.13  -0.17   0.02    -0.07  -0.03  -0.02    -0.15  -0.07  -0.03
   4   6     0.03   0.34   0.06     0.05   0.07   0.04     0.14   0.21   0.07
   5   8     0.19  -0.23  -0.05     0.05  -0.10   0.06     0.11  -0.26  -0.08
   6   6     0.11  -0.26   0.03     0.13   0.19  -0.41    -0.09   0.12   0.08
   7   8    -0.12  -0.17  -0.16    -0.05  -0.09   0.04     0.11   0.18   0.13
   8   6     0.06   0.37   0.10    -0.13  -0.10   0.39    -0.23  -0.18  -0.21
   9   1    -0.03   0.05   0.02    -0.01  -0.01   0.00    -0.01  -0.01  -0.01
  10   1    -0.05   0.15   0.03    -0.03   0.05  -0.00    -0.05   0.11  -0.01
  11   1    -0.02   0.02   0.01    -0.02   0.02   0.00    -0.05   0.11  -0.00
  12   1     0.02  -0.05  -0.01    -0.01  -0.05   0.02    -0.04  -0.14   0.07
  13   1     0.02  -0.05  -0.01     0.02   0.00  -0.01     0.07   0.01  -0.04
  14   1    -0.06   0.03  -0.02    -0.01   0.01  -0.01     0.07   0.05  -0.03
  15   1    -0.21  -0.11   0.10    -0.07  -0.03   0.01    -0.23  -0.10   0.04
  16   1     0.06   0.09   0.13     0.03   0.02   0.03     0.12   0.03   0.08
  17   1    -0.08  -0.05   0.02     0.02  -0.02   0.01     0.09  -0.08   0.02
  18   1    -0.17   0.15   0.07     0.24  -0.41  -0.28     0.09   0.07   0.07
  19   1     0.03  -0.17  -0.06    -0.12   0.32  -0.05    -0.05   0.23   0.17
  20   1    -0.21   0.21   0.13    -0.05   0.33  -0.04     0.27  -0.35  -0.14
                     22                     23                     24
                        a                      a                      a 
 Frequencies --  1038.6766              1112.5413              1133.7118
 Red. masses --     8.2113                 7.7175                 7.6017
 Frc consts  --     0.0000                 0.0000                 0.0000
 IR Inten    --    31.2754                54.4119                 1.4657
 Raman Activ --     0.0000                 0.0000                 0.0000
 Depolar     --     0.0000                 0.0000                 0.0000
 Atom AN      X      Y      Z        X      Y      Z        X      Y      Z
   1   6     0.15   0.18  -0.03     0.29  -0.15  -0.13    -0.06   0.29   0.06
   2   6    -0.18  -0.13  -0.02    -0.32   0.26   0.11    -0.11  -0.44   0.14
   3   6    -0.18  -0.04  -0.12     0.20  -0.21  -0.04     0.38   0.22  -0.07
   4   6     0.44  -0.21  -0.00    -0.14   0.30   0.09    -0.26  -0.04  -0.08
   5   8    -0.30   0.27   0.07     0.07  -0.23  -0.13     0.06   0.02  -0.02
   6   6    -0.04   0.03   0.03    -0.05   0.04   0.00    -0.01  -0.00  -0.01
   7   8     0.04   0.01   0.02     0.03   0.02   0.02    -0.02  -0.02  -0.02
   8   6     0.17  -0.03   0.01    -0.02  -0.02  -0.01     0.01   0.00   0.01
   9   1    -0.03  -0.23   0.02    -0.01  -0.31   0.04    -0.03   0.04   0.02
  10   1    -0.16   0.29   0.02    -0.13   0.24   0.03    -0.04   0.10   0.01
  11   1    -0.11  -0.02   0.01    -0.06  -0.21   0.02    -0.05   0.10   0.01
  12   1    -0.14  -0.28   0.16    -0.12  -0.02   0.11    -0.06  -0.23   0.08
  13   1     0.05  -0.03  -0.01    -0.01   0.05   0.03    -0.06  -0.32   0.10
  14   1    -0.08  -0.00  -0.04    -0.07   0.10  -0.06     0.28   0.08  -0.02
  15   1     0.04   0.02  -0.01     0.29   0.04   0.14     0.20   0.09  -0.07
  16   1     0.13  -0.03   0.04    -0.02   0.05   0.01    -0.02  -0.06  -0.07
  17   1     0.15  -0.04   0.01    -0.16   0.08   0.02    -0.19   0.11  -0.03
  18   1    -0.03  -0.03  -0.02     0.01  -0.00  -0.00    -0.00  -0.00  -0.00
  19   1     0.05  -0.17  -0.08    -0.01   0.02   0.00    -0.00   0.00  -0.01
  20   1    -0.07   0.07   0.05     0.02  -0.02  -0.01    -0.01   0.01   0.00
                     25                     26                     27
                        a                      a                      a 
 Frequencies --  1141.7983              1206.3092              1211.7404
 Red. masses --     6.3121                11.1445                 4.4271
 Frc consts  --     0.0000                 0.0000                 0.0000
 IR Inten    --     6.0445               591.4461                28.0987
 Raman Activ --     0.0000                 0.0000                 0.0000
 Depolar     --     0.0000                 0.0000                 0.0000
 Atom AN      X      Y      Z        X      Y      Z        X      Y      Z
   1   6    -0.11   0.04  -0.13     0.03  -0.01   0.03    -0.02  -0.03  -0.24
   2   6     0.14  -0.04   0.27    -0.02   0.00  -0.06    -0.01   0.03   0.37
   3   6    -0.09  -0.01  -0.38     0.02  -0.02   0.04     0.05   0.01  -0.19
   4   6     0.10  -0.03   0.40     0.03  -0.02   0.01    -0.03  -0.02  -0.11
   5   8     0.00  -0.02  -0.16    -0.42   0.06  -0.13    -0.11   0.01   0.09
   6   6    -0.02   0.02   0.01     0.68  -0.34  -0.00     0.15  -0.08  -0.00
   7   8     0.03   0.03   0.02    -0.00   0.10   0.06    -0.01   0.01   0.01
   8   6    -0.01  -0.02  -0.00    -0.21   0.09  -0.02    -0.04   0.03  -0.01
   9   1    -0.03   0.19   0.07     0.01  -0.03  -0.02    -0.05   0.10   0.10
  10   1     0.04   0.02   0.07    -0.02   0.01  -0.02     0.01   0.11   0.10
  11   1     0.08  -0.16   0.02    -0.02   0.04  -0.01     0.07  -0.26   0.02
  12   1     0.12   0.00  -0.17    -0.02   0.02   0.02     0.05  -0.08  -0.09
  13   1    -0.24  -0.15   0.11     0.03  -0.01  -0.01    -0.17   0.13   0.06
  14   1    -0.33   0.02  -0.11    -0.04  -0.03   0.02     0.34   0.23  -0.11
  15   1     0.03   0.02   0.06     0.04   0.01   0.01    -0.18  -0.07   0.06
  16   1     0.14  -0.18  -0.15     0.02  -0.01  -0.00    -0.26   0.18   0.04
  17   1    -0.01   0.33   0.09    -0.17   0.13   0.01     0.33  -0.27  -0.03
  18   1     0.01  -0.01  -0.00     0.06   0.08   0.06     0.01   0.02   0.02
  19   1    -0.00   0.01   0.00    -0.04   0.22   0.17    -0.01   0.04   0.04
  20   1     0.01  -0.02  -0.01     0.03  -0.04  -0.02     0.00  -0.01  -0.00
                     28                     29                     30
                        a                      a                      a 
 Frequencies --  1238.9882              1265.0708              1322.2485
 Red. masses --     2.3383                 2.5514                 3.5125
 Frc consts  --     0.0000                 0.0000                 0.0000
 IR Inten    --     6.9364                 0.4578                 5.8096
 Raman Activ --     0.0000                 0.0000                 0.0000
 Depolar     --     0.0000                 0.0000                 0.0000
 Atom AN      X      Y      Z        X      Y      Z        X      Y      Z
   1   6     0.08  -0.05  -0.10    -0.21  -0.01  -0.19    -0.02  -0.01  -0.01
   2   6    -0.09   0.07   0.10     0.15  -0.01   0.02    -0.03   0.11  -0.03
   3   6     0.00  -0.01   0.11    -0.03  -0.03   0.18     0.21   0.15  -0.00
   4   6    -0.03  -0.16  -0.07    -0.01   0.05  -0.03     0.31  -0.15   0.05
   5   8     0.07   0.13  -0.03     0.01  -0.01  -0.03     0.01  -0.10  -0.05
   6   6    -0.04   0.02  -0.00    -0.01   0.01   0.00    -0.06   0.06   0.02
   7   8    -0.02  -0.02  -0.02     0.00   0.00   0.00     0.00  -0.01  -0.01
   8   6     0.02  -0.01   0.01     0.00  -0.00   0.00    -0.01   0.03   0.01
   9   1    -0.01  -0.04   0.04    -0.05   0.25   0.06    -0.01  -0.01   0.00
  10   1    -0.02   0.09   0.03     0.07  -0.04   0.07     0.02  -0.04  -0.01
  11   1    -0.00  -0.11   0.01     0.12  -0.16   0.00     0.01  -0.03   0.01
  12   1     0.00   0.11  -0.01    -0.08  -0.57   0.11    -0.07  -0.16   0.10
  13   1    -0.00   0.19  -0.02     0.08   0.50  -0.14    -0.03  -0.04   0.02
  14   1     0.37   0.10   0.00    -0.02  -0.08   0.07    -0.12  -0.05   0.02
  15   1    -0.44  -0.18   0.06     0.25   0.09  -0.03    -0.39  -0.14  -0.00
  16   1     0.43  -0.31  -0.05     0.07  -0.02   0.02    -0.51   0.28  -0.05
  17   1    -0.33   0.22  -0.01    -0.15   0.06  -0.00    -0.39   0.19   0.02
  18   1    -0.00  -0.01  -0.01    -0.00  -0.00  -0.00     0.02  -0.04  -0.04
  19   1     0.00  -0.01  -0.01    -0.00   0.00  -0.00     0.00  -0.07  -0.03
  20   1    -0.00   0.01   0.00     0.00  -0.00  -0.00     0.04  -0.05  -0.01
                     31                     32                     33
                        a                      a                      a 
 Frequencies --  1346.9572              1349.7649              1359.8677
 Red. masses --     4.3339                 5.2108                 3.5724
 Frc consts  --     0.0000                 0.0000                 0.0000
 IR Inten    --     7.1875                 0.9186                63.7566
 Raman Activ --     0.0000                 0.0000                 0.0000
 Depolar     --     0.0000                 0.0000                 0.0000
 Atom AN      X      Y      Z        X      Y      Z        X      Y      Z
   1   6     0.08  -0.02  -0.05     0.08   0.03  -0.07     0.00  -0.01   0.00
   2   6    -0.02  -0.38   0.11    -0.17  -0.33   0.06     0.02  -0.00   0.01
   3   6    -0.27   0.04   0.03     0.38   0.21  -0.03    -0.10  -0.01   0.01
   4   6     0.21  -0.03   0.02    -0.18  -0.02   0.04     0.12  -0.02   0.00
   5   8     0.01  -0.07  -0.03     0.00   0.03   0.02     0.00  -0.03  -0.02
   6   6    -0.03   0.03   0.01     0.01  -0.02  -0.00    -0.08   0.04   0.00
   7   8     0.00  -0.01  -0.00     0.00   0.00   0.00     0.02   0.02   0.02
   8   6    -0.03   0.07   0.02     0.03  -0.06  -0.02     0.18  -0.39  -0.11
   9   1    -0.00   0.07   0.06    -0.01   0.01   0.05    -0.00   0.01   0.01
  10   1    -0.07   0.16   0.04    -0.05   0.11   0.01     0.00   0.00   0.00
  11   1    -0.06   0.07  -0.03    -0.06  -0.02  -0.01    -0.00   0.01  -0.00
  12   1     0.12   0.44  -0.14     0.00   0.18  -0.01     0.02   0.04  -0.01
  13   1     0.05   0.31  -0.09     0.13   0.40  -0.13    -0.02  -0.01   0.01
  14   1     0.17   0.06  -0.01    -0.45  -0.18   0.06     0.10   0.04  -0.01
  15   1     0.27   0.15  -0.12    -0.23  -0.08  -0.01     0.05   0.03  -0.03
  16   1    -0.20   0.15   0.03     0.01  -0.05  -0.03    -0.10   0.07   0.00
  17   1    -0.23   0.14   0.01     0.20  -0.06   0.01    -0.12   0.05   0.00
  18   1     0.05  -0.06  -0.07    -0.04   0.06   0.06    -0.25   0.31   0.33
  19   1     0.01  -0.10  -0.02    -0.01   0.09   0.01    -0.06   0.47   0.01
  20   1     0.06  -0.08  -0.00    -0.05   0.08  -0.00    -0.24   0.41  -0.04
                     34                     35                     36
                        a                      a                      a 
 Frequencies --  1414.3331              1421.8265              1429.8354
 Red. masses --     3.1866                 1.7102                 1.6296
 Frc consts  --     0.0000                 0.0000                 0.0000
 IR Inten    --     0.4466                24.0956                 6.4308
 Raman Activ --     0.0000                 0.0000                 0.0000
 Depolar     --     0.0000                 0.0000                 0.0000
 Atom AN      X      Y      Z        X      Y      Z        X      Y      Z
   1   6     0.07  -0.42  -0.02    -0.00   0.06  -0.00    -0.00   0.02   0.00
   2   6     0.03   0.10  -0.04    -0.00  -0.01   0.00    -0.00  -0.00   0.00
   3   6     0.05  -0.03   0.01    -0.01   0.00   0.00    -0.00   0.00  -0.01
   4   6    -0.02  -0.00  -0.00     0.01  -0.00   0.00    -0.01  -0.00  -0.00
   5   8     0.00   0.01   0.00     0.02  -0.01   0.00    -0.02   0.01  -0.01
   6   6    -0.01   0.00  -0.00    -0.03   0.02  -0.05     0.07  -0.04   0.02
   7   8     0.00   0.00   0.00     0.02   0.02   0.03    -0.00   0.01   0.01
   8   6     0.03   0.01  -0.02     0.16   0.05  -0.16     0.11   0.06   0.17
   9   1     0.07   0.48   0.08    -0.02  -0.06   0.01    -0.00  -0.02  -0.01
  10   1    -0.25   0.40   0.16     0.04  -0.06  -0.02     0.01  -0.01  -0.01
  11   1    -0.07   0.47  -0.16    -0.01  -0.06   0.02     0.01  -0.02   0.01
  12   1    -0.05  -0.09   0.09     0.01   0.01  -0.01     0.00   0.00  -0.01
  13   1    -0.08  -0.08   0.03     0.01   0.01  -0.00     0.01   0.00  -0.00
  14   1    -0.04   0.06  -0.02     0.01  -0.00   0.00     0.00  -0.02   0.01
  15   1    -0.06  -0.03  -0.04     0.01   0.00  -0.00     0.00   0.00   0.02
  16   1     0.02  -0.01   0.00    -0.01   0.00  -0.01     0.01   0.00   0.01
  17   1     0.03  -0.01  -0.00    -0.02   0.00   0.00     0.01   0.00  -0.00
  18   1    -0.05  -0.04  -0.04    -0.20  -0.24  -0.27    -0.60  -0.11  -0.12
  19   1     0.01   0.05   0.03     0.09   0.24   0.41    -0.18   0.29  -0.54
  20   1    -0.06  -0.05   0.06    -0.47  -0.33   0.43     0.23  -0.31   0.01
                     37                     38                     39
                        a                      a                      a 
 Frequencies --  1451.8103              1461.6916              1489.2625
 Red. masses --     1.9343                 1.8504                 1.8932
 Frc consts  --     0.0000                 0.0000                 0.0000
 IR Inten    --     1.4611                 0.3384                 0.0245
 Raman Activ --     0.0000                 0.0000                 0.0000
 Depolar     --     0.0000                 0.0000                 0.0000
 Atom AN      X      Y      Z        X      Y      Z        X      Y      Z
   1   6    -0.04   0.04  -0.00     0.01   0.00  -0.00     0.02  -0.04  -0.02
   2   6    -0.00  -0.01   0.02    -0.04   0.04   0.02    -0.21   0.10   0.14
   3   6     0.07  -0.15   0.22     0.02  -0.04   0.04    -0.02   0.03  -0.01
   4   6     0.02   0.02   0.04    -0.12  -0.17  -0.14     0.04   0.03   0.03
   5   8    -0.01   0.02   0.01     0.02  -0.06  -0.03    -0.00   0.01   0.00
   6   6     0.01  -0.01  -0.00    -0.02  -0.00  -0.01    -0.00   0.00   0.00
   7   8    -0.00   0.00   0.00     0.01   0.01   0.01    -0.00  -0.00  -0.00
   8   6    -0.00   0.00   0.01     0.00  -0.00  -0.00    -0.00  -0.00   0.00
   9   1    -0.00  -0.06  -0.03    -0.01   0.00   0.03    -0.03   0.06   0.11
  10   1     0.04  -0.02   0.03     0.01  -0.03  -0.01     0.00  -0.00   0.01
  11   1     0.07  -0.02   0.01    -0.04  -0.00   0.00    -0.11   0.06  -0.02
  12   1     0.02  -0.02  -0.04     0.03  -0.07  -0.12     0.17  -0.22  -0.58
  13   1     0.05  -0.01   0.00     0.13  -0.04   0.01     0.64  -0.14   0.03
  14   1    -0.25   0.59  -0.18    -0.04   0.10  -0.03     0.02  -0.06   0.02
  15   1    -0.06  -0.02  -0.65    -0.03  -0.01  -0.11    -0.01   0.00   0.06
  16   1     0.01  -0.06  -0.12     0.06   0.22   0.61    -0.03  -0.04  -0.12
  17   1    -0.05  -0.11   0.01     0.29   0.59  -0.02    -0.08  -0.11   0.01
  18   1    -0.01  -0.00  -0.00    -0.00   0.00   0.00     0.00   0.00   0.00
  19   1    -0.01   0.00  -0.02     0.00   0.00   0.00    -0.00  -0.00  -0.00
  20   1     0.01  -0.01  -0.00    -0.01   0.00   0.00     0.00   0.00  -0.00
                     40                     41                     42
                        a                      a                      a 
 Frequencies --  1497.7569              1502.3404              1690.1917
 Red. masses --     1.5337                 1.6047                13.3148
 Frc consts  --     0.0000                 0.0000                 0.0000
 IR Inten    --     1.3182                 2.5600               685.1285
 Raman Activ --     0.0000                 0.0000                 0.0000
 Depolar     --     0.0000                 0.0000                 0.0000
 Atom AN      X      Y      Z        X      Y      Z        X      Y      Z
   1   6     0.17   0.02   0.12     0.12   0.03  -0.17     0.00   0.00  -0.00
   2   6     0.05   0.01   0.02     0.06   0.02  -0.07     0.00   0.00  -0.00
   3   6    -0.01  -0.02   0.02    -0.01  -0.02   0.02     0.00  -0.01  -0.00
   4   6     0.00   0.00   0.00    -0.00   0.01   0.00    -0.00   0.01   0.01
   5   8    -0.00   0.00   0.00    -0.00   0.00   0.00    -0.04  -0.02  -0.03
   6   6    -0.00  -0.00   0.00     0.00  -0.02  -0.01     0.34   0.57   0.44
   7   8     0.00   0.00   0.00     0.00   0.01   0.01    -0.28  -0.41  -0.32
   8   6    -0.00   0.00   0.00    -0.01   0.00   0.01     0.01  -0.08  -0.05
   9   1     0.10   0.37  -0.04    -0.26  -0.04   0.64    -0.01  -0.00   0.01
  10   1    -0.33  -0.13  -0.58     0.29  -0.23   0.10     0.00  -0.00   0.00
  11   1    -0.46  -0.33   0.11    -0.51   0.14  -0.05    -0.01   0.00  -0.00
  12   1     0.00  -0.03   0.02    -0.03   0.01   0.10    -0.00  -0.00   0.00
  13   1    -0.04   0.02   0.00    -0.10  -0.02  -0.00    -0.00  -0.00   0.00
  14   1    -0.01   0.06  -0.02    -0.02   0.02  -0.01    -0.01   0.00  -0.00
  15   1     0.00   0.00  -0.05     0.01   0.00  -0.03     0.01   0.00  -0.00
  16   1     0.00  -0.01  -0.02     0.01  -0.01  -0.02     0.02  -0.00   0.01
  17   1    -0.01  -0.02   0.00    -0.00  -0.02   0.00     0.02   0.00   0.01
  18   1    -0.00   0.00   0.00     0.00   0.00   0.00     0.01  -0.01  -0.01
  19   1    -0.00  -0.00  -0.01    -0.00  -0.01  -0.01     0.01   0.04   0.03
  20   1     0.01   0.00  -0.00     0.02   0.00  -0.01     0.01  -0.05   0.01
                     43                     44                     45
                        a                      a                      a 
 Frequencies --  2922.3473              2944.6750              2967.4687
 Red. masses --     1.9791                 1.4627                 1.9408
 Frc consts  --     0.0000                 0.0000                 0.0000
 IR Inten    --    39.7383                36.2203                61.2074
 Raman Activ --     0.0000                 0.0000                 0.0000
 Depolar     --     0.0000                 0.0000                 0.0000
 Atom AN      X      Y      Z        X      Y      Z        X      Y      Z
   1   6    -0.00   0.00   0.00    -0.00  -0.00  -0.00    -0.01  -0.00  -0.01
   2   6    -0.00   0.00  -0.01     0.00  -0.00  -0.00     0.14   0.04   0.25
   3   6    -0.01   0.00  -0.00     0.01  -0.02  -0.01     0.00  -0.01  -0.02
   4   6    -0.09  -0.15   0.24     0.09   0.13   0.13    -0.00  -0.00   0.00
   5   8    -0.00  -0.00   0.00    -0.01   0.01   0.01    -0.00   0.00  -0.00
   6   6    -0.00   0.00  -0.00     0.00   0.00   0.00    -0.00  -0.00   0.00
   7   8     0.00  -0.00   0.00    -0.00  -0.00  -0.00     0.00   0.00   0.00
   8   6     0.00   0.00  -0.00    -0.00  -0.00  -0.00     0.00   0.00  -0.00
   9   1     0.00   0.00   0.00    -0.00   0.00   0.00     0.05  -0.01   0.02
  10   1     0.00   0.00  -0.00     0.00   0.00  -0.00    -0.01  -0.00  -0.00
  11   1    -0.00  -0.00  -0.00    -0.00   0.00   0.00    -0.00   0.02   0.06
  12   1     0.01  -0.00   0.01    -0.00   0.00  -0.00    -0.48   0.07  -0.15
  13   1     0.00   0.01   0.01     0.00   0.00   0.00    -0.01  -0.22  -0.76
  14   1    -0.00   0.01   0.04    -0.00   0.02   0.06    -0.00   0.04   0.12
  15   1     0.01  -0.03  -0.00    -0.02   0.05   0.00    -0.00   0.00  -0.00
  16   1     0.34   0.59  -0.23    -0.30  -0.52   0.25     0.01   0.01  -0.01
  17   1    -0.03  -0.03  -0.63     0.00   0.01  -0.73    -0.00  -0.00  -0.01
  18   1    -0.00  -0.00   0.00     0.00   0.00  -0.00    -0.00  -0.00   0.00
  19   1    -0.00  -0.00   0.00     0.00  -0.00   0.00    -0.00  -0.00   0.00
  20   1    -0.00  -0.00   0.00     0.00   0.00   0.00    -0.00  -0.00  -0.00
                     46                     47                     48
                        a                      a                      a 
 Frequencies --  2983.0138              2994.9894              3001.7185
 Red. masses --     1.5326                 1.9447                 1.5260
 Frc consts  --     0.0000                 0.0000                 0.0000
 IR Inten    --    38.1502                77.6155                50.8784
 Raman Activ --     0.0000                 0.0000                 0.0000
 Depolar     --     0.0000                 0.0000                 0.0000
 Atom AN      X      Y      Z        X      Y      Z        X      Y      Z
   1   6    -0.02  -0.01   0.01     0.02   0.01  -0.01     0.01   0.00   0.01
   2   6     0.18  -0.06  -0.05    -0.05   0.03   0.04    -0.03   0.00  -0.03
   3   6    -0.02   0.08   0.02    -0.08   0.23   0.14    -0.05   0.06  -0.20
   4   6     0.00   0.01   0.00     0.01   0.02   0.01     0.00   0.01  -0.02
   5   8     0.00  -0.00  -0.00    -0.00   0.00  -0.00    -0.00  -0.00  -0.00
   6   6    -0.00   0.00  -0.00     0.00   0.00   0.00     0.00   0.00   0.00
   7   8     0.00  -0.00  -0.00    -0.00  -0.00  -0.00    -0.00  -0.00  -0.00
   8   6    -0.00  -0.00  -0.00    -0.00  -0.00   0.00     0.00  -0.00   0.00
   9   1     0.04  -0.01   0.02    -0.02   0.01  -0.01    -0.01   0.00  -0.01
  10   1     0.04   0.03  -0.03    -0.04  -0.03   0.03    -0.01  -0.01   0.01
  11   1    -0.00  -0.01  -0.01     0.00   0.01   0.03     0.00  -0.01  -0.02
  12   1    -0.72   0.09  -0.28     0.18  -0.02   0.08     0.12  -0.02   0.04
  13   1     0.05   0.13   0.48    -0.02  -0.06  -0.20    -0.00   0.01   0.03
  14   1    -0.00  -0.01  -0.08     0.00  -0.14  -0.49    -0.02   0.27   0.75
  15   1     0.11  -0.27  -0.01     0.27  -0.69  -0.01     0.19  -0.50  -0.05
  16   1    -0.01  -0.01   0.01    -0.03  -0.04   0.02    -0.01  -0.02   0.01
  17   1     0.00   0.00  -0.01     0.00   0.00  -0.06     0.00   0.00   0.05
  18   1    -0.00   0.00  -0.00     0.00   0.00  -0.00     0.00   0.00  -0.00
  19   1     0.00   0.00  -0.00     0.00   0.00  -0.00     0.00  -0.00   0.00
  20   1     0.00   0.00   0.00     0.00   0.00   0.00    -0.00  -0.00  -0.00
                     49                     50                     51
                        a                      a                      a 
 Frequencies --  3025.3133              3032.1793              3037.7009
 Red. masses --     1.7666                 1.9010                 1.7739
 Frc consts  --     0.0000                 0.0000                 0.0000
 IR Inten    --     0.9510                81.4266                69.3780
 Raman Activ --     0.0000                 0.0000                 0.0000
 Depolar     --     0.0000                 0.0000                 0.0000
 Atom AN      X      Y      Z        X      Y      Z        X      Y      Z
   1   6    -0.00   0.00  -0.01     0.18   0.10  -0.20     0.13   0.09   0.21
   2   6    -0.00  -0.00  -0.00     0.02  -0.00  -0.02     0.02   0.00   0.02
   3   6    -0.00   0.00   0.00     0.00  -0.01  -0.01     0.00  -0.00   0.00
   4   6     0.00   0.00  -0.00    -0.00  -0.00  -0.00     0.00   0.00   0.00
   5   8     0.00  -0.00   0.00     0.00   0.00   0.00     0.00   0.00  -0.00
   6   6    -0.00   0.01  -0.00    -0.00  -0.00  -0.00    -0.00   0.00  -0.00
   7   8    -0.00  -0.00  -0.00     0.00   0.00   0.00     0.00   0.00   0.00
   8   6     0.03   0.18  -0.19     0.00  -0.00   0.01    -0.00   0.00  -0.00
   9   1     0.01  -0.00   0.00    -0.08   0.03  -0.07    -0.29   0.06  -0.09
  10   1    -0.01  -0.01   0.01    -0.59  -0.49   0.44    -0.19  -0.16   0.19
  11   1     0.00   0.01   0.02     0.03   0.11   0.32     0.01  -0.23  -0.82
  12   1     0.00  -0.00   0.00    -0.05   0.01  -0.02    -0.05   0.01  -0.02
  13   1     0.00   0.00   0.00     0.01   0.02   0.06    -0.00  -0.01  -0.04
  14   1     0.00   0.00  -0.00    -0.00   0.01   0.03     0.00  -0.01  -0.02
  15   1     0.00  -0.00  -0.00    -0.01   0.03   0.00    -0.00   0.01   0.00
  16   1    -0.00  -0.00   0.00     0.00   0.00  -0.00    -0.00  -0.00   0.00
  17   1     0.00   0.00  -0.00     0.00  -0.00   0.00    -0.00  -0.00  -0.00
  18   1    -0.03  -0.67   0.69     0.00   0.02  -0.02    -0.00  -0.01   0.01
  19   1    -0.08   0.01  -0.01     0.00   0.00   0.00     0.00   0.00  -0.00
  20   1     0.01   0.03  -0.01    -0.00  -0.00  -0.00     0.00   0.00   0.00
                     52                     53                     54
                        a                      a                      a 
 Frequencies --  3051.9915              3058.2808              3073.0512
 Red. masses --     1.4689                 1.4502                 1.9637
 Frc consts  --     0.0000                 0.0000                 0.0000
 IR Inten    --    48.4783                 1.4244                 6.9320
 Raman Activ --     0.0000                 0.0000                 0.0000
 Depolar     --     0.0000                 0.0000                 0.0000
 Atom AN      X      Y      Z        X      Y      Z        X      Y      Z
   1   6     0.18  -0.09   0.05     0.00  -0.00   0.00     0.00  -0.00  -0.00
   2   6     0.02  -0.00   0.01     0.00  -0.00   0.00     0.00  -0.00   0.00
   3   6     0.00  -0.00  -0.00     0.00   0.00   0.00     0.00  -0.00  -0.00
   4   6    -0.00  -0.00  -0.00     0.00  -0.00   0.00    -0.00  -0.00  -0.00
   5   8     0.00   0.00  -0.00     0.00   0.00   0.00     0.00  -0.00   0.00
   6   6    -0.00   0.00  -0.00    -0.00   0.00   0.00    -0.01  -0.00  -0.00
   7   8     0.00   0.00   0.00    -0.00  -0.00  -0.00     0.00   0.00   0.00
   8   6     0.00   0.00  -0.01    -0.14   0.02   0.14    -0.24  -0.09  -0.15
   9   1    -0.83   0.13  -0.34    -0.02   0.00  -0.01     0.00  -0.00  -0.00
  10   1     0.17   0.11  -0.11     0.01   0.00  -0.00    -0.00  -0.00   0.00
  11   1     0.03   0.07   0.27     0.00   0.00   0.01     0.00   0.00   0.01
  12   1    -0.04   0.00  -0.02    -0.00  -0.00  -0.00    -0.00   0.00  -0.00
  13   1     0.00  -0.00  -0.01     0.00   0.00   0.00     0.00  -0.00  -0.00
  14   1     0.00   0.00   0.01     0.00  -0.00  -0.00     0.00   0.00   0.00
  15   1    -0.00   0.01   0.00     0.00  -0.00   0.00    -0.00   0.00  -0.00
  16   1     0.00   0.00  -0.00     0.00  -0.00   0.00     0.00   0.00  -0.00
  17   1    -0.00  -0.00   0.00     0.00  -0.00  -0.00    -0.00   0.00   0.00
  18   1     0.00  -0.01   0.01    -0.02  -0.06   0.08    -0.03  -0.03   0.00
  19   1    -0.02  -0.00   0.00     0.80   0.15  -0.19     0.45   0.08  -0.14
  20   1     0.01   0.00   0.01    -0.28  -0.16  -0.38     0.42   0.26   0.66
