 Entering Gaussian System
 *********************************************
 Gaussian 98:
 frequency output generated by the xtb code
 *********************************************
                         Standard orientation:
 --------------------------------------------------------------------
  Center     Atomic     Atomic              Coordinates (Angstroms)
  Number     Number      Type              X           Y           Z
 --------------------------------------------------------------------
    1          6             0        3.417688   -0.302233   -0.000625
    2          6             0        2.186651    0.595895    0.005385
    3          6             0        0.895549   -0.218284   -0.003346
    4          6             0       -0.342979    0.672545    0.000980
    5          6             0       -1.633547   -0.103544   -0.001534
    6          8             0       -1.671787   -1.318974   -0.002853
    7          6             0       -2.884183    0.732179   -0.003567
    8          1             0        3.424879   -0.931807   -0.887509
    9          1             0        4.326795    0.293852    0.006361
   10          1             0        3.421815   -0.947797    0.874711
   11          1             0        2.209468    1.246491   -0.871463
   12          1             0        2.207049    1.231303    0.893365
   13          1             0        0.865601   -0.874017    0.869823
   14          1             0        0.869147   -0.860906   -0.886320
   15          1             0       -0.344579    1.316841    0.883504
   16          1             0       -0.345095    1.325602   -0.875013
   17          1             0       -3.472094    0.483628   -0.884674
   18          1             0       -3.485902    0.468860    0.863743
   19          1             0       -2.661929    1.792995    0.006596
 --------------------------------------------------------------------
     1 basis functions        1 primitive gaussians
     1 alpha electrons        1 beta electrons
 
 Harmonic frequencies (cm**-1), IR intensities (km*mol⁻¹),
 Raman scattering activities (A**4/amu), Raman depolarization ratios,
 reduced masses (AMU), force constants (mDyne/A) and normal coordinates:
                      1                      2                      3
                        a                      a                      a 
 Frequencies --   -86.9937                59.0243                70.3590
 Red. masses --     2.2239                 6.7923                 8.6911
 Frc consts  --     0.0000                 0.0000                 0.0000
 IR Inten    --     5.9217                 1.4061                 0.2728
 Raman Activ --     0.0000                 0.0000                 0.0000
 Depolar     --     0.0000                 0.0000                 0.0000
 Atom AN      X      Y      Z        X      Y      Z        X      Y      Z
   1   6     0.00   0.00   0.04    -0.00  -0.00   0.23    -0.00  -0.00   0.38
   2   6     0.00   0.00   0.01     0.00   0.00  -0.38    -0.00  -0.00   0.02
   3   6     0.00  -0.00   0.09    -0.00  -0.00   0.21     0.00   0.00  -0.49
   4   6     0.00  -0.00  -0.03    -0.00  -0.00   0.01    -0.00   0.00  -0.41
   5   6     0.00   0.00  -0.08    -0.00  -0.00  -0.02     0.00   0.00   0.00
   6   8     0.00   0.00  -0.23     0.00   0.00  -0.39     0.00   0.00   0.09
   7   6    -0.00   0.00   0.13    -0.00   0.00   0.28    -0.00  -0.00   0.36
   8   1    -0.00  -0.01   0.02    -0.02  -0.20   0.21     0.09   0.02   0.10
   9   1     0.00   0.00  -0.00     0.00   0.00  -0.08    -0.00  -0.00   0.22
  10   1     0.00   0.01   0.02     0.02   0.20   0.21    -0.09  -0.02   0.09
  11   1    -0.01  -0.02  -0.01    -0.00  -0.18  -0.24     0.09   0.02   0.03
  12   1     0.01   0.02  -0.01     0.01   0.18  -0.24    -0.09  -0.03   0.03
  13   1    -0.00   0.03   0.05     0.04   0.12   0.15    -0.05  -0.07  -0.20
  14   1     0.00  -0.03   0.05    -0.04  -0.12   0.15     0.05   0.08  -0.20
  15   1    -0.02   0.02  -0.03    -0.02   0.04  -0.03     0.05   0.04  -0.14
  16   1     0.02  -0.02  -0.03     0.02  -0.04  -0.03    -0.05  -0.03  -0.14
  17   1    -0.32  -0.36   0.35     0.03   0.13   0.02    -0.04   0.05   0.11
  18   1     0.31   0.35   0.36    -0.03  -0.13   0.02     0.04  -0.05   0.11
  19   1     0.00   0.00  -0.44    -0.00  -0.00   0.24    -0.00  -0.00   0.15
                      4                      5                      6
                        a                      a                      a 
 Frequencies --   119.8421               130.4409               231.0955
 Red. masses --    10.5609                 6.5063                 2.0809
 Frc consts  --     0.0000                 0.0000                 0.0000
 IR Inten    --     5.7128                 1.7389                 0.0575
 Raman Activ --     0.0000                 0.0000                 0.0000
 Depolar     --     0.0000                 0.0000                 0.0000
 Atom AN      X      Y      Z        X      Y      Z        X      Y      Z
   1   6    -0.23  -0.40   0.00    -0.00  -0.01  -0.21    -0.00  -0.00   0.05
   2   6     0.07   0.02  -0.01     0.00  -0.00   0.29     0.00   0.00  -0.27
   3   6    -0.10   0.30  -0.00    -0.00   0.00   0.36     0.00  -0.00   0.11
   4   6    -0.07   0.33   0.01    -0.00   0.01  -0.45    -0.00  -0.00   0.09
   5   6     0.08   0.08   0.00     0.00   0.00  -0.09    -0.00  -0.00   0.03
   6   8     0.48   0.07   0.00     0.01   0.00  -0.07    -0.00  -0.00  -0.02
   7   6    -0.16  -0.29  -0.01    -0.00  -0.01   0.18     0.00   0.00  -0.01
   8   1    -0.13  -0.12   0.00    -0.03   0.11  -0.14     0.32   0.33  -0.21
   9   1    -0.00  -0.21  -0.00    -0.00  -0.00  -0.02    -0.00  -0.01   0.56
  10   1    -0.13  -0.11   0.00     0.03  -0.11  -0.14    -0.32  -0.32  -0.22
  11   1     0.07  -0.00  -0.00    -0.05   0.06   0.12     0.00  -0.08  -0.14
  12   1     0.07   0.00  -0.00     0.05  -0.06   0.12     0.00   0.08  -0.13
  13   1    -0.05   0.08  -0.00    -0.07   0.13   0.20     0.04   0.07   0.09
  14   1    -0.05   0.09  -0.00     0.07  -0.13   0.20    -0.04  -0.07   0.09
  15   1    -0.04   0.09   0.01    -0.03   0.20  -0.28    -0.01   0.00   0.03
  16   1    -0.04   0.10   0.00     0.02  -0.19  -0.28     0.01  -0.00   0.03
  17   1    -0.03  -0.14  -0.00     0.01   0.09   0.02     0.01  -0.01  -0.01
  18   1    -0.02  -0.13  -0.00    -0.01  -0.10   0.02    -0.01   0.01  -0.01
  19   1    -0.14  -0.07  -0.00    -0.00  -0.00   0.16     0.00   0.00  -0.01
                      7                      8                      9
                        a                      a                      a 
 Frequencies --   294.7231               319.1932               458.4330
 Red. masses --    10.3592                10.0785                 9.1476
 Frc consts  --     0.0000                 0.0000                 0.0000
 IR Inten    --     3.1349                 1.1241                 6.8682
 Raman Activ --     0.0000                 0.0000                 0.0000
 Depolar     --     0.0000                 0.0000                 0.0000
 Atom AN      X      Y      Z        X      Y      Z        X      Y      Z
   1   6    -0.13  -0.19  -0.00    -0.48   0.04  -0.00    -0.31   0.02  -0.00
   2   6     0.27   0.37   0.00    -0.35   0.12   0.00    -0.06   0.24   0.00
   3   6     0.24   0.36   0.00    -0.12  -0.10  -0.00     0.29  -0.26  -0.00
   4   6    -0.08  -0.11  -0.00     0.04  -0.06  -0.00     0.35  -0.20  -0.00
   5   6    -0.06  -0.23  -0.00     0.18  -0.11   0.00     0.11   0.23  -0.01
   6   8    -0.39  -0.26  -0.00     0.32  -0.14  -0.00    -0.16   0.28   0.01
   7   6     0.13   0.06   0.00     0.43   0.19   0.00    -0.17  -0.18   0.00
   8   1    -0.14  -0.06   0.00    -0.17   0.01   0.00    -0.17   0.00   0.00
   9   1     0.06  -0.21  -0.00    -0.10  -0.04  -0.00    -0.01  -0.11  -0.00
  10   1    -0.14  -0.06  -0.00    -0.17   0.01  -0.00    -0.17   0.00  -0.00
  11   1     0.13   0.10  -0.00    -0.12   0.03  -0.00    -0.05   0.06  -0.00
  12   1     0.13   0.10   0.00    -0.12   0.03   0.00    -0.05   0.06   0.00
  13   1     0.12   0.10  -0.00    -0.02  -0.03   0.00     0.14  -0.07   0.00
  14   1     0.12   0.10   0.00    -0.02  -0.03  -0.00     0.14  -0.07  -0.00
  15   1    -0.08  -0.03  -0.00     0.02  -0.02   0.00     0.16  -0.06  -0.00
  16   1    -0.08  -0.03   0.00     0.02  -0.02  -0.00     0.16  -0.05   0.01
  17   1     0.02   0.06   0.00     0.09   0.13  -0.00    -0.01  -0.16   0.00
  18   1     0.02   0.06   0.00     0.09   0.13   0.00     0.00  -0.17  -0.00
  19   1     0.11   0.00   0.00     0.25   0.03  -0.00    -0.23  -0.02   0.00
                     10                     11                     12
                        a                      a                      a 
 Frequencies --   474.9642               581.3205               748.6261
 Red. masses --     7.7334                11.1098                 2.7668
 Frc consts  --     0.0000                 0.0000                 0.0000
 IR Inten    --     0.1739                14.3098                14.1979
 Raman Activ --     0.0000                 0.0000                 0.0000
 Depolar     --     0.0000                 0.0000                 0.0000
 Atom AN      X      Y      Z        X      Y      Z        X      Y      Z
   1   6    -0.01   0.00   0.01    -0.02   0.02   0.00     0.00  -0.00   0.00
   2   6    -0.00   0.00  -0.01    -0.10  -0.13  -0.00     0.00   0.00  -0.05
   3   6     0.00  -0.00  -0.08    -0.17   0.13   0.00     0.00   0.00  -0.15
   4   6     0.01  -0.00   0.07     0.11   0.31   0.00    -0.00   0.00  -0.28
   5   6     0.00   0.00   0.68     0.35   0.00  -0.00    -0.00  -0.00   0.20
   6   8    -0.01   0.01  -0.31    -0.51   0.02   0.00     0.00   0.00  -0.07
   7   6    -0.00  -0.00  -0.07     0.41  -0.31   0.00     0.00  -0.00   0.10
   8   1    -0.00  -0.01   0.01     0.04   0.01  -0.00     0.03  -0.04   0.03
   9   1    -0.00  -0.00   0.00    -0.04   0.07   0.00     0.00  -0.00   0.01
  10   1    -0.00   0.01   0.01     0.04   0.01   0.00    -0.03   0.04   0.03
  11   1     0.01   0.02   0.01    -0.03  -0.03   0.00     0.06   0.17   0.12
  12   1    -0.01  -0.02   0.01    -0.03  -0.03  -0.00    -0.06  -0.18   0.12
  13   1     0.02  -0.04  -0.05    -0.11   0.04   0.00    -0.04   0.35   0.23
  14   1    -0.02   0.04  -0.05    -0.11   0.04   0.00     0.04  -0.35   0.22
  15   1     0.15   0.26  -0.18    -0.00   0.08   0.00     0.05  -0.34   0.18
  16   1    -0.15  -0.26  -0.18    -0.00   0.08  -0.00    -0.05   0.33   0.18
  17   1     0.19  -0.16  -0.10     0.15  -0.19   0.01     0.16  -0.12  -0.05
  18   1    -0.18   0.15  -0.10     0.15  -0.19  -0.01    -0.16   0.12  -0.05
  19   1    -0.01   0.00  -0.16    -0.04  -0.06   0.00    -0.00   0.00  -0.10
                     13                     14                     15
                        a                      a                      a 
 Frequencies --   796.9524               878.5696               896.4051
 Red. masses --     2.6411                10.0378                 2.9247
 Frc consts  --     0.0000                 0.0000                 0.0000
 IR Inten    --     3.2227                 3.3478                 1.4027
 Raman Activ --     0.0000                 0.0000                 0.0000
 Depolar     --     0.0000                 0.0000                 0.0000
 Atom AN      X      Y      Z        X      Y      Z        X      Y      Z
   1   6     0.00  -0.00   0.05    -0.12   0.05   0.00    -0.00   0.00  -0.14
   2   6    -0.00  -0.00   0.25    -0.03  -0.11   0.00    -0.00  -0.00  -0.08
   3   6    -0.00  -0.00   0.06     0.13  -0.01  -0.01     0.00  -0.00   0.26
   4   6    -0.00   0.00  -0.24     0.46   0.47   0.00     0.01   0.01  -0.15
   5   6    -0.00   0.00   0.10    -0.00  -0.22   0.00    -0.00  -0.00  -0.09
   6   8     0.00   0.00  -0.04    -0.10  -0.35  -0.00    -0.00  -0.01   0.01
   7   6     0.00  -0.00   0.10    -0.34   0.05  -0.01    -0.01   0.00   0.22
   8   1    -0.19   0.17  -0.12    -0.02   0.02  -0.00     0.23  -0.19   0.10
   9   1     0.00   0.00  -0.10    -0.05   0.05  -0.00    -0.00   0.00   0.13
  10   1     0.19  -0.17  -0.12    -0.01   0.01  -0.00    -0.23   0.19   0.11
  11   1     0.00  -0.40  -0.23    -0.02  -0.03  -0.00    -0.23   0.09   0.04
  12   1     0.00   0.40  -0.23    -0.03  -0.02  -0.00     0.23  -0.10   0.04
  13   1    -0.18  -0.11  -0.07    -0.02   0.01   0.01    -0.05  -0.25  -0.13
  14   1     0.18   0.11  -0.07    -0.02   0.00  -0.00     0.05   0.25  -0.12
  15   1    -0.03  -0.19   0.08     0.20   0.11   0.01    -0.22  -0.06   0.01
  16   1     0.03   0.19   0.08     0.19   0.11  -0.01     0.23   0.06   0.01
  17   1     0.15  -0.10  -0.05    -0.15   0.17  -0.01     0.25  -0.15  -0.07
  18   1    -0.14   0.10  -0.05    -0.14   0.17   0.01    -0.25   0.16  -0.08
  19   1    -0.00   0.00  -0.08     0.11  -0.02   0.00     0.00   0.00  -0.14
                     16                     17                     18
                        a                      a                      a 
 Frequencies --   942.7207               965.4861              1010.1008
 Red. masses --     5.7885                 3.3377                 6.5602
 Frc consts  --     0.0000                 0.0000                 0.0000
 IR Inten    --     9.2283                22.1274                10.9752
 Raman Activ --     0.0000                 0.0000                 0.0000
 Depolar     --     0.0000                 0.0000                 0.0000
 Atom AN      X      Y      Z        X      Y      Z        X      Y      Z
   1   6    -0.35  -0.10  -0.00    -0.00   0.00  -0.14     0.09   0.03   0.00
   2   6    -0.09  -0.26  -0.00    -0.00  -0.00   0.08    -0.03   0.00  -0.00
   3   6     0.22   0.34   0.00    -0.00   0.00   0.08    -0.07   0.02   0.00
   4   6     0.05  -0.21  -0.00    -0.00  -0.00  -0.16     0.06  -0.03  -0.00
   5   6     0.06   0.01   0.00     0.00  -0.00   0.29     0.31  -0.14  -0.00
   6   8     0.03   0.01   0.00     0.00  -0.00  -0.05     0.03  -0.28   0.00
   7   6    -0.05   0.10   0.00     0.00   0.00  -0.26    -0.12   0.50   0.00
   8   1     0.23   0.01  -0.02     0.18  -0.14   0.07    -0.05  -0.00   0.01
   9   1    -0.39   0.43   0.00    -0.00   0.00   0.10     0.09  -0.10  -0.00
  10   1     0.23   0.01   0.02    -0.18   0.14   0.07    -0.05  -0.00  -0.01
  11   1     0.12  -0.07  -0.00    -0.26  -0.05  -0.03    -0.06   0.00   0.00
  12   1     0.12  -0.07   0.00     0.26   0.05  -0.02    -0.06   0.00  -0.00
  13   1     0.14   0.09   0.00    -0.27  -0.05  -0.02    -0.07   0.01   0.00
  14   1     0.14   0.09   0.00     0.27   0.05  -0.02    -0.07   0.01  -0.00
  15   1    -0.04  -0.05  -0.00     0.23  -0.13   0.06    -0.09  -0.00  -0.01
  16   1    -0.03  -0.05   0.00    -0.23   0.13   0.06    -0.09  -0.00   0.01
  17   1     0.01  -0.04   0.00    -0.26   0.15   0.08     0.06  -0.18   0.02
  18   1     0.01  -0.04  -0.00     0.26  -0.15   0.08     0.06  -0.18  -0.03
  19   1    -0.12   0.05  -0.00    -0.00  -0.00   0.14    -0.58   0.24  -0.00
                     19                     20                     21
                        a                      a                      a 
 Frequencies --  1077.7711              1086.8101              1111.6382
 Red. masses --     9.5005                 5.0052                 7.9447
 Frc consts  --     0.0000                 0.0000                 0.0000
 IR Inten    --     4.1129                11.2916                 0.0015
 Raman Activ --     0.0000                 0.0000                 0.0000
 Depolar     --     0.0000                 0.0000                 0.0000
 Atom AN      X      Y      Z        X      Y      Z        X      Y      Z
   1   6    -0.29   0.34   0.00     0.00  -0.00  -0.08    -0.19   0.25   0.00
   2   6     0.36  -0.36  -0.00    -0.00   0.00   0.13     0.42  -0.08   0.00
   3   6     0.34  -0.22  -0.00    -0.00   0.00  -0.17    -0.46   0.11  -0.00
   4   6    -0.26   0.25   0.00     0.00  -0.00   0.29     0.20  -0.29  -0.00
   5   6    -0.09  -0.00  -0.00    -0.00   0.00  -0.43    -0.01   0.01  -0.00
   6   8     0.01  -0.00   0.00     0.00   0.00   0.07     0.01   0.00   0.00
   7   6     0.10   0.03   0.00    -0.00   0.00   0.20    -0.03  -0.00   0.00
   8   1    -0.19   0.08   0.00     0.08  -0.06   0.03    -0.11   0.07  -0.00
   9   1    -0.01  -0.02   0.00    -0.00   0.00   0.04    -0.02   0.02   0.00
  10   1    -0.20   0.08  -0.00    -0.07   0.06   0.03    -0.11   0.07   0.00
  11   1     0.06  -0.10  -0.00    -0.12  -0.09  -0.04     0.26  -0.02   0.00
  12   1     0.06  -0.10   0.00     0.12   0.09  -0.03     0.26  -0.02  -0.00
  13   1     0.03  -0.06  -0.00    -0.20   0.13   0.05    -0.24   0.02  -0.01
  14   1     0.03  -0.07   0.00     0.21  -0.13   0.05    -0.24   0.02   0.01
  15   1    -0.19   0.07  -0.00     0.39   0.13  -0.03     0.19  -0.08   0.00
  16   1    -0.20   0.07   0.00    -0.39  -0.13  -0.03     0.18  -0.08  -0.00
  17   1     0.04  -0.05   0.01     0.18  -0.10  -0.05    -0.00  -0.00  -0.00
  18   1     0.04  -0.05  -0.01    -0.18   0.10  -0.05    -0.01  -0.00   0.00
  19   1    -0.06   0.02  -0.00    -0.00   0.00  -0.11     0.01  -0.00  -0.00
                     22                     23                     24
                        a                      a                      a 
 Frequencies --  1120.4893              1146.5195              1204.5661
 Red. masses --     7.6044                 8.4198                 5.2500
 Frc consts  --     0.0000                 0.0000                 0.0000
 IR Inten    --    48.6958               147.6753                 0.4237
 Raman Activ --     0.0000                 0.0000                 0.0000
 Depolar     --     0.0000                 0.0000                 0.0000
 Atom AN      X      Y      Z        X      Y      Z        X      Y      Z
   1   6     0.09   0.17   0.00     0.11   0.11   0.00    -0.00  -0.00   0.28
   2   6    -0.12  -0.32  -0.00    -0.18  -0.28  -0.00     0.00   0.00  -0.40
   3   6     0.11   0.33   0.00     0.12   0.36   0.00    -0.00  -0.00   0.35
   4   6     0.10  -0.27  -0.00     0.14  -0.06  -0.00    -0.00   0.00  -0.12
   5   6     0.39   0.03  -0.00    -0.56   0.01  -0.00     0.00   0.00  -0.08
   6   8    -0.04   0.15   0.00     0.07  -0.05   0.00    -0.00  -0.00   0.01
   7   6    -0.23  -0.11   0.00     0.23   0.04   0.00    -0.00   0.00   0.03
   8   1    -0.17   0.01   0.02    -0.13  -0.00   0.02    -0.20   0.18  -0.07
   9   1     0.16  -0.18  -0.00     0.14  -0.15  -0.00     0.00   0.00  -0.12
  10   1    -0.17   0.01  -0.02    -0.13   0.00  -0.02     0.20  -0.18  -0.07
  11   1    -0.17  -0.08   0.00    -0.15  -0.06   0.00    -0.04   0.23   0.08
  12   1    -0.17  -0.07  -0.00    -0.15  -0.06  -0.00     0.04  -0.24   0.07
  13   1    -0.05   0.08  -0.00     0.05   0.09   0.00    -0.05  -0.19  -0.06
  14   1    -0.05   0.08   0.00     0.05   0.09   0.00     0.06   0.20  -0.06
  15   1    -0.20  -0.06  -0.00     0.22  -0.02  -0.00     0.33  -0.08   0.03
  16   1    -0.21  -0.07   0.00     0.22  -0.02   0.00    -0.33   0.08   0.03
  17   1    -0.09   0.17  -0.03     0.09  -0.17   0.02     0.03  -0.02  -0.01
  18   1    -0.10   0.18   0.03     0.09  -0.17  -0.03    -0.03   0.02  -0.01
  19   1     0.17  -0.07  -0.00    -0.07   0.03   0.00    -0.00   0.00  -0.02
                     25                     26                     27
                        a                      a                      a 
 Frequencies --  1256.3538              1260.3894              1277.7805
 Red. masses --     4.8654                 2.8928                 1.7327
 Frc consts  --     0.0000                 0.0000                 0.0000
 IR Inten    --    53.0763                 0.1192                 0.0743
 Raman Activ --     0.0000                 0.0000                 0.0000
 Depolar     --     0.0000                 0.0000                 0.0000
 Atom AN      X      Y      Z        X      Y      Z        X      Y      Z
   1   6    -0.05  -0.13   0.01    -0.00  -0.00  -0.22    -0.00  -0.00   0.14
   2   6     0.15   0.16  -0.01     0.01   0.00   0.19     0.00  -0.00   0.12
   3   6     0.18  -0.03  -0.01     0.01  -0.00   0.21     0.00   0.00  -0.16
   4   6     0.39  -0.04   0.01     0.01  -0.00  -0.19    -0.00   0.00  -0.08
   5   6    -0.29   0.01   0.00    -0.01   0.00  -0.05    -0.00   0.00  -0.00
   6   8     0.04   0.03  -0.00     0.00   0.00   0.01    -0.00  -0.00   0.00
   7   6     0.06  -0.01  -0.00     0.00  -0.00   0.02     0.00   0.00   0.00
   8   1     0.07   0.01  -0.02     0.13  -0.13   0.04    -0.08   0.08  -0.02
   9   1    -0.10   0.11  -0.00    -0.00   0.00   0.10    -0.00   0.00  -0.02
  10   1     0.08  -0.00   0.02    -0.12   0.13   0.05     0.08  -0.07  -0.02
  11   1    -0.21   0.05  -0.00     0.28  -0.11  -0.02    -0.51  -0.05  -0.02
  12   1    -0.19   0.04   0.01    -0.30   0.11  -0.02     0.51   0.05  -0.02
  13   1    -0.41   0.01  -0.00     0.37  -0.13  -0.03     0.43   0.06   0.02
  14   1    -0.38   0.00   0.00    -0.40   0.13  -0.03    -0.43  -0.06   0.02
  15   1    -0.33  -0.04   0.02     0.30  -0.11   0.03     0.06  -0.04   0.00
  16   1    -0.31  -0.05  -0.03    -0.32   0.10   0.03    -0.06   0.04   0.00
  17   1     0.03  -0.05   0.01     0.02  -0.01  -0.00     0.00  -0.00  -0.00
  18   1     0.03  -0.05  -0.01    -0.01   0.01  -0.00    -0.00   0.00  -0.00
  19   1     0.03  -0.01   0.00     0.00  -0.00  -0.01     0.00  -0.00   0.00
                     28                     29                     30
                        a                      a                      a 
 Frequencies --  1324.7870              1360.5134              1368.2665
 Red. masses --     4.9344                 3.0682                 5.2359
 Frc consts  --     0.0000                 0.0000                 0.0000
 IR Inten    --    50.4035                58.7757                 7.5125
 Raman Activ --     0.0000                 0.0000                 0.0000
 Depolar     --     0.0000                 0.0000                 0.0000
 Atom AN      X      Y      Z        X      Y      Z        X      Y      Z
   1   6    -0.04  -0.12  -0.00    -0.01  -0.01  -0.00     0.04   0.06   0.00
   2   6     0.32   0.02   0.00     0.04  -0.01   0.00    -0.38   0.05  -0.00
   3   6     0.17   0.08   0.00    -0.04   0.01   0.00     0.43  -0.03   0.00
   4   6    -0.39  -0.10  -0.00     0.03  -0.02  -0.00    -0.18  -0.09  -0.00
   5   6     0.18   0.01   0.00    -0.04   0.01   0.00     0.04   0.02   0.00
   6   8    -0.02  -0.02  -0.00     0.01   0.02   0.00    -0.01  -0.01  -0.00
   7   6    -0.04   0.01   0.00     0.39  -0.16   0.00     0.03  -0.02   0.00
   8   1     0.00   0.04  -0.04    -0.00   0.00  -0.00     0.02  -0.05   0.04
   9   1    -0.12   0.13   0.00    -0.01   0.01   0.00     0.08  -0.08  -0.00
  10   1     0.00   0.04   0.04    -0.00   0.00   0.00     0.02  -0.05  -0.04
  11   1    -0.38   0.02  -0.00    -0.04   0.00   0.00     0.33  -0.04  -0.02
  12   1    -0.38   0.02   0.00    -0.04   0.00  -0.00     0.33  -0.04   0.02
  13   1    -0.19  -0.01  -0.03     0.03   0.00   0.00    -0.38   0.01  -0.00
  14   1    -0.19  -0.01   0.02     0.03   0.00  -0.00    -0.38   0.01   0.00
  15   1     0.33   0.07  -0.07    -0.01   0.01  -0.01     0.12   0.11  -0.09
  16   1     0.33   0.07   0.07    -0.01   0.01   0.01     0.12   0.11   0.09
  17   1    -0.00   0.03  -0.01    -0.45   0.21   0.27    -0.04   0.03   0.02
  18   1    -0.00   0.02   0.01    -0.45   0.21  -0.27    -0.04   0.03  -0.02
  19   1    -0.01   0.00  -0.00    -0.41   0.08  -0.01    -0.04   0.01  -0.00
                     31                     32                     33
                        a                      a                      a 
 Frequencies --  1412.8786              1421.6517              1433.6756
 Red. masses --     3.2150                 2.2635                 1.5891
 Frc consts  --     0.0000                 0.0000                 0.0000
 IR Inten    --     0.7827                18.3162                 6.5287
 Raman Activ --     0.0000                 0.0000                 0.0000
 Depolar     --     0.0000                 0.0000                 0.0000
 Atom AN      X      Y      Z        X      Y      Z        X      Y      Z
   1   6    -0.37   0.23   0.00    -0.02   0.02   0.00     0.00   0.00  -0.00
   2   6     0.10   0.01   0.00    -0.04  -0.00  -0.00    -0.00   0.00   0.00
   3   6    -0.02   0.02   0.00     0.13   0.02   0.00     0.00   0.00  -0.00
   4   6    -0.01  -0.02  -0.00    -0.14   0.25   0.00    -0.00   0.00   0.01
   5   6     0.00   0.00  -0.00     0.08  -0.03   0.00     0.00  -0.00  -0.05
   6   8     0.00  -0.00   0.00    -0.01   0.03  -0.00    -0.00   0.00   0.01
   7   6    -0.00  -0.00  -0.00    -0.00   0.05   0.00     0.00   0.00  -0.22
   8   1     0.46  -0.18   0.14     0.02  -0.02   0.02     0.00  -0.00   0.00
   9   1     0.26  -0.43  -0.00     0.02  -0.02  -0.00     0.00   0.00  -0.00
  10   1     0.46  -0.17  -0.14     0.02  -0.02  -0.02    -0.00   0.00   0.00
  11   1    -0.10  -0.05  -0.04     0.02   0.01   0.01     0.00  -0.00  -0.00
  12   1    -0.10  -0.05   0.03     0.02   0.01  -0.01    -0.00   0.00  -0.00
  13   1     0.01   0.00  -0.00    -0.09  -0.00  -0.01    -0.00   0.00   0.00
  14   1     0.01   0.00   0.00    -0.09  -0.00   0.01     0.00  -0.00   0.00
  15   1     0.01   0.03  -0.02     0.10  -0.51   0.38     0.00   0.00  -0.00
  16   1     0.01   0.03   0.02     0.10  -0.51  -0.39    -0.00  -0.01  -0.00
  17   1     0.00   0.00  -0.00    -0.07  -0.06   0.06     0.03  -0.45   0.08
  18   1     0.00   0.00   0.00    -0.07  -0.06  -0.07    -0.04   0.44   0.08
  19   1    -0.00  -0.00   0.00     0.05  -0.00  -0.00    -0.00  -0.01   0.73
                     34                     35                     36
                        a                      a                      a 
 Frequencies --  1451.0076              1491.5866              1498.6374
 Red. masses --     1.8256                 1.9236                 1.5297
 Frc consts  --     0.0000                 0.0000                 0.0000
 IR Inten    --     0.8281                 1.7129                 1.3263
 Raman Activ --     0.0000                 0.0000                 0.0000
 Depolar     --     0.0000                 0.0000                 0.0000
 Atom AN      X      Y      Z        X      Y      Z        X      Y      Z
   1   6     0.00  -0.00  -0.00     0.02  -0.04  -0.00    -0.00  -0.00  -0.21
   2   6     0.01   0.00   0.00     0.00   0.27   0.00    -0.01  -0.01  -0.05
   3   6    -0.02  -0.00  -0.00    -0.03   0.07   0.00     0.00   0.04   0.00
   4   6    -0.00  -0.05  -0.00     0.01   0.01   0.00     0.00   0.00   0.00
   5   6     0.09   0.03   0.00    -0.00   0.01   0.00    -0.00   0.00  -0.00
   6   8    -0.01  -0.01  -0.00    -0.00  -0.00  -0.00    -0.00  -0.00   0.00
   7   6    -0.03   0.25   0.00     0.00  -0.00  -0.00    -0.00  -0.00  -0.00
   8   1    -0.00   0.00  -0.00    -0.02   0.10  -0.07    -0.43  -0.11   0.06
   9   1    -0.00   0.00   0.00     0.01  -0.00   0.00     0.01  -0.02   0.71
  10   1    -0.00   0.00   0.00    -0.02   0.10   0.07     0.45   0.14   0.09
  11   1    -0.00  -0.01  -0.01    -0.02  -0.52  -0.39    -0.01   0.03   0.01
  12   1    -0.00  -0.01   0.01    -0.02  -0.53   0.38     0.02  -0.00  -0.01
  13   1     0.02  -0.00  -0.00     0.02  -0.09  -0.07    -0.02  -0.07  -0.05
  14   1     0.02  -0.00   0.00     0.02  -0.09   0.07     0.02  -0.07   0.05
  15   1    -0.02   0.09  -0.07    -0.00  -0.02   0.01    -0.01   0.00  -0.00
  16   1    -0.02   0.09   0.07    -0.00  -0.02  -0.01     0.00  -0.00   0.00
  17   1    -0.29  -0.40   0.30     0.00   0.01  -0.00     0.00   0.00  -0.00
  18   1    -0.28  -0.40  -0.32     0.00   0.01   0.00     0.00   0.00   0.00
  19   1     0.47  -0.07  -0.00    -0.01   0.00   0.00     0.00  -0.00   0.00
                     37                     38                     39
                        a                      a                      a 
 Frequencies --  1498.7785              1503.7216              1697.5072
 Red. masses --     1.8793                 1.6097                13.3116
 Frc consts  --     0.0000                 0.0000                 0.0000
 IR Inten    --     0.8329                 0.4746               534.6434
 Raman Activ --     0.0000                 0.0000                 0.0000
 Depolar     --     0.0000                 0.0000                 0.0000
 Atom AN      X      Y      Z        X      Y      Z        X      Y      Z
   1   6    -0.03  -0.05   0.03    -0.11  -0.17  -0.00     0.00  -0.00   0.00
   2   6    -0.05  -0.06   0.01    -0.05  -0.07  -0.00     0.00  -0.01  -0.00
   3   6     0.01   0.26   0.00     0.02  -0.07  -0.00     0.00   0.00  -0.00
   4   6     0.03   0.01  -0.00    -0.01  -0.00  -0.00    -0.02  -0.03   0.00
   5   6    -0.01   0.01  -0.00     0.00  -0.01   0.00     0.03   0.79   0.00
   6   8    -0.00  -0.01   0.00     0.00   0.01  -0.00    -0.02  -0.60  -0.00
   7   6    -0.00  -0.00  -0.00     0.00   0.00   0.00     0.01  -0.06  -0.00
   8   1     0.11   0.15  -0.10     0.14   0.49  -0.35     0.00   0.00  -0.00
   9   1     0.05  -0.09  -0.10     0.16  -0.27  -0.00     0.00  -0.00  -0.00
  10   1    -0.01   0.11   0.09     0.14   0.48   0.36     0.00   0.00   0.00
  11   1     0.03   0.11   0.09     0.03   0.04   0.04    -0.01   0.00   0.00
  12   1     0.03   0.12  -0.09     0.03   0.04  -0.04    -0.01   0.00  -0.00
  13   1    -0.00  -0.50  -0.38    -0.01   0.16   0.12     0.01   0.01   0.01
  14   1    -0.01  -0.51   0.38    -0.01   0.16  -0.12     0.01   0.01  -0.01
  15   1    -0.02   0.01  -0.01     0.01  -0.01   0.00    -0.04  -0.04   0.03
  16   1    -0.02   0.01   0.01     0.01  -0.01  -0.00    -0.04  -0.04  -0.03
  17   1     0.00   0.00  -0.00    -0.00  -0.00   0.00    -0.00   0.03  -0.01
  18   1     0.00   0.00   0.00    -0.00  -0.00  -0.00    -0.00   0.03   0.01
  19   1     0.00  -0.00   0.00     0.00   0.00  -0.00     0.04  -0.02   0.00
                     40                     41                     42
                        a                      a                      a 
 Frequencies --  2955.0806              2961.1906              2971.6952
 Red. masses --     1.9291                 1.9623                 1.5051
 Frc consts  --     0.0000                 0.0000                 0.0000
 IR Inten    --     3.9910                 9.9983                 9.7101
 Raman Activ --     0.0000                 0.0000                 0.0000
 Depolar     --     0.0000                 0.0000                 0.0000
 Atom AN      X      Y      Z        X      Y      Z        X      Y      Z
   1   6     0.00   0.00  -0.00     0.00  -0.00   0.02     0.00   0.00  -0.00
   2   6    -0.00  -0.00   0.07     0.00   0.00  -0.25    -0.00  -0.04   0.02
   3   6     0.00   0.00  -0.12    -0.00  -0.00   0.10    -0.00  -0.02   0.04
   4   6     0.00   0.00   0.26     0.00   0.00   0.12     0.00   0.20   0.01
   5   6     0.00   0.00   0.01     0.00   0.00   0.00     0.00   0.01   0.00
   6   8     0.00  -0.00  -0.00     0.00  -0.00   0.00     0.00  -0.00  -0.00
   7   6    -0.00  -0.00  -0.01    -0.00  -0.00  -0.00    -0.00  -0.01  -0.00
   8   1    -0.00   0.01   0.01     0.00  -0.03  -0.04     0.00  -0.00  -0.00
   9   1     0.00   0.00  -0.00    -0.00  -0.00   0.00    -0.01  -0.01  -0.00
  10   1     0.00  -0.01   0.01    -0.00   0.03  -0.04     0.00  -0.01   0.01
  11   1     0.01   0.10  -0.12    -0.01  -0.35   0.45     0.00   0.11  -0.16
  12   1    -0.00  -0.10  -0.13     0.01   0.35   0.46    -0.00   0.04   0.07
  13   1    -0.01  -0.18   0.22     0.01   0.14  -0.18     0.00   0.11  -0.14
  14   1     0.01   0.17   0.22    -0.01  -0.14  -0.18    -0.00  -0.01  -0.01
  15   1    -0.00  -0.37  -0.48    -0.00  -0.16  -0.21    -0.00  -0.38  -0.57
  16   1     0.00   0.36  -0.46     0.00   0.16  -0.20    -0.00  -0.36   0.53
  17   1     0.01   0.00   0.01     0.00   0.00   0.00     0.00   0.00   0.01
  18   1    -0.01  -0.00   0.01    -0.00  -0.00   0.00     0.00   0.00  -0.00
  19   1     0.00   0.00  -0.00     0.00   0.00  -0.00     0.01   0.02   0.00
                     43                     44                     45
                        a                      a                      a 
 Frequencies --  2972.2548              2979.2371              2988.4034
 Red. masses --     2.0167                 1.4612                 1.5058
 Frc consts  --     0.0000                 0.0000                 0.0000
 IR Inten    --   147.9366                47.3972                86.5759
 Raman Activ --     0.0000                 0.0000                 0.0000
 Depolar     --     0.0000                 0.0000                 0.0000
 Atom AN      X      Y      Z        X      Y      Z        X      Y      Z
   1   6     0.00   0.00   0.01     0.01   0.01   0.00    -0.01  -0.02  -0.00
   2   6    -0.00  -0.01  -0.14    -0.01  -0.20  -0.00     0.00   0.04  -0.00
   3   6     0.00  -0.00  -0.25     0.00   0.04   0.00     0.01   0.20   0.00
   4   6     0.00   0.03  -0.09    -0.00  -0.04   0.00    -0.00   0.04  -0.00
   5   6     0.00   0.00  -0.00     0.00  -0.00   0.00     0.00   0.00   0.00
   6   8     0.00  -0.00   0.00    -0.00   0.00  -0.00     0.00  -0.00  -0.00
   7   6    -0.00  -0.00   0.00     0.00   0.00  -0.00    -0.00  -0.00   0.00
   8   1    -0.00  -0.02  -0.03     0.00  -0.01  -0.02     0.00   0.02   0.03
   9   1    -0.00  -0.00   0.00    -0.05  -0.03  -0.00     0.03   0.02   0.00
  10   1     0.00   0.02  -0.03     0.00  -0.01   0.02     0.00   0.02  -0.03
  11   1    -0.01  -0.17   0.22     0.01   0.37  -0.56    -0.00  -0.06   0.10
  12   1     0.01   0.19   0.26     0.01   0.36   0.56    -0.00  -0.06  -0.10
  13   1    -0.01  -0.34   0.43    -0.00  -0.08   0.12    -0.02  -0.37   0.56
  14   1     0.01   0.35   0.46    -0.00  -0.08  -0.12    -0.01  -0.36  -0.56
  15   1     0.00   0.05   0.06    -0.00   0.07   0.10    -0.00  -0.06  -0.09
  16   1    -0.00  -0.17   0.24    -0.00   0.07  -0.10    -0.00  -0.06   0.09
  17   1    -0.00  -0.00  -0.00     0.00   0.00  -0.00     0.00   0.00   0.00
  18   1     0.00   0.00  -0.01     0.00   0.00   0.00     0.00   0.00  -0.00
  19   1     0.00   0.00   0.00    -0.00  -0.01  -0.00     0.00   0.00   0.00
                     46                     47                     48
                        a                      a                      a 
 Frequencies --  3026.0590              3026.5108              3030.1949
 Red. masses --     1.9362                 1.9517                 1.9206
 Frc consts  --     0.0000                 0.0000                 0.0000
 IR Inten    --     1.3822                91.5470                87.6095
 Raman Activ --     0.0000                 0.0000                 0.0000
 Depolar     --     0.0000                 0.0000                 0.0000
 Atom AN      X      Y      Z        X      Y      Z        X      Y      Z
   1   6    -0.00  -0.00   0.03     0.00   0.00  -0.29    -0.15  -0.25  -0.00
   2   6    -0.00  -0.00   0.00     0.00   0.00  -0.03    -0.00  -0.02  -0.00
   3   6     0.00  -0.00  -0.00     0.00   0.00  -0.00    -0.00  -0.01  -0.00
   4   6     0.00   0.00  -0.01     0.00   0.00  -0.00    -0.00  -0.00  -0.00
   5   6    -0.00   0.00  -0.01    -0.00   0.00  -0.00     0.00  -0.00  -0.00
   6   8     0.00  -0.00   0.00     0.00  -0.00   0.00    -0.00   0.00   0.00
   7   6    -0.00  -0.00  -0.29    -0.00  -0.00  -0.03     0.00   0.00  -0.00
   8   1    -0.00  -0.04  -0.05     0.01   0.40   0.53    -0.02   0.26   0.42
   9   1    -0.00  -0.00   0.00    -0.00  -0.00  -0.04     0.55   0.35   0.00
  10   1     0.00   0.04  -0.05    -0.01  -0.41   0.53    -0.02   0.26  -0.41
  11   1     0.00   0.00  -0.00    -0.00  -0.04   0.05     0.00   0.03  -0.05
  12   1    -0.00  -0.00  -0.00     0.00   0.03   0.05     0.00   0.03   0.05
  13   1     0.00  -0.00   0.00    -0.00  -0.01   0.01     0.00   0.02  -0.03
  14   1    -0.00   0.00   0.00     0.00   0.01   0.01     0.00   0.02   0.03
  15   1     0.00   0.01   0.01    -0.00   0.00   0.00    -0.00   0.00   0.00
  16   1    -0.00  -0.01   0.01     0.00  -0.00   0.00    -0.00   0.00  -0.00
  17   1     0.39   0.17   0.55     0.03   0.02   0.05    -0.00  -0.00  -0.00
  18   1    -0.37  -0.17   0.51    -0.03  -0.02   0.05    -0.00  -0.00   0.00
  19   1    -0.00  -0.00  -0.04    -0.00  -0.00  -0.00     0.00   0.00  -0.00
                     49                     50                     51
                        a                      a                      a 
 Frequencies --  3038.8275              3039.4739              3073.0285
 Red. masses --     1.4274                 1.2754                 1.8027
 Frc consts  --     0.0000                 0.0000                 0.0000
 IR Inten    --     9.4306                39.9191                17.9887
 Raman Activ --     0.0000                 0.0000                 0.0000
 Depolar     --     0.0000                 0.0000                 0.0000
 Atom AN      X      Y      Z        X      Y      Z        X      Y      Z
   1   6     0.03  -0.01  -0.00    -0.15   0.04   0.00    -0.00   0.00   0.00
   2   6     0.00   0.00  -0.00    -0.00  -0.00  -0.00    -0.00  -0.00  -0.00
   3   6    -0.00   0.00  -0.00     0.00   0.00   0.00    -0.00   0.00   0.00
   4   6    -0.00   0.00  -0.00    -0.00  -0.00  -0.00    -0.00  -0.00  -0.00
   5   6     0.01  -0.00  -0.00     0.00  -0.00  -0.00    -0.00  -0.01  -0.00
   6   8    -0.00   0.00   0.00    -0.00   0.00  -0.00     0.00   0.00   0.00
   7   6     0.18   0.06  -0.01     0.03   0.01  -0.00    -0.07  -0.26  -0.00
   8   1     0.00   0.05   0.07    -0.02  -0.27  -0.39    -0.00  -0.00  -0.00
   9   1    -0.11  -0.08  -0.00     0.57   0.40   0.00     0.00   0.00   0.00
  10   1     0.00   0.05  -0.07    -0.02  -0.28   0.39    -0.00  -0.00   0.00
  11   1     0.00  -0.00   0.00    -0.00   0.01  -0.01     0.00   0.00  -0.00
  12   1     0.00  -0.00  -0.00    -0.00   0.01   0.01     0.00   0.00   0.00
  13   1    -0.00  -0.00   0.00    -0.00  -0.01   0.01    -0.00  -0.00   0.00
  14   1    -0.00  -0.00  -0.00    -0.00  -0.01  -0.01    -0.00  -0.00  -0.00
  15   1    -0.00  -0.00  -0.00     0.00   0.00   0.00     0.00   0.01   0.01
  16   1    -0.00  -0.00   0.00     0.00   0.00  -0.00     0.00   0.01  -0.01
  17   1    -0.33  -0.15  -0.54    -0.06  -0.03  -0.10     0.03  -0.01   0.06
  18   1    -0.37  -0.17   0.57    -0.07  -0.03   0.11     0.03  -0.01  -0.06
  19   1     0.04   0.11   0.00     0.01   0.02  -0.00     0.21   0.94   0.01
