19
 xtb: 6.7.1 (edcfbbe)
C            3.43691924076901       -0.29630544228175       -0.00084051534111
C            2.19286040739857        0.58673145561182        0.00661430915855
C            0.90224578784263       -0.23079146602334       -0.00382955216994
C           -0.33799649773027        0.64795968917792       -0.00043441732934
C           -1.64673235258987       -0.08666165555890       -0.00135769850351
O           -1.70918986067771       -1.31341830991096       -0.00035469292323
C           -2.90180802818201        0.74190192160391       -0.00334724442270
H            3.46151851726618       -0.93112345216290       -0.89367493690787
H            4.35344571056700        0.30222466058621        0.00991960013620
H            3.45570748263814       -0.95401900909158        0.87542680611266
H            2.20662474270285        1.25328737292694       -0.86552257501025
H            2.20375493852277        1.23424804773824        0.89302529023453
H            0.88216907081842       -0.89433489522461        0.86973708113084
H            0.88704012945285       -0.88029932587864       -0.88804111211617
H           -0.35432484728124        1.31963774662260        0.87151863387097
H           -0.35527002872400        1.32558585675416       -0.86762703377628
H           -3.49265746031877        0.48590229412893       -0.88923083554884
H           -3.50217909909762        0.47795352067722        0.87363338681205
H           -2.69960520006347        1.81418659451569        0.00198046852207
