      -----------------------------------------------------------      
     |                   =====================                   |     
     |                           x T B                           |     
     |                   =====================                   |     
     |                         S. Grimme                         |     
     |          Mulliken Center for Theoretical Chemistry        |     
     |                    University of Bonn                     |     
      -----------------------------------------------------------      

   * xtb version 6.7.1 (edcfbbe) compiled by 'albert@albert-system' on 2024-07-22

   xtb is free software: you can redistribute it and/or modify it under
   the terms of the GNU Lesser General Public License as published by
   the Free Software Foundation, either version 3 of the License, or
   (at your option) any later version.
   
   xtb is distributed in the hope that it will be useful,
   but WITHOUT ANY WARRANTY; without even the implied warranty of
   MERCHANTABILITY or FITNESS FOR A PARTICULAR PURPOSE.  See the
   GNU Lesser General Public License for more details.
   
   Cite this work as:
   * C. Bannwarth, E. Caldeweyher, S. Ehlert, A. Hansen, P. Pracht,
     J. Seibert, S. Spicher, S. Grimme, WIREs Comput. Mol. Sci., 2020, 11,
     e01493. DOI: 10.1002/wcms.1493
   
   for GFN2-xTB:
   * C. Bannwarth, S. Ehlert and S. Grimme., J. Chem. Theory Comput., 2019,
     15, 1652-1671. DOI: 10.1021/acs.jctc.8b01176
   for GFN1-xTB:
   * S. Grimme, C. Bannwarth, P. Shushkov, J. Chem. Theory Comput., 2017,
     13, 1989-2009. DOI: 10.1021/acs.jctc.7b00118
   for GFN0-xTB:
   * P. Pracht, E. Caldeweyher, S. Ehlert, S. Grimme, ChemRxiv, 2019, preprint.
     DOI: 10.26434/chemrxiv.8326202.v1
   for GFN-FF:
   * S. Spicher and S. Grimme, Angew. Chem. Int. Ed., 2020, 59, 15665-15673.
     DOI: 10.1002/anie.202004239
   
   for ALPB and GBSA implicit solvation:
   * S. Ehlert, M. Stahn, S. Spicher, S. Grimme, J. Chem. Theory Comput.,
     2021, 17, 4250-4261. DOI: 10.1021/acs.jctc.1c00471
   
   for ddCOSMO and CPCM-X implicit solvation:
   * M. Stahn, S. Ehlert, S. Grimme, J. Phys. Chem. A,
     2023, XX, XXXX-XXXX. DOI: 10.1021/acs.jpca.3c04382
   
   for DFT-D4:
   * E. Caldeweyher, C. Bannwarth and S. Grimme, J. Chem. Phys., 2017,
     147, 034112. DOI: 10.1063/1.4993215
   * E. Caldeweyher, S. Ehlert, A. Hansen, H. Neugebauer, S. Spicher,
     C. Bannwarth and S. Grimme, J. Chem. Phys., 2019, 150, 154122.
     DOI: 10.1063/1.5090222
   * E. Caldeweyher, J.-M. Mewes, S. Ehlert and S. Grimme, Phys. Chem. Chem. Phys.
     2020, 22, 8499-8512. DOI: 10.1039/D0CP00502A
   
   for sTDA-xTB:
   * S. Grimme and C. Bannwarth, J. Chem. Phys., 2016, 145, 054103.
     DOI: 10.1063/1.4959605
   
   in the mass-spec context:
   * V. Asgeirsson, C. Bauer and S. Grimme, Chem. Sci., 2017, 8, 4879.
     DOI: 10.1039/c7sc00601b
   * J. Koopman and S. Grimme, ACS Omega 2019, 4, 12, 15120-15133.
     DOI: 10.1021/acsomega.9b02011
   
   for metadynamics refer to:
   * S. Grimme, J. Chem. Theory Comput., 2019, 155, 2847-2862
     DOI: 10.1021/acs.jctc.9b00143
   
   for SPH calculations refer to:
   * S. Spicher and S. Grimme, J. Chem. Theory Comput., 2021, 17, 1701-1714
     DOI: 10.1021/acs.jctc.0c01306
   
   for ONIOM refer to:
   * C. Plett, A. Katbashev, S. Ehlert, S. Grimme, M. Bursch,
     Phys. Chem. Chem. Phys., 2023, 25, 17860-17868. DOI: 10.1039/D3CP02178E
   
   for DIPRO refer to:
   * J. Kohn, N. Gildemeister, S. Grimme, D. Fazzi, A. Hansen,
     J. Chem. Phys., 2023, just accepted.
   
   for PTB refer to:
   * S. Grimme, M. Mueller, A. Hansen, J. Chem. Phys., 2023, 158, 124111.
     DOI: 10.1063/5.0137838
   
   with help from (in alphabetical order)
   P. Atkinson, C. Bannwarth, F. Bohle, G. Brandenburg, E. Caldeweyher
   M. Checinski, S. Dohm, S. Ehlert, S. Ehrlich, I. Gerasimov, C. Hölzer
   A. Katbashev, J. Kohn, J. Koopman, C. Lavigne, S. Lehtola, F. März, M. Müller,
   F. Musil, H. Neugebauer, J. Pisarek, C. Plett, P. Pracht, F. Pultar,
   J. Seibert, P. Shushkov, S. Spicher, M. Stahn, M. Steiner, T. Strunk,
   J. Stückrath, T. Rose, and J. Unsleber
   
 * started run on 2025/04/11 at 16:11:56.796     
   ID    Z sym.   atoms
    1    6 C      1-5
    2    8 O      6, 7
    3    1 H      8-17

           -------------------------------------------------
          |                Calculation Setup                |
           -------------------------------------------------

          program call               : /srv/scratch/z5358697/.xtb/bin/xtb gas.coord --gfn2 --sp --chrg 0 --norestart --parallel 1
          hostname                   : k018
          coordinate file            : gas.coord
          omp threads                :                     1


           -------------------------------------------------
          |                 G F N 2 - x T B                 |
           -------------------------------------------------

        Reference                      10.1021/acs.jctc.8b01176
      * Hamiltonian:
        H0-scaling (s, p, d)           1.850000    2.230000    2.230000
        zeta-weighting                 0.500000
      * Dispersion:
        s8                             2.700000
        a1                             0.520000
        a2                             5.000000
        s9                             5.000000
      * Repulsion:
        kExp                           1.500000    1.000000
        rExp                           1.000000
      * Coulomb:
        alpha                          2.000000
        third order                    shell-resolved
        anisotropic                    true
        a3                             3.000000
        a5                             4.000000
        cn-shift                       1.200000
        cn-exp                         4.000000
        max-rad                        5.000000


          ...................................................
          :                      SETUP                      :
          :.................................................:
          :  # basis functions                  38          :
          :  # atomic orbitals                  38          :
          :  # shells                           24          :
          :  # electrons                        42          :
          :  max. iterations                   250          :
          :  Hamiltonian                  GFN2-xTB          :
          :  restarted?                      false          :
          :  GBSA solvation                  false          :
          :  PC potential                    false          :
          :  electronic temp.          300.0000000     K    :
          :  accuracy                    1.0000000          :
          :  -> integral cutoff          0.2500000E+02      :
          :  -> integral neglect         0.1000000E-07      :
          :  -> SCF convergence          0.1000000E-05 Eh   :
          :  -> wf. convergence          0.1000000E-03 e    :
          :  Broyden damping             0.4000000          :
          :  net charge                          0          :
          :  unpaired electrons                  0          :
          ...................................................

 iter      E             dE          RMSdq      gap      omega  full diag
   1    -24.1537985 -0.241538E+02  0.365E+00    5.90       0.0  T
   2    -24.2076528 -0.538543E-01  0.186E+00    4.68       1.0  T
   3    -24.2113978 -0.374492E-02  0.110E+00    5.13       1.0  T
   4    -24.2136417 -0.224396E-02  0.172E-01    4.83       1.0  T
   5    -24.2138268 -0.185079E-03  0.753E-02    4.89       1.0  T
   6    -24.2138303 -0.355860E-05  0.125E-02    4.89       1.9  T
   7    -24.2138307 -0.398346E-06  0.578E-03    4.89       4.2  T
   8    -24.2138308 -0.415316E-07  0.193E-03    4.89      12.6  T
   9    -24.2138308 -0.743015E-08  0.669E-04    4.89      36.3  T
  10    -24.2138308 -0.883176E-09  0.203E-04    4.89     119.6  T

   *** convergence criteria satisfied after 10 iterations ***

         #    Occupation            Energy/Eh            Energy/eV
      -------------------------------------------------------------
         1        2.0000           -0.7477202             -20.3465
       ...           ...                  ...                  ...
        15        2.0000           -0.4822971             -13.1240
        16        2.0000           -0.4714851             -12.8298
        17        2.0000           -0.4713869             -12.8271
        18        2.0000           -0.4397791             -11.9670
        19        2.0000           -0.4397478             -11.9661
        20        2.0000           -0.4318952             -11.7525
        21        2.0000           -0.4137911             -11.2598 (HOMO)
        22                         -0.2339659              -6.3665 (LUMO)
        23                          0.0414680               1.1284
        24                          0.0773847               2.1057
        25                          0.0896326               2.4390
        26                          0.1115908               3.0365
       ...                                ...                  ...
        38                          0.6129370              16.6789
      -------------------------------------------------------------
                  HL-Gap            0.1798252 Eh            4.8933 eV
             Fermi-level           -0.3238785 Eh           -8.8132 eV

 SCC (total)                   0 d,  0 h,  0 min,  0.013 sec
 SCC setup                      ...        0 min,  0.000 sec (  1.415%)
 Dispersion                     ...        0 min,  0.000 sec (  0.572%)
 classical contributions        ...        0 min,  0.000 sec (  0.134%)
 integral evaluation            ...        0 min,  0.001 sec (  9.350%)
 iterations                     ...        0 min,  0.008 sec ( 58.736%)
 molecular gradient             ...        0 min,  0.004 sec ( 28.410%)
 printout                       ...        0 min,  0.000 sec (  1.264%)

         :::::::::::::::::::::::::::::::::::::::::::::::::::::
         ::                     SUMMARY                     ::
         :::::::::::::::::::::::::::::::::::::::::::::::::::::
         :: total energy             -23.941393620836 Eh    ::
         :: gradient norm              0.035143896647 Eh/a0 ::
         :: HOMO-LUMO gap              4.893292011365 eV    ::
         ::.................................................::
         :: SCC energy               -24.213796617343 Eh    ::
         :: -> isotropic ES            0.050750295096 Eh    ::
         :: -> anisotropic ES          0.005544145287 Eh    ::
         :: -> anisotropic XC          0.005619269366 Eh    ::
         :: -> dispersion             -0.009933550947 Eh    ::
         :: repulsion energy           0.272402996507 Eh    ::
         :: add. restraining           0.000000000000 Eh    ::
         :: total charge              -0.000000000000 e     ::
         :::::::::::::::::::::::::::::::::::::::::::::::::::::

           -------------------------------------------------
          |                Property Printout                |
           -------------------------------------------------

    * Orbital Energies and Occupations

         #    Occupation            Energy/Eh            Energy/eV
      -------------------------------------------------------------
         1        2.0000           -0.7477202             -20.3465
       ...           ...                  ...                  ...
         9        2.0000           -0.5583869             -15.1945
        10        2.0000           -0.5512989             -15.0016
        11        2.0000           -0.5220660             -14.2061
        12        2.0000           -0.5174821             -14.0814
        13        2.0000           -0.5021337             -13.6638
        14        2.0000           -0.4864407             -13.2367
        15        2.0000           -0.4822971             -13.1240
        16        2.0000           -0.4714851             -12.8298
        17        2.0000           -0.4713869             -12.8271
        18        2.0000           -0.4397791             -11.9670
        19        2.0000           -0.4397478             -11.9661
        20        2.0000           -0.4318952             -11.7525
        21        2.0000           -0.4137911             -11.2598 (HOMO)
        22                         -0.2339659              -6.3665 (LUMO)
        23                          0.0414680               1.1284
        24                          0.0773847               2.1057
        25                          0.0896326               2.4390
        26                          0.1115908               3.0365
        27                          0.1252788               3.4090
        28                          0.1311019               3.5675
        29                          0.1415346               3.8514
        30                          0.1608888               4.3780
        31                          0.1882052               5.1213
        32                          0.2127493               5.7892
       ...                                ...                  ...
        38                          0.6129370              16.6789
      -------------------------------------------------------------
                  HL-Gap            0.1798252 Eh            4.8933 eV
             Fermi-level           -0.3238785 Eh           -8.8132 eV

     #   Z          covCN         q      C6AA      α(0)
     1   6 C        3.751    -0.103    22.524     6.768
     2   6 C        3.800    -0.058    21.619     6.620
     3   6 C        3.802    -0.057    21.599     6.617
     4   6 C        3.802    -0.098    22.361     6.732
     5   6 C        2.688     0.357    20.939     7.489
     6   8 O        0.856    -0.375    21.195     6.172
     7   8 O        1.659    -0.369    20.252     6.075
     8   1 H        0.925     0.034     2.527     2.486
     9   1 H        0.925     0.036     2.497     2.471
    10   1 H        0.925     0.029     2.607     2.525
    11   1 H        0.924     0.037     2.490     2.468
    12   1 H        0.924     0.047     2.361     2.403
    13   1 H        0.924     0.054     2.276     2.359
    14   1 H        0.924     0.038     2.474     2.460
    15   1 H        0.924     0.055     2.262     2.352
    16   1 H        0.924     0.057     2.232     2.336
    17   1 H        0.804     0.316     0.675     1.291

 Mol. C6AA /au·bohr⁶  :       2220.806166
 Mol. C8AA /au·bohr⁸  :      47257.770615
 Mol. α(0) /au        :         69.624246


Wiberg/Mayer (AO) data.
largest (>0.10) Wiberg bond orders for each atom

 ---------------------------------------------------------------------------
     #   Z sym  total        # sym  WBO       # sym  WBO       # sym  WBO
 ---------------------------------------------------------------------------
     1   6 C    3.997 --     2 C    1.020     8 H    0.987     9 H    0.987
                            10 H    0.986
     2   6 C    3.996 --     1 C    1.020     3 C    1.008    11 H    0.978
                            12 H    0.976
     3   6 C    3.994 --     2 C    1.008     4 C    1.006    14 H    0.977
                            13 H    0.975
     4   6 C    3.996 --     3 C    1.006     5 C    0.977    15 H    0.957
                            16 H    0.950
     5   6 C    3.914 --     6 O    1.783     7 O    1.121     4 C    0.977
     6   8 O    2.059 --     5 C    1.783     7 O    0.160
     7   8 O    2.204 --     5 C    1.121    17 H    0.876     6 O    0.160
     8   1 H    0.999 --     1 C    0.987
     9   1 H    0.999 --     1 C    0.987
    10   1 H    0.999 --     1 C    0.986
    11   1 H    0.999 --     2 C    0.978
    12   1 H    0.998 --     2 C    0.976
    13   1 H    0.997 --     3 C    0.975
    14   1 H    0.999 --     3 C    0.977
    15   1 H    0.997 --     4 C    0.957
    16   1 H    0.997 --     4 C    0.950
    17   1 H    0.900 --     7 O    0.876
 ---------------------------------------------------------------------------

Topologies differ in total number of bonds
Writing topology from bond orders to xtbtopo.mol

molecular dipole:
                 x           y           z       tot (Debye)
 q only:       -0.500       1.345       0.464
   full:       -0.541       1.741       0.621       4.896
molecular quadrupole (traceless):
                xx          xy          yy          xz          yz          zz
 q only:       -1.703       6.253       0.244       2.650       0.546       1.459
  q+dip:       -2.815       7.533       0.959       2.649       0.272       1.856
   full:       -2.715       8.038       0.608       2.351       0.145       2.107


           -------------------------------------------------
          | TOTAL ENERGY              -23.941393620836 Eh   |
          | GRADIENT NORM               0.035143896647 Eh/α |
          | HOMO-LUMO GAP               4.893292011365 eV   |
           -------------------------------------------------

------------------------------------------------------------------------
 * finished run on 2025/04/11 at 16:11:56.841     
------------------------------------------------------------------------
 total:
 * wall-time:     0 d,  0 h,  0 min,  0.045 sec
 *  cpu-time:     0 d,  0 h,  0 min,  0.018 sec
 * ratio c/w:     0.397 speedup
 SCF:
 * wall-time:     0 d,  0 h,  0 min,  0.013 sec
 *  cpu-time:     0 d,  0 h,  0 min,  0.011 sec
 * ratio c/w:     0.820 speedup

