      -----------------------------------------------------------      
     |                   =====================                   |     
     |                           x T B                           |     
     |                   =====================                   |     
     |                         S. Grimme                         |     
     |          Mulliken Center for Theoretical Chemistry        |     
     |                    University of Bonn                     |     
      -----------------------------------------------------------      

   * xtb version 6.7.1 (edcfbbe) compiled by 'albert@albert-system' on 2024-07-22

   xtb is free software: you can redistribute it and/or modify it under
   the terms of the GNU Lesser General Public License as published by
   the Free Software Foundation, either version 3 of the License, or
   (at your option) any later version.
   
   xtb is distributed in the hope that it will be useful,
   but WITHOUT ANY WARRANTY; without even the implied warranty of
   MERCHANTABILITY or FITNESS FOR A PARTICULAR PURPOSE.  See the
   GNU Lesser General Public License for more details.
   
   Cite this work as:
   * C. Bannwarth, E. Caldeweyher, S. Ehlert, A. Hansen, P. Pracht,
     J. Seibert, S. Spicher, S. Grimme, WIREs Comput. Mol. Sci., 2020, 11,
     e01493. DOI: 10.1002/wcms.1493
   
   for GFN2-xTB:
   * C. Bannwarth, S. Ehlert and S. Grimme., J. Chem. Theory Comput., 2019,
     15, 1652-1671. DOI: 10.1021/acs.jctc.8b01176
   for GFN1-xTB:
   * S. Grimme, C. Bannwarth, P. Shushkov, J. Chem. Theory Comput., 2017,
     13, 1989-2009. DOI: 10.1021/acs.jctc.7b00118
   for GFN0-xTB:
   * P. Pracht, E. Caldeweyher, S. Ehlert, S. Grimme, ChemRxiv, 2019, preprint.
     DOI: 10.26434/chemrxiv.8326202.v1
   for GFN-FF:
   * S. Spicher and S. Grimme, Angew. Chem. Int. Ed., 2020, 59, 15665-15673.
     DOI: 10.1002/anie.202004239
   
   for ALPB and GBSA implicit solvation:
   * S. Ehlert, M. Stahn, S. Spicher, S. Grimme, J. Chem. Theory Comput.,
     2021, 17, 4250-4261. DOI: 10.1021/acs.jctc.1c00471
   
   for ddCOSMO and CPCM-X implicit solvation:
   * M. Stahn, S. Ehlert, S. Grimme, J. Phys. Chem. A,
     2023, XX, XXXX-XXXX. DOI: 10.1021/acs.jpca.3c04382
   
   for DFT-D4:
   * E. Caldeweyher, C. Bannwarth and S. Grimme, J. Chem. Phys., 2017,
     147, 034112. DOI: 10.1063/1.4993215
   * E. Caldeweyher, S. Ehlert, A. Hansen, H. Neugebauer, S. Spicher,
     C. Bannwarth and S. Grimme, J. Chem. Phys., 2019, 150, 154122.
     DOI: 10.1063/1.5090222
   * E. Caldeweyher, J.-M. Mewes, S. Ehlert and S. Grimme, Phys. Chem. Chem. Phys.
     2020, 22, 8499-8512. DOI: 10.1039/D0CP00502A
   
   for sTDA-xTB:
   * S. Grimme and C. Bannwarth, J. Chem. Phys., 2016, 145, 054103.
     DOI: 10.1063/1.4959605
   
   in the mass-spec context:
   * V. Asgeirsson, C. Bauer and S. Grimme, Chem. Sci., 2017, 8, 4879.
     DOI: 10.1039/c7sc00601b
   * J. Koopman and S. Grimme, ACS Omega 2019, 4, 12, 15120-15133.
     DOI: 10.1021/acsomega.9b02011
   
   for metadynamics refer to:
   * S. Grimme, J. Chem. Theory Comput., 2019, 155, 2847-2862
     DOI: 10.1021/acs.jctc.9b00143
   
   for SPH calculations refer to:
   * S. Spicher and S. Grimme, J. Chem. Theory Comput., 2021, 17, 1701-1714
     DOI: 10.1021/acs.jctc.0c01306
   
   for ONIOM refer to:
   * C. Plett, A. Katbashev, S. Ehlert, S. Grimme, M. Bursch,
     Phys. Chem. Chem. Phys., 2023, 25, 17860-17868. DOI: 10.1039/D3CP02178E
   
   for DIPRO refer to:
   * J. Kohn, N. Gildemeister, S. Grimme, D. Fazzi, A. Hansen,
     J. Chem. Phys., 2023, just accepted.
   
   for PTB refer to:
   * S. Grimme, M. Mueller, A. Hansen, J. Chem. Phys., 2023, 158, 124111.
     DOI: 10.1063/5.0137838
   
   with help from (in alphabetical order)
   P. Atkinson, C. Bannwarth, F. Bohle, G. Brandenburg, E. Caldeweyher
   M. Checinski, S. Dohm, S. Ehlert, S. Ehrlich, I. Gerasimov, C. Hölzer
   A. Katbashev, J. Kohn, J. Koopman, C. Lavigne, S. Lehtola, F. März, M. Müller,
   F. Musil, H. Neugebauer, J. Pisarek, C. Plett, P. Pracht, F. Pultar,
   J. Seibert, P. Shushkov, S. Spicher, M. Stahn, M. Steiner, T. Strunk,
   J. Stückrath, T. Rose, and J. Unsleber
   
 * started run on 2025/04/11 at 16:15:24.735     
   ID    Z sym.   atoms
    1    6 C      1-4, 7, 10, 12
    2    7 N      5, 9
    3    8 O      6, 8
    4   16 S      11
    5    1 H      13-26

           -------------------------------------------------
          |                Calculation Setup                |
           -------------------------------------------------

          program call               : /srv/scratch/z5358697/.xtb/bin/xtb gas.coord --gfn2 --sp --chrg 0 --norestart --parallel 1
          hostname                   : k073
          coordinate file            : gas.coord
          omp threads                :                     1


           -------------------------------------------------
          |                 G F N 2 - x T B                 |
           -------------------------------------------------

        Reference                      10.1021/acs.jctc.8b01176
      * Hamiltonian:
        H0-scaling (s, p, d)           1.850000    2.230000    2.230000
        zeta-weighting                 0.500000
      * Dispersion:
        s8                             2.700000
        a1                             0.520000
        a2                             5.000000
        s9                             5.000000
      * Repulsion:
        kExp                           1.500000    1.000000
        rExp                           1.000000
      * Coulomb:
        alpha                          2.000000
        third order                    shell-resolved
        anisotropic                    true
        a3                             3.000000
        a5                             4.000000
        cn-shift                       1.200000
        cn-exp                         4.000000
        max-rad                        5.000000


          ...................................................
          :                      SETUP                      :
          :.................................................:
          :  # basis functions                  68          :
          :  # atomic orbitals                  67          :
          :  # shells                           39          :
          :  # electrons                        70          :
          :  max. iterations                   250          :
          :  Hamiltonian                  GFN2-xTB          :
          :  restarted?                      false          :
          :  GBSA solvation                  false          :
          :  PC potential                    false          :
          :  electronic temp.          300.0000000     K    :
          :  accuracy                    1.0000000          :
          :  -> integral cutoff          0.2500000E+02      :
          :  -> integral neglect         0.1000000E-07      :
          :  -> SCF convergence          0.1000000E-05 Eh   :
          :  -> wf. convergence          0.1000000E-03 e    :
          :  Broyden damping             0.4000000          :
          :  net charge                          0          :
          :  unpaired electrons                  0          :
          ...................................................

 iter      E             dE          RMSdq      gap      omega  full diag
   1    -39.6487712 -0.396488E+02  0.455E+00    3.75       0.0  T
   2    -39.7412151 -0.924438E-01  0.252E+00    3.19       1.0  T
   3    -39.7430179 -0.180288E-02  0.105E+00    2.57       1.0  T
   4    -39.7446318 -0.161384E-02  0.530E-01    2.63       1.0  T
   5    -39.7476965 -0.306469E-02  0.179E-01    2.58       1.0  T
   6    -39.7477276 -0.311591E-04  0.752E-02    2.61       1.0  T
   7    -39.7477572 -0.295697E-04  0.296E-02    2.61       1.0  T
   8    -39.7477613 -0.413870E-05  0.146E-02    2.61       1.3  T
   9    -39.7477616 -0.265227E-06  0.390E-03    2.61       5.0  T
  10    -39.7477617 -0.692728E-07  0.199E-03    2.61       9.9  T
  11    -39.7477617 -0.100253E-07  0.791E-04    2.61      24.8  T
  12    -39.7477617 -0.115258E-08  0.260E-04    2.61      75.4  T

   *** convergence criteria satisfied after 12 iterations ***

         #    Occupation            Energy/Eh            Energy/eV
      -------------------------------------------------------------
         1        2.0000           -0.7426487             -20.2085
       ...           ...                  ...                  ...
        29        2.0000           -0.4588387             -12.4856
        30        2.0000           -0.4430869             -12.0570
        31        2.0000           -0.4263875             -11.6026
        32        2.0000           -0.4171694             -11.3518
        33        2.0000           -0.4080539             -11.1037
        34        2.0000           -0.3976476             -10.8205
        35        2.0000           -0.3569907              -9.7142 (HOMO)
        36                         -0.2610537              -7.1036 (LUMO)
        37                         -0.1968282              -5.3560
        38                         -0.1856399              -5.0515
        39                         -0.1467447              -3.9931
        40                         -0.0849808              -2.3124
       ...                                ...                  ...
        67                          0.6716798              18.2773
      -------------------------------------------------------------
                  HL-Gap            0.0959370 Eh            2.6106 eV
             Fermi-level           -0.3090222 Eh           -8.4089 eV

 SCC (total)                   0 d,  0 h,  0 min,  0.034 sec
 SCC setup                      ...        0 min,  0.000 sec (  0.665%)
 Dispersion                     ...        0 min,  0.000 sec (  0.506%)
 classical contributions        ...        0 min,  0.000 sec (  0.100%)
 integral evaluation            ...        0 min,  0.009 sec ( 27.624%)
 iterations                     ...        0 min,  0.014 sec ( 40.750%)
 molecular gradient             ...        0 min,  0.010 sec ( 29.718%)
 printout                       ...        0 min,  0.000 sec (  0.588%)

         :::::::::::::::::::::::::::::::::::::::::::::::::::::
         ::                     SUMMARY                     ::
         :::::::::::::::::::::::::::::::::::::::::::::::::::::
         :: total energy             -39.314986085709 Eh    ::
         :: gradient norm              0.040659625007 Eh/a0 ::
         :: HOMO-LUMO gap              2.610579911177 eV    ::
         ::.................................................::
         :: SCC energy               -39.747600696709 Eh    ::
         :: -> isotropic ES            0.060982531911 Eh    ::
         :: -> anisotropic ES          0.002487845888 Eh    ::
         :: -> anisotropic XC          0.023689138528 Eh    ::
         :: -> dispersion             -0.022064490583 Eh    ::
         :: repulsion energy           0.432614611000 Eh    ::
         :: add. restraining           0.000000000000 Eh    ::
         :: total charge               0.000000000000 e     ::
         :::::::::::::::::::::::::::::::::::::::::::::::::::::

           -------------------------------------------------
          |                Property Printout                |
           -------------------------------------------------

    * Orbital Energies and Occupations

         #    Occupation            Energy/Eh            Energy/eV
      -------------------------------------------------------------
         1        2.0000           -0.7426487             -20.2085
       ...           ...                  ...                  ...
        23        2.0000           -0.4951389             -13.4734
        24        2.0000           -0.4908483             -13.3567
        25        2.0000           -0.4806548             -13.0793
        26        2.0000           -0.4786333             -13.0243
        27        2.0000           -0.4744795             -12.9112
        28        2.0000           -0.4664683             -12.6932
        29        2.0000           -0.4588387             -12.4856
        30        2.0000           -0.4430869             -12.0570
        31        2.0000           -0.4263875             -11.6026
        32        2.0000           -0.4171694             -11.3518
        33        2.0000           -0.4080539             -11.1037
        34        2.0000           -0.3976476             -10.8205
        35        2.0000           -0.3569907              -9.7142 (HOMO)
        36                         -0.2610537              -7.1036 (LUMO)
        37                         -0.1968282              -5.3560
        38                         -0.1856399              -5.0515
        39                         -0.1467447              -3.9931
        40                         -0.0849808              -2.3124
        41                         -0.0068449              -0.1863
        42                         -0.0040624              -0.1105
        43                          0.0157474               0.4285
        44                          0.0188152               0.5120
        45                          0.0751952               2.0462
        46                          0.0975894               2.6555
       ...                                ...                  ...
        67                          0.6716798              18.2773
      -------------------------------------------------------------
                  HL-Gap            0.0959370 Eh            2.6106 eV
             Fermi-level           -0.3090222 Eh           -8.4089 eV

     #   Z          covCN         q      C6AA      α(0)
     1   6 C        3.810    -0.102    22.440     6.743
     2   6 C        3.892     0.068    19.399     6.261
     3   6 C        3.789    -0.109    22.592     6.769
     4   6 C        2.868     0.055    26.767     8.481
     5   7 N        1.838    -0.075    23.432     7.174
     6   8 O        1.776    -0.234    17.862     5.707
     7   6 C        2.643     0.401    20.241     7.360
     8   8 O        0.857    -0.437    22.443     6.352
     9   7 N        2.686    -0.178    24.861     7.405
    10   6 C        3.691    -0.047    21.602     6.651
    11  16 S        2.057    -0.204   149.733    20.595
    12   6 C        3.745    -0.046    21.471     6.610
    13   1 H        0.925     0.059     2.211     2.325
    14   1 H        0.925     0.054     2.266     2.354
    15   1 H        0.925     0.044     2.396     2.420
    16   1 H        0.925     0.040     2.454     2.450
    17   1 H        0.925     0.054     2.272     2.357
    18   1 H        0.925     0.042     2.422     2.434
    19   1 H        0.925     0.065     2.140     2.288
    20   1 H        0.860     0.187     1.176     1.699
    21   1 H        0.925     0.058     2.217     2.328
    22   1 H        0.925     0.090     1.874     2.141
    23   1 H        0.925     0.059     2.212     2.326
    24   1 H        0.925     0.051     2.307     2.375
    25   1 H        0.925     0.060     2.203     2.321
    26   1 H        0.925     0.046     2.376     2.410

 Mol. C6AA /au·bohr⁶  :       7096.005251
 Mol. C8AA /au·bohr⁸  :     175645.115141
 Mol. α(0) /au        :        128.336445


Wiberg/Mayer (AO) data.
largest (>0.10) Wiberg bond orders for each atom

 ---------------------------------------------------------------------------
     #   Z sym  total        # sym  WBO       # sym  WBO       # sym  WBO
 ---------------------------------------------------------------------------
     1   6 C    3.991 --    13 H    0.982     2 C    0.982    14 H    0.981
                            15 H    0.981
     2   6 C    3.977 --     4 C    1.006     3 C    1.006     1 C    0.982
                            11 S    0.919
     3   6 C    3.994 --     2 C    1.006    17 H    0.985    16 H    0.983
                            18 H    0.979
     4   6 C    3.970 --     5 N    1.868     2 C    1.006    19 H    0.946
     5   7 N    3.004 --     4 C    1.868     6 O    0.990
     6   8 O    2.277 --     7 C    0.998     5 N    0.990     8 O    0.118
     7   6 C    3.940 --     8 O    1.661     9 N    1.236     6 O    0.998
     8   8 O    2.001 --     7 C    1.661     9 N    0.181     6 O    0.118
     9   7 N    3.424 --     7 C    1.236    10 C    1.000    20 H    0.937
                             8 O    0.181
    10   6 C    3.956 --     9 N    1.000    23 H    0.978    21 H    0.978
                            22 H    0.976
    11  16 S    2.093 --    12 C    1.014     2 C    0.919
    12   6 C    3.981 --    11 S    1.014    24 H    0.984    26 H    0.983
                            25 H    0.979
    13   1 H    0.997 --     1 C    0.982
    14   1 H    0.997 --     1 C    0.981
    15   1 H    0.998 --     1 C    0.981
    16   1 H    0.998 --     3 C    0.983
    17   1 H    0.997 --     3 C    0.985
    18   1 H    0.998 --     3 C    0.979
    19   1 H    0.994 --     4 C    0.946
    20   1 H    0.965 --     9 N    0.937
    21   1 H    0.996 --    10 C    0.978
    22   1 H    0.992 --    10 C    0.976
    23   1 H    0.996 --    10 C    0.978
    24   1 H    0.997 --    12 C    0.984
    25   1 H    0.996 --    12 C    0.979
    26   1 H    0.998 --    12 C    0.983
 ---------------------------------------------------------------------------

Topologies differ in total number of bonds
Writing topology from bond orders to xtbtopo.mol

molecular dipole:
                 x           y           z       tot (Debye)
 q only:        0.388       0.378      -0.954
   full:        0.780       0.345      -0.968       3.280
molecular quadrupole (traceless):
                xx          xy          yy          xz          yz          zz
 q only:        7.177     -10.710      -2.841      11.695       2.749      -4.336
  q+dip:        6.601     -11.819      -1.897      15.501       4.702      -4.704
   full:        5.656     -12.304      -1.184      16.092       5.788      -4.472


           -------------------------------------------------
          | TOTAL ENERGY              -39.314986085709 Eh   |
          | GRADIENT NORM               0.040659625007 Eh/α |
          | HOMO-LUMO GAP               2.610579911177 eV   |
           -------------------------------------------------

------------------------------------------------------------------------
 * finished run on 2025/04/11 at 16:15:24.801     
------------------------------------------------------------------------
 total:
 * wall-time:     0 d,  0 h,  0 min,  0.065 sec
 *  cpu-time:     0 d,  0 h,  0 min,  0.039 sec
 * ratio c/w:     0.601 speedup
 SCF:
 * wall-time:     0 d,  0 h,  0 min,  0.034 sec
 *  cpu-time:     0 d,  0 h,  0 min,  0.029 sec
 * ratio c/w:     0.842 speedup

