      -----------------------------------------------------------      
     |                   =====================                   |     
     |                           x T B                           |     
     |                   =====================                   |     
     |                         S. Grimme                         |     
     |          Mulliken Center for Theoretical Chemistry        |     
     |                    University of Bonn                     |     
      -----------------------------------------------------------      

   * xtb version 6.7.1 (edcfbbe) compiled by 'albert@albert-system' on 2024-07-22

   xtb is free software: you can redistribute it and/or modify it under
   the terms of the GNU Lesser General Public License as published by
   the Free Software Foundation, either version 3 of the License, or
   (at your option) any later version.
   
   xtb is distributed in the hope that it will be useful,
   but WITHOUT ANY WARRANTY; without even the implied warranty of
   MERCHANTABILITY or FITNESS FOR A PARTICULAR PURPOSE.  See the
   GNU Lesser General Public License for more details.
   
   Cite this work as:
   * C. Bannwarth, E. Caldeweyher, S. Ehlert, A. Hansen, P. Pracht,
     J. Seibert, S. Spicher, S. Grimme, WIREs Comput. Mol. Sci., 2020, 11,
     e01493. DOI: 10.1002/wcms.1493
   
   for GFN2-xTB:
   * C. Bannwarth, S. Ehlert and S. Grimme., J. Chem. Theory Comput., 2019,
     15, 1652-1671. DOI: 10.1021/acs.jctc.8b01176
   for GFN1-xTB:
   * S. Grimme, C. Bannwarth, P. Shushkov, J. Chem. Theory Comput., 2017,
     13, 1989-2009. DOI: 10.1021/acs.jctc.7b00118
   for GFN0-xTB:
   * P. Pracht, E. Caldeweyher, S. Ehlert, S. Grimme, ChemRxiv, 2019, preprint.
     DOI: 10.26434/chemrxiv.8326202.v1
   for GFN-FF:
   * S. Spicher and S. Grimme, Angew. Chem. Int. Ed., 2020, 59, 15665-15673.
     DOI: 10.1002/anie.202004239
   
   for ALPB and GBSA implicit solvation:
   * S. Ehlert, M. Stahn, S. Spicher, S. Grimme, J. Chem. Theory Comput.,
     2021, 17, 4250-4261. DOI: 10.1021/acs.jctc.1c00471
   
   for ddCOSMO and CPCM-X implicit solvation:
   * M. Stahn, S. Ehlert, S. Grimme, J. Phys. Chem. A,
     2023, XX, XXXX-XXXX. DOI: 10.1021/acs.jpca.3c04382
   
   for DFT-D4:
   * E. Caldeweyher, C. Bannwarth and S. Grimme, J. Chem. Phys., 2017,
     147, 034112. DOI: 10.1063/1.4993215
   * E. Caldeweyher, S. Ehlert, A. Hansen, H. Neugebauer, S. Spicher,
     C. Bannwarth and S. Grimme, J. Chem. Phys., 2019, 150, 154122.
     DOI: 10.1063/1.5090222
   * E. Caldeweyher, J.-M. Mewes, S. Ehlert and S. Grimme, Phys. Chem. Chem. Phys.
     2020, 22, 8499-8512. DOI: 10.1039/D0CP00502A
   
   for sTDA-xTB:
   * S. Grimme and C. Bannwarth, J. Chem. Phys., 2016, 145, 054103.
     DOI: 10.1063/1.4959605
   
   in the mass-spec context:
   * V. Asgeirsson, C. Bauer and S. Grimme, Chem. Sci., 2017, 8, 4879.
     DOI: 10.1039/c7sc00601b
   * J. Koopman and S. Grimme, ACS Omega 2019, 4, 12, 15120-15133.
     DOI: 10.1021/acsomega.9b02011
   
   for metadynamics refer to:
   * S. Grimme, J. Chem. Theory Comput., 2019, 155, 2847-2862
     DOI: 10.1021/acs.jctc.9b00143
   
   for SPH calculations refer to:
   * S. Spicher and S. Grimme, J. Chem. Theory Comput., 2021, 17, 1701-1714
     DOI: 10.1021/acs.jctc.0c01306
   
   for ONIOM refer to:
   * C. Plett, A. Katbashev, S. Ehlert, S. Grimme, M. Bursch,
     Phys. Chem. Chem. Phys., 2023, 25, 17860-17868. DOI: 10.1039/D3CP02178E
   
   for DIPRO refer to:
   * J. Kohn, N. Gildemeister, S. Grimme, D. Fazzi, A. Hansen,
     J. Chem. Phys., 2023, just accepted.
   
   for PTB refer to:
   * S. Grimme, M. Mueller, A. Hansen, J. Chem. Phys., 2023, 158, 124111.
     DOI: 10.1063/5.0137838
   
   with help from (in alphabetical order)
   P. Atkinson, C. Bannwarth, F. Bohle, G. Brandenburg, E. Caldeweyher
   M. Checinski, S. Dohm, S. Ehlert, S. Ehrlich, I. Gerasimov, C. Hölzer
   A. Katbashev, J. Kohn, J. Koopman, C. Lavigne, S. Lehtola, F. März, M. Müller,
   F. Musil, H. Neugebauer, J. Pisarek, C. Plett, P. Pracht, F. Pultar,
   J. Seibert, P. Shushkov, S. Spicher, M. Stahn, M. Steiner, T. Strunk,
   J. Stückrath, T. Rose, and J. Unsleber
   
 * started run on 2025/04/11 at 16:12:36.834     
   ID    Z sym.   atoms
    1    6 C      1-7
    2    1 H      8-19

           -------------------------------------------------
          |                Calculation Setup                |
           -------------------------------------------------

          program call               : /srv/scratch/z5358697/.xtb/bin/xtb gas.coord --gfn2 --sp --chrg 0 --norestart --parallel 1
          hostname                   : k113
          coordinate file            : gas.coord
          omp threads                :                     1


           -------------------------------------------------
          |                 G F N 2 - x T B                 |
           -------------------------------------------------

        Reference                      10.1021/acs.jctc.8b01176
      * Hamiltonian:
        H0-scaling (s, p, d)           1.850000    2.230000    2.230000
        zeta-weighting                 0.500000
      * Dispersion:
        s8                             2.700000
        a1                             0.520000
        a2                             5.000000
        s9                             5.000000
      * Repulsion:
        kExp                           1.500000    1.000000
        rExp                           1.000000
      * Coulomb:
        alpha                          2.000000
        third order                    shell-resolved
        anisotropic                    true
        a3                             3.000000
        a5                             4.000000
        cn-shift                       1.200000
        cn-exp                         4.000000
        max-rad                        5.000000


          ...................................................
          :                      SETUP                      :
          :.................................................:
          :  # basis functions                  40          :
          :  # atomic orbitals                  40          :
          :  # shells                           26          :
          :  # electrons                        40          :
          :  max. iterations                   250          :
          :  Hamiltonian                  GFN2-xTB          :
          :  restarted?                      false          :
          :  GBSA solvation                  false          :
          :  PC potential                    false          :
          :  electronic temp.          300.0000000     K    :
          :  accuracy                    1.0000000          :
          :  -> integral cutoff          0.2500000E+02      :
          :  -> integral neglect         0.1000000E-07      :
          :  -> SCF convergence          0.1000000E-05 Eh   :
          :  -> wf. convergence          0.1000000E-03 e    :
          :  Broyden damping             0.4000000          :
          :  net charge                          0          :
          :  unpaired electrons                  0          :
          ...................................................

 iter      E             dE          RMSdq      gap      omega  full diag
   1    -21.3974603 -0.213975E+02  0.451E+00    7.05       0.0  T
   2    -21.4295274 -0.320671E-01  0.269E+00    6.97       1.0  T
   3    -21.3921679  0.373596E-01  0.171E+00    7.00       1.0  T
   4    -21.4328632 -0.406953E-01  0.566E-01    6.87       1.0  T
   5    -21.4372091 -0.434595E-02  0.811E-02    6.88       1.0  T
   6    -21.4372304 -0.212710E-04  0.323E-02    6.88       1.0  T
   7    -21.4372319 -0.155429E-05  0.123E-02    6.88       1.9  T
   8    -21.4372323 -0.348261E-06  0.167E-03    6.88      13.8  T
   9    -21.4372323 -0.785028E-08  0.699E-04    6.88      32.8  T
  10    -21.4372323 -0.218492E-09  0.203E-04    6.88     113.2  T

   *** convergence criteria satisfied after 10 iterations ***

         #    Occupation            Energy/Eh            Energy/eV
      -------------------------------------------------------------
         1        2.0000           -0.6262346             -17.0407
       ...           ...                  ...                  ...
        14        2.0000           -0.4550024             -12.3812
        15        2.0000           -0.4355658             -11.8523
        16        2.0000           -0.4339373             -11.8080
        17        2.0000           -0.4310108             -11.7284
        18        2.0000           -0.4201295             -11.4323
        19        2.0000           -0.3996435             -10.8749
        20        2.0000           -0.3969996             -10.8029 (HOMO)
        21                         -0.1440221              -3.9190 (LUMO)
        22                         -0.1391732              -3.7871
        23                          0.0682388               1.8569
        24                          0.0714776               1.9450
        25                          0.1162161               3.1624
       ...                                ...                  ...
        40                          1.4421421              39.2427
      -------------------------------------------------------------
                  HL-Gap            0.2529775 Eh            6.8839 eV
             Fermi-level           -0.2705109 Eh           -7.3610 eV

 SCC (total)                   0 d,  0 h,  0 min,  0.106 sec
 SCC setup                      ...        0 min,  0.000 sec (  0.220%)
 Dispersion                     ...        0 min,  0.000 sec (  0.110%)
 classical contributions        ...        0 min,  0.000 sec (  0.024%)
 integral evaluation            ...        0 min,  0.001 sec (  1.232%)
 iterations                     ...        0 min,  0.100 sec ( 94.309%)
 molecular gradient             ...        0 min,  0.004 sec (  3.924%)
 printout                       ...        0 min,  0.000 sec (  0.166%)

         :::::::::::::::::::::::::::::::::::::::::::::::::::::
         ::                     SUMMARY                     ::
         :::::::::::::::::::::::::::::::::::::::::::::::::::::
         :: total energy             -21.039894890123 Eh    ::
         :: gradient norm              0.002480513270 Eh/a0 ::
         :: HOMO-LUMO gap              6.883868658779 eV    ::
         ::.................................................::
         :: SCC energy               -21.437204752332 Eh    ::
         :: -> isotropic ES            0.004479793349 Eh    ::
         :: -> anisotropic ES          0.004195044771 Eh    ::
         :: -> anisotropic XC          0.018381971739 Eh    ::
         :: -> dispersion             -0.010991999659 Eh    ::
         :: repulsion energy           0.397309862209 Eh    ::
         :: add. restraining           0.000000000000 Eh    ::
         :: total charge              -0.000000000000 e     ::
         :::::::::::::::::::::::::::::::::::::::::::::::::::::

           -------------------------------------------------
          |                Property Printout                |
           -------------------------------------------------

    * Orbital Energies and Occupations

         #    Occupation            Energy/Eh            Energy/eV
      -------------------------------------------------------------
         1        2.0000           -0.6262346             -17.0407
       ...           ...                  ...                  ...
         8        2.0000           -0.5109686             -13.9042
         9        2.0000           -0.5053313             -13.7508
        10        2.0000           -0.4932609             -13.4223
        11        2.0000           -0.4840145             -13.1707
        12        2.0000           -0.4766660             -12.9707
        13        2.0000           -0.4617572             -12.5651
        14        2.0000           -0.4550024             -12.3812
        15        2.0000           -0.4355658             -11.8523
        16        2.0000           -0.4339373             -11.8080
        17        2.0000           -0.4310108             -11.7284
        18        2.0000           -0.4201295             -11.4323
        19        2.0000           -0.3996435             -10.8749
        20        2.0000           -0.3969996             -10.8029 (HOMO)
        21                         -0.1440221              -3.9190 (LUMO)
        22                         -0.1391732              -3.7871
        23                          0.0682388               1.8569
        24                          0.0714776               1.9450
        25                          0.1162161               3.1624
        26                          0.1246684               3.3924
        27                          0.1441655               3.9229
        28                          0.1597985               4.3483
        29                          0.1715260               4.6675
        30                          0.1785681               4.8591
        31                          0.1840470               5.0082
       ...                                ...                  ...
        40                          1.4421421              39.2427
      -------------------------------------------------------------
                  HL-Gap            0.2529775 Eh            6.8839 eV
             Fermi-level           -0.2705109 Eh           -7.3610 eV

     #   Z          covCN         q      C6AA      α(0)
     1   6 C        3.752    -0.102    22.514     6.766
     2   6 C        3.801    -0.053    21.525     6.605
     3   6 C        3.803    -0.059    21.631     6.621
     4   6 C        3.806    -0.051    21.485     6.598
     5   6 C        3.804    -0.040    21.284     6.568
     6   6 C        1.966    -0.025    31.729     9.097
     7   6 C        1.909    -0.117    34.376     9.469
     8   1 H        0.925     0.033     2.546     2.495
     9   1 H        0.925     0.034     2.529     2.487
    10   1 H        0.925     0.033     2.540     2.492
    11   1 H        0.924     0.028     2.622     2.532
    12   1 H        0.924     0.028     2.610     2.527
    13   1 H        0.924     0.029     2.596     2.520
    14   1 H        0.924     0.036     2.496     2.471
    15   1 H        0.924     0.033     2.546     2.495
    16   1 H        0.924     0.028     2.620     2.531
    17   1 H        0.924     0.048     2.350     2.397
    18   1 H        0.924     0.049     2.335     2.389
    19   1 H        0.928     0.068     2.107     2.270

 Mol. C6AA /au·bohr⁶  :       2875.928600
 Mol. C8AA /au·bohr⁸  :      63739.861166
 Mol. α(0) /au        :         81.330996


Wiberg/Mayer (AO) data.
largest (>0.10) Wiberg bond orders for each atom

 ---------------------------------------------------------------------------
     #   Z sym  total        # sym  WBO       # sym  WBO       # sym  WBO
 ---------------------------------------------------------------------------
     1   6 C    3.997 --     2 C    1.019    10 H    0.988     9 H    0.988
                             8 H    0.988
     2   6 C    3.998 --     1 C    1.019     3 C    1.008    12 H    0.979
                            11 H    0.979
     3   6 C    3.997 --     4 C    1.009     2 C    1.008    13 H    0.977
                            14 H    0.976
     4   6 C    3.997 --     3 C    1.009     5 C    0.986    15 H    0.978
                            16 H    0.977
     5   6 C    3.998 --     6 C    1.053     4 C    0.986    18 H    0.956
                            17 H    0.956
     6   6 C    3.978 --     7 C    2.895     5 C    1.053
     7   6 C    3.975 --     6 C    2.895    19 H    0.972
     8   1 H    0.999 --     1 C    0.988
     9   1 H    0.999 --     1 C    0.988
    10   1 H    0.999 --     1 C    0.988
    11   1 H    0.999 --     2 C    0.979
    12   1 H    0.999 --     2 C    0.979
    13   1 H    0.999 --     3 C    0.977
    14   1 H    0.999 --     3 C    0.976
    15   1 H    0.999 --     4 C    0.978
    16   1 H    0.999 --     4 C    0.977
    17   1 H    0.997 --     5 C    0.956
    18   1 H    0.998 --     5 C    0.956
    19   1 H    0.995 --     7 C    0.972
 ---------------------------------------------------------------------------

Topologies differ in total number of bonds
Writing topology from bond orders to xtbtopo.mol

molecular dipole:
                 x           y           z       tot (Debye)
 q only:       -0.137       0.210      -0.054
   full:       -0.130       0.217      -0.051       0.655
molecular quadrupole (traceless):
                xx          xy          yy          xz          yz          zz
 q only:       -0.992       0.971       1.112      -0.177      -0.262      -0.120
  q+dip:       -3.041      -1.683       3.912       0.585      -1.846      -0.871
   full:       -1.945      -0.153       2.282       0.156      -0.986      -0.337


           -------------------------------------------------
          | TOTAL ENERGY              -21.039894890123 Eh   |
          | GRADIENT NORM               0.002480513270 Eh/α |
          | HOMO-LUMO GAP               6.883868658779 eV   |
           -------------------------------------------------

------------------------------------------------------------------------
 * finished run on 2025/04/11 at 16:12:37.049     
------------------------------------------------------------------------
 total:
 * wall-time:     0 d,  0 h,  0 min,  0.214 sec
 *  cpu-time:     0 d,  0 h,  0 min,  0.020 sec
 * ratio c/w:     0.093 speedup
 SCF:
 * wall-time:     0 d,  0 h,  0 min,  0.106 sec
 *  cpu-time:     0 d,  0 h,  0 min,  0.012 sec
 * ratio c/w:     0.116 speedup

