18
CONF2
C 3.0476408265 0.2712238920 -0.2038263433
C 1.7906927182 -0.2125172802 0.5135896196
C 0.5217958265 0.0397148710 -0.2980127307
C -0.7460309807 -0.4431907655 0.4204556568
C -1.9784721910 -0.2227200815 -0.3973677070
C -3.0134296938 0.5360950766 -0.0389134727
H 3.9459064643 0.0871522631 0.3943983124
H 2.9947306493 1.3470454248 -0.4054487811
H 3.1736780669 -0.2416578428 -1.1638889728
H 1.8752617043 -1.2863305184 0.7258603999
H 1.7036598429 0.2910375628 1.4852847140
H 0.4291230263 1.1132979764 -0.5096230585
H 0.6022258515 -0.4662309652 -1.2697162158
H -0.6372785869 -1.5177040576 0.6273930908
H -0.8436653879 0.0658526771 1.3871885415
H -1.9992070807 -0.7221851666 -1.3676573477
H -3.8759220366 0.6618975619 -0.6875807419
H -3.0305747318 1.0530538390 0.9186237043
18
CONF1
C 2.7485843959 0.5235137303 -0.1292049829
C 1.2787647975 0.4413803379 0.2722299447
C 0.6420450442 -0.8889833249 -0.1226722432
C -0.8387131904 -0.9973739208 0.2762281666
C -1.7040322657 -0.0125711252 -0.4447837689
C -2.4714181330 0.9094943950 0.1345793819
H 3.3316547914 -0.2743896658 0.3442653446
H 3.1911008123 1.4807633454 0.1646650293
H 2.8639632249 0.4208541251 -1.2140627625
H 1.1815367771 0.5777836317 1.3576738186
H 0.7233657378 1.2649197268 -0.1941224833
H 0.7352380646 -1.0310853684 -1.2080208486
H 1.1952554850 -1.7101408393 0.3502351514
H -1.1861947433 -2.0122992670 0.0390604482
H -0.9448845620 -0.8620511744 1.3597116635
H -1.6790497407 -0.0718068196 -1.5346384980
H -3.0756767193 1.5946388380 -0.4533770196
H -2.5196744108 1.0054625100 1.2174085266
18
CONF3
C 1.9449642677 0.8494809428 -0.5070642544
C 1.4258674879 0.1111290183 0.7243040089
C 0.6492493337 -1.1648478797 0.3912314422
C -0.6055059278 -0.9341899043 -0.4700261207
C -1.5978731568 -0.0355650219 0.1962853970
C -2.0511360391 1.1151218014 -0.3000441042
H 2.5435604610 0.1838373443 -1.1397375875
H 2.5757741804 1.6973062990 -0.2212614307
H 1.1250445728 1.2411796150 -1.1179188589
H 2.2708783823 -0.1549015842 1.3719012498
H 0.7869097155 0.7847121121 1.3112069623
H 1.3099126747 -1.8643157228 -0.1371610810
H 0.3486136777 -1.6580756419 1.3246630454
H -0.3325765343 -0.5243894074 -1.4492159826
H -1.0738971013 -1.9112091744 -0.6515858477
H -1.9525763839 -0.3645500452 1.1754080254
H -2.7702392926 1.7216903749 0.2433588575
H -1.7182487037 1.4839102919 -1.2684951173
18
CONF7
C 2.8715838612 0.6034301533 -0.0025466706
C 1.7683401214 -0.4451493143 0.1057117773
C 0.3707831329 0.1611946910 -0.0128044111
C -0.7305701457 -0.8869644425 0.0959857879
C -2.1367581716 -0.3798990787 -0.0075315058
C -2.5122878514 0.8874333521 -0.1805182033
H 3.8654035646 0.1521418694 0.0841450981
H 2.7758457837 1.3562737886 0.7882112615
H 2.8231606258 1.1246365786 -0.9653798027
H 1.9010700010 -1.2027443600 -0.6778534221
H 1.8532923667 -0.9723779062 1.0650268706
H 0.2389783141 0.9191233373 0.7711635360
H 0.2856132780 0.6879809281 -0.9727573372
H -0.5860214072 -1.6557839819 -0.6781120842
H -0.6308725814 -1.4291552165 1.0484021086
H -2.9091767710 -1.1462830276 0.0694634687
H -3.5638454565 1.1533555476 -0.2435930059
H -1.7942370755 1.6987340229 -0.2647611970
18
CONF4
C 2.6056195134 -0.3241211699 0.6774219381
C 1.8949918230 0.4667776043 -0.4188318631
C 0.4972487981 -0.0595257631 -0.7556595698
C -0.4997012653 0.0539978757 0.4081363239
C -1.8595252239 -0.4387780177 0.0292014290
C -2.9687264810 0.2996970101 0.0155135545
H 2.6695119904 -1.3863226914 0.4143661130
H 2.0853945795 -0.2478252036 1.6374244128
H 3.6252993669 0.0452896158 0.8277837049
H 1.8205039620 1.5215026419 -0.1229519942
H 2.5042621013 0.4420902235 -1.3306097953
H 0.0984708656 0.4988441544 -1.6117697211
H 0.5679700654 -1.1101412547 -1.0685922718
H -0.1302170236 -0.5413536558 1.2537168779
H -0.5596535162 1.0970631528 0.7432633637
H -1.9167399628 -1.4856746503 -0.2735418933
H -3.9254712142 -0.1209078122 -0.2816268370
H -2.9548348365 1.3480663714 0.3071508622
18
CONF17
C 2.4889709988 -0.1532875759 -0.7833431076
C 1.9415202351 0.1166636626 0.6168972402
C 0.4722848976 -0.2739257117 0.7905987309
C -0.4856726586 0.4947048985 -0.1337476124
C -1.9171164858 0.2370671429 0.2149975342
C -2.8073559810 -0.3543840326 -0.5803781570
H 2.3288170795 -1.1990766476 -1.0709623606
H 3.5647078014 0.0455363072 -0.8293113593
H 2.0062933560 0.4777869091 -1.5363996435
H 2.5386889834 -0.4384307081 1.3505319817
H 2.0604773146 1.1810633080 0.8588763625
H 0.3532052999 -1.3502852610 0.6087219255
H 0.1750018601 -0.0967796657 1.8321064258
H -0.2745690572 1.5693860613 -0.0317724362
H -0.3076785676 0.2241569145 -1.1803706653
H -2.2237210067 0.5474736961 1.2155178278
H -3.8307068522 -0.5257652229 -0.2574597580
H -2.5400833439 -0.6828132093 -1.5830330793
18
CONF5
C 2.4652859601 0.7788682463 0.3093724794
C 1.9409432166 -0.6121510500 -0.0418883229
C 0.4976321671 -0.6173757828 -0.5512289590
C -0.5221229861 -0.1108772077 0.4805575715
C -1.9282349365 -0.2556723544 -0.0089871306
C -2.7758359184 0.7524141996 -0.2110088332
H 3.5242000920 0.7418459455 0.5850901433
H 1.9217904827 1.2166339194 1.1524781193
H 2.3650529608 1.4607581858 -0.5431651399
H 2.5839807001 -1.0541688786 -0.8128733283
H 2.0148524350 -1.2657740981 0.8373656123
H 0.4261300342 0.0013842153 -1.4558969611
H 0.2232628407 -1.6385064319 -0.8458872782
H -0.3962315963 -0.6948867925 1.4041073532
H -0.3284095362 0.9383669011 0.7287767992
H -2.2523792474 -1.2742969067 -0.2293020644
H -3.7828115405 0.5822096160 -0.5822106500
H -2.4880601944 1.7819271590 -0.0065925960
18
CONF6
C 2.8562301760 0.4485967758 0.1187817552
C 1.4711682835 0.1879101909 -0.4678203369
C 0.5722541304 -0.5781031507 0.5020307659
C -0.8144787328 -0.9324230006 -0.0640094314
C -1.6509100997 0.2687749998 -0.3798613435
C -2.7732057198 0.5984793684 0.2588663298
H 2.7854517653 1.0397577342 1.0388318886
H 3.4925969179 0.9972051231 -0.5831458947
H 3.3617399052 -0.4919408189 0.3654895368
H 1.0051575545 1.1441964539 -0.7343645462
H 1.5649845740 -0.3849417803 -1.4000224083
H 1.0751833840 -1.5105170459 0.7896881630
H 0.4440385962 0.0080521421 1.4217681830
H -0.6722131768 -1.5254162844 -0.9785299877
H -1.3483829287 -1.5643431645 0.6550437188
H -1.2952387307 0.9127120707 -1.1843915969
H -3.3355743805 1.4903303745 -0.0043871269
H -3.1660949618 -0.0168519544 1.0663904228
18
CONF9
C 2.2749685798 0.4063693936 -0.6720039344
C 1.5439206819 0.3052656613 0.6647825164
C 0.5420566302 -0.8511620083 0.7323043227
C -0.5642275575 -0.8201220448 -0.3397420163
C -1.3723355709 0.4392842410 -0.3210529718
C -2.6690427772 0.5072344266 -0.0200615738
H 1.5907636068 0.6480910829 -1.4921111946
H 2.7707295058 -0.5396150519 -0.9197708302
H 3.0409251159 1.1880775820 -0.6423573610
H 2.2781746682 0.1688434378 1.4681845143
H 1.0336968743 1.2531207445 0.8767572266
H 1.0855510510 -1.7997751744 0.6323024917
H 0.0686221746 -0.8591596455 1.7221678535
H -0.1021425296 -0.9351050648 -1.3296164462
H -1.2266756882 -1.6809333636 -0.1934662896
H -0.8415050414 1.3590252897 -0.5686513210
H -3.2027349157 1.4539400388 -0.0179361522
H -3.2394641396 -0.3854606048 0.2302986764
18
CONF10
C 2.5492673874 0.1593848043 0.6999001140
C 1.8236101895 -0.1363115990 -0.6115520729
C 0.3387155440 0.2387776711 -0.5969846311
C -0.4845229663 -0.5878861131 0.3859195845
C -1.9556641158 -0.3053464732 0.4053705374
C -2.6009700267 0.6133130257 -0.3139484191
H 2.1620800961 -0.4441770279 1.5269653841
H 2.4400851997 1.2146175433 0.9761703136
H 3.6196591063 -0.0541513727 0.6126497986
H 2.3148194750 0.4152775202 -1.4223146130
H 1.9243611055 -1.2021042215 -0.8558185810
H 0.2389408172 1.3055458023 -0.3554588690
H -0.0724709841 0.1065935693 -1.6056854313
H -0.3422618408 -1.6583669397 0.1737143363
H -0.1062327352 -0.4527990877 1.4089663430
H -2.5334334465 -0.9270098741 1.0905723985
H -3.6760180446 0.7377091215 -0.2186351116
H -2.0911048015 1.2679961398 -1.0156242002
18
CONF11
C 2.5789650560 0.7216868363 0.2195495533
C 1.3009902723 0.2353562698 -0.4581363589
C 0.4874959147 -0.6983648842 0.4397837286
C -0.8188851560 -1.1774095999 -0.1927944107
C -1.9269172588 -0.1698864987 -0.2950243163
C -1.9613036752 1.0456324773 0.2503494753
H 3.2165030699 -0.1222497581 0.5072819595
H 2.3489586564 1.2892734694 1.1285347295
H 3.1621665968 1.3713687533 -0.4411780347
H 0.6913053130 1.0972332757 -0.7536230575
H 1.5540461787 -0.2980648650 -1.3838494816
H 1.1018802758 -1.5757936969 0.6773579493
H 0.2787108520 -0.2031501551 1.3974782193
H -0.6164156602 -1.5726280285 -1.1988277173
H -1.2102743262 -2.0373161637 0.3704825381
H -2.7952908274 -0.5055683434 -0.8635754396
H -2.8325269446 1.6834643457 0.1301827537
H -1.1349036515 1.4481453977 0.8299401956
