18
 xtb: 6.7.1 (edcfbbe)
C            2.46528596121747        0.77886824669117        0.30937247954564
C            1.94094321741263       -0.61215105027786       -0.04188832295544
C            0.49763216731223       -0.61737578304387       -0.55122895926139
C           -0.52212298634432       -0.11087720778152        0.48055757173929
C           -1.92823493738379       -0.25567235453281       -0.00898713059026
C           -2.77583591958171        0.75241419997687       -0.21100883326248
H            3.52420009355672        0.74184594585755        0.58509014359710
H            1.92179048359195        1.21663391990979        1.15247811983260
H            2.36505296181550        1.46075818649727       -0.54316514011043
H            2.58398070128193       -1.05416887906558       -0.81287332867141
H            2.01485243587948       -1.26577409866474        0.83736561263440
H            0.42613003440140        0.00138421525355       -1.45589696171892
H            0.22326284082652       -1.63850643257648       -0.84588727855639
H           -0.39623159647335       -0.69488679277178        1.40410735380514
H           -0.32840953633117        0.93836690153141        0.72877679953732
H           -2.25237924841075       -1.27429690723866       -0.22930206449200
H           -3.78281154218689        0.58220961625200       -0.58221065028882
H           -2.48806019554687        1.78192715974240       -0.00659259595989
