20
 xtb: 6.7.1 (edcfbbe)
C           -2.67054792379974       -1.04362397266278       -0.13013126073132
C           -2.15486675695785        0.28917135688537       -0.66906268951471
C           -1.56369195148255        1.20098714899887        0.40986707019304
C           -0.33591813879547        0.61689889891580        1.10887922886244
C            0.83821548486903        0.44368655482271        0.18689565790464
O            1.09540055507557        1.15949279636601       -0.76687968007545
O            1.62191450185446       -0.59084218994063        0.55669096779217
C            2.82595357595469       -0.78359619036040       -0.23042312754906
H           -3.39678210502993       -0.88574881559069        0.67570739923442
H           -3.16521619458573       -1.61918631132989       -0.91903407795474
H           -1.85951003542552       -1.66310100301124        0.26674491707367
H           -1.40207938370501        0.10412417899997       -1.44662803786456
H           -2.97774932563096        0.82394435137435       -1.15811306250357
H           -2.32466555984815        1.39806193938524        1.17421477757067
H           -1.29793713181710        2.16850428414694       -0.02983528202285
H           -0.55494626915273       -0.33531982320627        1.59846333990183
H            0.00658238888765        1.30027568839996        1.89831081638217
H            2.56607744470527       -1.01595194116925       -1.26602757631742
H            3.34018934375146       -1.62639426937809        0.23007342147516
H            3.45066813236829        0.11201637524687       -0.19137745359674
