      -----------------------------------------------------------      
     |                   =====================                   |     
     |                           x T B                           |     
     |                   =====================                   |     
     |                         S. Grimme                         |     
     |          Mulliken Center for Theoretical Chemistry        |     
     |                    University of Bonn                     |     
      -----------------------------------------------------------      

   * xtb version 6.7.1 (edcfbbe) compiled by 'albert@albert-system' on 2024-07-22

   xtb is free software: you can redistribute it and/or modify it under
   the terms of the GNU Lesser General Public License as published by
   the Free Software Foundation, either version 3 of the License, or
   (at your option) any later version.
   
   xtb is distributed in the hope that it will be useful,
   but WITHOUT ANY WARRANTY; without even the implied warranty of
   MERCHANTABILITY or FITNESS FOR A PARTICULAR PURPOSE.  See the
   GNU Lesser General Public License for more details.
   
   Cite this work as:
   * C. Bannwarth, E. Caldeweyher, S. Ehlert, A. Hansen, P. Pracht,
     J. Seibert, S. Spicher, S. Grimme, WIREs Comput. Mol. Sci., 2020, 11,
     e01493. DOI: 10.1002/wcms.1493
   
   for GFN2-xTB:
   * C. Bannwarth, S. Ehlert and S. Grimme., J. Chem. Theory Comput., 2019,
     15, 1652-1671. DOI: 10.1021/acs.jctc.8b01176
   for GFN1-xTB:
   * S. Grimme, C. Bannwarth, P. Shushkov, J. Chem. Theory Comput., 2017,
     13, 1989-2009. DOI: 10.1021/acs.jctc.7b00118
   for GFN0-xTB:
   * P. Pracht, E. Caldeweyher, S. Ehlert, S. Grimme, ChemRxiv, 2019, preprint.
     DOI: 10.26434/chemrxiv.8326202.v1
   for GFN-FF:
   * S. Spicher and S. Grimme, Angew. Chem. Int. Ed., 2020, 59, 15665-15673.
     DOI: 10.1002/anie.202004239
   
   for ALPB and GBSA implicit solvation:
   * S. Ehlert, M. Stahn, S. Spicher, S. Grimme, J. Chem. Theory Comput.,
     2021, 17, 4250-4261. DOI: 10.1021/acs.jctc.1c00471
   
   for ddCOSMO and CPCM-X implicit solvation:
   * M. Stahn, S. Ehlert, S. Grimme, J. Phys. Chem. A,
     2023, XX, XXXX-XXXX. DOI: 10.1021/acs.jpca.3c04382
   
   for DFT-D4:
   * E. Caldeweyher, C. Bannwarth and S. Grimme, J. Chem. Phys., 2017,
     147, 034112. DOI: 10.1063/1.4993215
   * E. Caldeweyher, S. Ehlert, A. Hansen, H. Neugebauer, S. Spicher,
     C. Bannwarth and S. Grimme, J. Chem. Phys., 2019, 150, 154122.
     DOI: 10.1063/1.5090222
   * E. Caldeweyher, J.-M. Mewes, S. Ehlert and S. Grimme, Phys. Chem. Chem. Phys.
     2020, 22, 8499-8512. DOI: 10.1039/D0CP00502A
   
   for sTDA-xTB:
   * S. Grimme and C. Bannwarth, J. Chem. Phys., 2016, 145, 054103.
     DOI: 10.1063/1.4959605
   
   in the mass-spec context:
   * V. Asgeirsson, C. Bauer and S. Grimme, Chem. Sci., 2017, 8, 4879.
     DOI: 10.1039/c7sc00601b
   * J. Koopman and S. Grimme, ACS Omega 2019, 4, 12, 15120-15133.
     DOI: 10.1021/acsomega.9b02011
   
   for metadynamics refer to:
   * S. Grimme, J. Chem. Theory Comput., 2019, 155, 2847-2862
     DOI: 10.1021/acs.jctc.9b00143
   
   for SPH calculations refer to:
   * S. Spicher and S. Grimme, J. Chem. Theory Comput., 2021, 17, 1701-1714
     DOI: 10.1021/acs.jctc.0c01306
   
   for ONIOM refer to:
   * C. Plett, A. Katbashev, S. Ehlert, S. Grimme, M. Bursch,
     Phys. Chem. Chem. Phys., 2023, 25, 17860-17868. DOI: 10.1039/D3CP02178E
   
   for DIPRO refer to:
   * J. Kohn, N. Gildemeister, S. Grimme, D. Fazzi, A. Hansen,
     J. Chem. Phys., 2023, just accepted.
   
   for PTB refer to:
   * S. Grimme, M. Mueller, A. Hansen, J. Chem. Phys., 2023, 158, 124111.
     DOI: 10.1063/5.0137838
   
   with help from (in alphabetical order)
   P. Atkinson, C. Bannwarth, F. Bohle, G. Brandenburg, E. Caldeweyher
   M. Checinski, S. Dohm, S. Ehlert, S. Ehrlich, I. Gerasimov, C. Hölzer
   A. Katbashev, J. Kohn, J. Koopman, C. Lavigne, S. Lehtola, F. März, M. Müller,
   F. Musil, H. Neugebauer, J. Pisarek, C. Plett, P. Pracht, F. Pultar,
   J. Seibert, P. Shushkov, S. Spicher, M. Stahn, M. Steiner, T. Strunk,
   J. Stückrath, T. Rose, and J. Unsleber
   
 * started run on 2025/04/11 at 16:15:25.851     
   ID    Z sym.   atoms
    1    6 C      1-4, 7, 10, 12
    2    7 N      5, 9
    3    8 O      6, 8
    4   16 S      11
    5    1 H      13-26

           -------------------------------------------------
          |                Calculation Setup                |
           -------------------------------------------------

          program call               : /srv/scratch/z5358697/.xtb/bin/xtb solv.coord --gfn2 --sp --chrg 0 --norestart --parallel 1 --alpb water reference -I xtb_sp-xcontrol-inp
          hostname                   : k073
          coordinate file            : solv.coord
          omp threads                :                     1


           -------------------------------------------------
          |                 G F N 2 - x T B                 |
           -------------------------------------------------

        Reference                      10.1021/acs.jctc.8b01176
      * Hamiltonian:
        H0-scaling (s, p, d)           1.850000    2.230000    2.230000
        zeta-weighting                 0.500000
      * Dispersion:
        s8                             2.700000
        a1                             0.520000
        a2                             5.000000
        s9                             5.000000
      * Repulsion:
        kExp                           1.500000    1.000000
        rExp                           1.000000
      * Coulomb:
        alpha                          2.000000
        third order                    shell-resolved
        anisotropic                    true
        a3                             3.000000
        a5                             4.000000
        cn-shift                       1.200000
        cn-exp                         4.000000
        max-rad                        5.000000

      * Solvation model:               ALPB
        Solvent                        water
        Parameter file                 internal GFN2-xTB/ALPB
        Dielectric constant                8.0200E+01
        Reference state                gsolv=reference [X=1]
        Free energy shift                  2.8945E-03 Eh       1.8164E+00 kcal/mol
        Temperature                        2.9815E+02 K
        Density                            1.0000E+00 kg/L
        Solvent mass                       1.8000E+01 g/mol
        Interaction kernel             P16
        Born radius scaling (c1)           1.4744E+00
        Born radii integrator          GBOBC
        Born offset                        0.0000E+00 a0       0.0000E+00 AA
        H-bond correction              true
        Ion screening                  false
        Surface tension                    1.0000E-05 Eh       1.5569E+01 dyn/cm
        Grid points                               974 per atom

          ...................................................
          :                      SETUP                      :
          :.................................................:
          :  # basis functions                  68          :
          :  # atomic orbitals                  67          :
          :  # shells                           39          :
          :  # electrons                        70          :
          :  max. iterations                   250          :
          :  Hamiltonian                  GFN2-xTB          :
          :  restarted?                      false          :
          :  GBSA solvation                   true          :
          :  PC potential                    false          :
          :  electronic temp.          300.0000000     K    :
          :  accuracy                    1.0000000          :
          :  -> integral cutoff          0.2500000E+02      :
          :  -> integral neglect         0.1000000E-07      :
          :  -> SCF convergence          0.1000000E-05 Eh   :
          :  -> wf. convergence          0.1000000E-03 e    :
          :  Broyden damping             0.4000000          :
          :  net charge                          0          :
          :  unpaired electrons                  0          :
          ...................................................

 iter      E             dE          RMSdq      gap      omega  full diag
   1    -39.6882024 -0.396882E+02  0.452E+00    3.81       0.0  T
   2    -39.7543626 -0.661602E-01  0.241E+00    3.14       1.0  T
   3    -39.7567090 -0.234639E-02  0.815E-01    2.51       1.0  T
   4    -39.7574913 -0.782301E-03  0.353E-01    2.59       1.0  T
   5    -39.7581893 -0.698006E-03  0.142E-01    2.55       1.0  T
   6    -39.7582549 -0.656149E-04  0.513E-02    2.60       1.0  T
   7    -39.7582607 -0.581904E-05  0.236E-02    2.59       1.0  T
   8    -39.7582636 -0.291293E-05  0.116E-02    2.59       1.7  T
   9    -39.7582639 -0.248091E-06  0.421E-03    2.59       4.7  T
  10    -39.7582639 -0.609556E-07  0.186E-03    2.60      10.6  T
  11    -39.7582639 -0.761359E-08  0.520E-04    2.60      37.7  T
  12    -39.7582639 -0.681865E-09  0.256E-04    2.60      76.5  T

   *** convergence criteria satisfied after 12 iterations ***

         #    Occupation            Energy/Eh            Energy/eV
      -------------------------------------------------------------
         1        2.0000           -0.7580268             -20.6270
       ...           ...                  ...                  ...
        29        2.0000           -0.4644116             -12.6373
        30        2.0000           -0.4583942             -12.4735
        31        2.0000           -0.4393679             -11.9558
        32        2.0000           -0.4307385             -11.7210
        33        2.0000           -0.4179031             -11.3717
        34        2.0000           -0.3984243             -10.8417
        35        2.0000           -0.3634275              -9.8894 (HOMO)
        36                         -0.2680471              -7.2939 (LUMO)
        37                         -0.2081449              -5.6639
        38                         -0.2045538              -5.5662
        39                         -0.1477231              -4.0198
        40                         -0.1059788              -2.8838
       ...                                ...                  ...
        67                          0.6387185              17.3804
      -------------------------------------------------------------
                  HL-Gap            0.0953803 Eh            2.5954 eV
             Fermi-level           -0.3157373 Eh           -8.5916 eV

 SCC (total)                   0 d,  0 h,  0 min,  0.037 sec
 SCC setup                      ...        0 min,  0.002 sec (  4.613%)
 Dispersion                     ...        0 min,  0.000 sec (  0.542%)
 classical contributions        ...        0 min,  0.000 sec (  0.106%)
 integral evaluation            ...        0 min,  0.011 sec ( 30.766%)
 iterations                     ...        0 min,  0.013 sec ( 36.558%)
 molecular gradient             ...        0 min,  0.010 sec ( 26.824%)
 printout                       ...        0 min,  0.000 sec (  0.525%)

         :::::::::::::::::::::::::::::::::::::::::::::::::::::
         ::                     SUMMARY                     ::
         :::::::::::::::::::::::::::::::::::::::::::::::::::::
         :: total energy             -39.326428576340 Eh    ::
         :: total w/o Gsasa/hb       -39.324073179822 Eh    ::
         :: gradient norm              0.000036529973 Eh/a0 ::
         :: HOMO-LUMO gap              2.595431367340 eV    ::
         ::.................................................::
         :: SCC energy               -39.758161972098 Eh    ::
         :: -> isotropic ES            0.084913106526 Eh    ::
         :: -> anisotropic ES         -0.004780608518 Eh    ::
         :: -> anisotropic XC          0.024668030555 Eh    ::
         :: -> dispersion             -0.022561990369 Eh    ::
         :: -> Gsolv                  -0.018991915498 Eh    ::
         ::    -> Gelec               -0.016636518980 Eh    ::
         ::    -> Gsasa               -0.000494503212 Eh    ::
         ::    -> Ghb                 -0.004755442466 Eh    ::
         ::    -> Gshift               0.002894549160 Eh    ::
         :: repulsion energy           0.431733395758 Eh    ::
         :: add. restraining           0.000000000000 Eh    ::
         :: total charge               0.000000000000 e     ::
         :::::::::::::::::::::::::::::::::::::::::::::::::::::

           -------------------------------------------------
          |                Property Printout                |
           -------------------------------------------------

    * Orbital Energies and Occupations

         #    Occupation            Energy/Eh            Energy/eV
      -------------------------------------------------------------
         1        2.0000           -0.7580268             -20.6270
       ...           ...                  ...                  ...
        23        2.0000           -0.4893352             -13.3155
        24        2.0000           -0.4866305             -13.2419
        25        2.0000           -0.4783061             -13.0154
        26        2.0000           -0.4742795             -12.9058
        27        2.0000           -0.4728541             -12.8670
        28        2.0000           -0.4680760             -12.7370
        29        2.0000           -0.4644116             -12.6373
        30        2.0000           -0.4583942             -12.4735
        31        2.0000           -0.4393679             -11.9558
        32        2.0000           -0.4307385             -11.7210
        33        2.0000           -0.4179031             -11.3717
        34        2.0000           -0.3984243             -10.8417
        35        2.0000           -0.3634275              -9.8894 (HOMO)
        36                         -0.2680471              -7.2939 (LUMO)
        37                         -0.2081449              -5.6639
        38                         -0.2045538              -5.5662
        39                         -0.1477231              -4.0198
        40                         -0.1059788              -2.8838
        41                         -0.0114736              -0.3122
        42                         -0.0025741              -0.0700
        43                          0.0090828               0.2472
        44                          0.0178126               0.4847
        45                          0.0600721               1.6346
        46                          0.0996287               2.7110
       ...                                ...                  ...
        67                          0.6387185              17.3804
      -------------------------------------------------------------
                  HL-Gap            0.0953803 Eh            2.5954 eV
             Fermi-level           -0.3157373 Eh           -8.5916 eV

     #   Z          covCN         q      C6AA      α(0)
     1   6 C        3.784    -0.109    22.591     6.770
     2   6 C        3.890     0.071    19.346     6.253
     3   6 C        3.789    -0.096    22.345     6.732
     4   6 C        2.938     0.074    26.338     8.417
     5   7 N        1.830    -0.114    24.249     7.297
     6   8 O        1.771    -0.264    18.365     5.787
     7   6 C        2.637     0.408    20.129     7.339
     8   8 O        0.857    -0.542    24.736     6.668
     9   7 N        2.686    -0.189    25.109     7.442
    10   6 C        3.691    -0.066    21.959     6.706
    11  16 S        2.103    -0.258   152.139    20.760
    12   6 C        3.745    -0.061    21.751     6.653
    13   1 H        0.925     0.057     2.239     2.340
    14   1 H        0.925     0.067     2.122     2.278
    15   1 H        0.925     0.059     2.216     2.328
    16   1 H        0.925     0.047     2.361     2.403
    17   1 H        0.925     0.053     2.280     2.361
    18   1 H        0.925     0.041     2.437     2.441
    19   1 H        0.925     0.100     1.782     2.087
    20   1 H        0.860     0.245     0.905     1.490
    21   1 H        0.925     0.083     1.949     2.183
    22   1 H        0.925     0.088     1.900     2.155
    23   1 H        0.925     0.089     1.891     2.150
    24   1 H        0.926     0.082     1.959     2.189
    25   1 H        0.925     0.072     2.063     2.246
    26   1 H        0.925     0.065     2.142     2.289

 Mol. C6AA /au·bohr⁶  :       7041.407696
 Mol. C8AA /au·bohr⁸  :     175343.098074
 Mol. α(0) /au        :        127.765627


Wiberg/Mayer (AO) data.
largest (>0.10) Wiberg bond orders for each atom

 ---------------------------------------------------------------------------
     #   Z sym  total        # sym  WBO       # sym  WBO       # sym  WBO
 ---------------------------------------------------------------------------
     1   6 C    3.988 --    13 H    0.983     2 C    0.979    14 H    0.976
                            15 H    0.972
     2   6 C    3.972 --     3 C    1.007     4 C    0.999     1 C    0.979
                            11 S    0.914
     3   6 C    3.994 --     2 C    1.007    16 H    0.986    17 H    0.978
                            18 H    0.976
     4   6 C    3.948 --     5 N    1.885     2 C    0.999    19 H    0.935
     5   7 N    3.006 --     4 C    1.885     6 O    0.949
     6   8 O    2.232 --     7 C    1.018     5 N    0.949     8 O    0.117
     7   6 C    3.935 --     8 O    1.567     9 N    1.282     6 O    1.018
     8   8 O    1.909 --     7 C    1.567     9 N    0.173     6 O    0.117
     9   7 N    3.444 --     7 C    1.282    10 C    0.991    20 H    0.912
                             8 O    0.173
    10   6 C    3.940 --     9 N    0.991    21 H    0.978    23 H    0.973
                            22 H    0.973
    11  16 S    2.073 --    12 C    1.011     2 C    0.914
    12   6 C    3.968 --    11 S    1.011    25 H    0.980    26 H    0.977
                            24 H    0.972
    13   1 H    0.997 --     1 C    0.983
    14   1 H    0.995 --     1 C    0.976
    15   1 H    0.997 --     1 C    0.972
    16   1 H    0.998 --     3 C    0.986
    17   1 H    0.997 --     3 C    0.978
    18   1 H    0.998 --     3 C    0.976
    19   1 H    0.990 --     4 C    0.935
    20   1 H    0.940 --     9 N    0.912
    21   1 H    0.993 --    10 C    0.978
    22   1 H    0.992 --    10 C    0.973
    23   1 H    0.992 --    10 C    0.973
    24   1 H    0.992 --    12 C    0.972
    25   1 H    0.995 --    12 C    0.980
    26   1 H    0.996 --    12 C    0.977
 ---------------------------------------------------------------------------

Topologies differ in total number of bonds
Writing topology from bond orders to xtbtopo.mol

molecular dipole:
                 x           y           z       tot (Debye)
 q only:       -0.229      -1.391      -0.901
   full:       -0.216      -1.585      -1.185       5.060
molecular quadrupole (traceless):
                xx          xy          yy          xz          yz          zz
 q only:       12.454      15.206      -3.313      -6.491       1.534      -9.141
  q+dip:       10.895      14.976      -0.608     -10.233       0.344     -10.287
   full:       11.462      14.646      -1.606      -9.558       0.295      -9.855


           -------------------------------------------------
          | TOTAL ENERGY              -39.326428576340 Eh   |
          | GRADIENT NORM               0.000036529973 Eh/α |
          | HOMO-LUMO GAP               2.595431367340 eV   |
           -------------------------------------------------

------------------------------------------------------------------------
 * finished run on 2025/04/11 at 16:15:25.937     
------------------------------------------------------------------------
 total:
 * wall-time:     0 d,  0 h,  0 min,  0.085 sec
 *  cpu-time:     0 d,  0 h,  0 min,  0.039 sec
 * ratio c/w:     0.462 speedup
 SCF:
 * wall-time:     0 d,  0 h,  0 min,  0.037 sec
 *  cpu-time:     0 d,  0 h,  0 min,  0.030 sec
 * ratio c/w:     0.805 speedup

