23
 xtb: 6.7.1 (edcfbbe)
C            3.18273723847018       -0.46989980576285        0.51743075473587
C            1.69518128124008       -0.64402634532456        0.21787217925760
C            1.12121732594558        0.55208130464302       -0.54064201644784
C           -0.35224210544334        0.43665574349577       -0.94440098729977
C           -1.34372278789679        0.28979855167722        0.23006965280887
C           -2.62803326047303        1.07759189233474       -0.03922862477499
C           -1.69042170909167       -1.17538270945379        0.51020203706468
H            3.58741308229866       -1.32871225455875        1.06288707296530
H            3.75930403488239       -0.35764303296912       -0.40780612103681
H            3.35504816516163        0.42478186469337        1.12677739183715
H            1.15235007336941       -0.78233667400451        1.16045457624772
H            1.53971061987111       -1.55820668293312       -0.37073883472712
H            1.24974087718023        1.45409202943640        0.07452665793055
H            1.72180645105898        0.71073220185467       -1.44680701245504
H           -0.60918195668125        1.33626622175168       -1.51776135957351
H           -0.48068052881613       -0.41057216621778       -1.63299776926181
H           -0.86991062272538        0.71122799553969        1.12889667535057
H           -3.34427347853880        0.96566025450853        0.78273268356654
H           -2.42021979278651        2.14558133978236       -0.16586580467534
H           -3.11100398423583        0.71753027409445       -0.95626622972846
H           -2.23708026116630       -1.60098550859129       -0.34052523301575
H           -2.32784881511401       -1.26792089965404        1.39685192421656
H           -0.79884543134209       -1.78812285818921        0.67028881465208
