! r2scan-3c def2/J RI DEFGRID2 scfconv6 printgap
%output
    printlevel normal
end
* xyz 0 1
C -3.4052968123 -0.9365350786 0.3993622128
C -1.9411418165 -0.5909165724 0.6429205126
C -1.3577150865 0.1854860428 -0.53674753
C 0.0823400505 0.5899477172 -0.3569094465
O 0.5860643331 1.5516022941 -0.9038489358
O 0.7460034663 -0.2188312805 0.4561857702
C 2.140221964 0.039220946 0.6900577429
C 3.0069387259 -0.6056487807 -0.3807043382
H -3.8096522334 -1.4820106557 1.2475184414
H -3.9928957382 -0.0323638281 0.2601237967
H -3.5095385164 -1.5541481882 -0.489108158
H -1.3653793227 -1.5043221843 0.7936675734
H -1.8521601011 0.0113507327 1.5487283081
H -1.9312796435 1.0928461 -0.7339692278
H -1.4007359081 -0.4290608539 -1.4402033783
H 2.2964096792 1.1221007399 0.7103042051
H 2.3364400002 -0.3914902451 1.6723541898
H 4.053000563 -0.4526152394 -0.1363013869
H 2.8028763911 -1.6714958596 -0.4362303791
H 2.8009050404 -0.1534625534 -1.3483529419
*
