20
 xtb: 6.7.1 (edcfbbe)
C           -2.25817417233415       -1.32160551720108        0.29242440726222
C           -2.62212070550556        0.16010375161022        0.36388957084172
C           -1.70883579625773        1.09375837034216       -0.43543240517868
C           -0.27206262813346        1.16148099244441        0.03772970315902
O            0.43059016269465       -0.03466181477472       -0.43617734697958
C            1.71154272765317       -0.16358346701458       -0.05932986812139
O            2.29444409581186        0.66402321328322        0.62554409313449
C            2.32356954450473       -1.43689380347483       -0.54826881214631
H           -2.18421448930002       -1.66021420193755       -0.74696647584921
H           -1.30192236559025       -1.52907509619670        0.78111740042339
H           -3.02232096751006       -1.92846263549183        0.78904645745519
H           -3.64569046998760        0.29418824971687       -0.00591001653695
H           -2.62664230640107        0.48496804265819        1.41223988095051
H           -1.72137884915731        0.82643653509515       -1.49978151444130
H           -2.10463975478631        2.11416266632166       -0.36631120456765
H            0.24463632916970        2.03325827750676       -0.37501575225674
H           -0.20302421529889        1.19353560952512        1.13032936343050
H            1.74192133307807       -1.88884340738641       -1.35154348030772
H            2.36679544680791       -2.13539946891857        0.29470983075662
H            3.34741450338279       -1.24507013023956       -0.87496726370644
