      -----------------------------------------------------------      
     |                   =====================                   |     
     |                           x T B                           |     
     |                   =====================                   |     
     |                         S. Grimme                         |     
     |          Mulliken Center for Theoretical Chemistry        |     
     |                    University of Bonn                     |     
      -----------------------------------------------------------      

   * xtb version 6.7.1 (edcfbbe) compiled by 'albert@albert-system' on 2024-07-22

   xtb is free software: you can redistribute it and/or modify it under
   the terms of the GNU Lesser General Public License as published by
   the Free Software Foundation, either version 3 of the License, or
   (at your option) any later version.
   
   xtb is distributed in the hope that it will be useful,
   but WITHOUT ANY WARRANTY; without even the implied warranty of
   MERCHANTABILITY or FITNESS FOR A PARTICULAR PURPOSE.  See the
   GNU Lesser General Public License for more details.
   
   Cite this work as:
   * C. Bannwarth, E. Caldeweyher, S. Ehlert, A. Hansen, P. Pracht,
     J. Seibert, S. Spicher, S. Grimme, WIREs Comput. Mol. Sci., 2020, 11,
     e01493. DOI: 10.1002/wcms.1493
   
   for GFN2-xTB:
   * C. Bannwarth, S. Ehlert and S. Grimme., J. Chem. Theory Comput., 2019,
     15, 1652-1671. DOI: 10.1021/acs.jctc.8b01176
   for GFN1-xTB:
   * S. Grimme, C. Bannwarth, P. Shushkov, J. Chem. Theory Comput., 2017,
     13, 1989-2009. DOI: 10.1021/acs.jctc.7b00118
   for GFN0-xTB:
   * P. Pracht, E. Caldeweyher, S. Ehlert, S. Grimme, ChemRxiv, 2019, preprint.
     DOI: 10.26434/chemrxiv.8326202.v1
   for GFN-FF:
   * S. Spicher and S. Grimme, Angew. Chem. Int. Ed., 2020, 59, 15665-15673.
     DOI: 10.1002/anie.202004239
   
   for ALPB and GBSA implicit solvation:
   * S. Ehlert, M. Stahn, S. Spicher, S. Grimme, J. Chem. Theory Comput.,
     2021, 17, 4250-4261. DOI: 10.1021/acs.jctc.1c00471
   
   for ddCOSMO and CPCM-X implicit solvation:
   * M. Stahn, S. Ehlert, S. Grimme, J. Phys. Chem. A,
     2023, XX, XXXX-XXXX. DOI: 10.1021/acs.jpca.3c04382
   
   for DFT-D4:
   * E. Caldeweyher, C. Bannwarth and S. Grimme, J. Chem. Phys., 2017,
     147, 034112. DOI: 10.1063/1.4993215
   * E. Caldeweyher, S. Ehlert, A. Hansen, H. Neugebauer, S. Spicher,
     C. Bannwarth and S. Grimme, J. Chem. Phys., 2019, 150, 154122.
     DOI: 10.1063/1.5090222
   * E. Caldeweyher, J.-M. Mewes, S. Ehlert and S. Grimme, Phys. Chem. Chem. Phys.
     2020, 22, 8499-8512. DOI: 10.1039/D0CP00502A
   
   for sTDA-xTB:
   * S. Grimme and C. Bannwarth, J. Chem. Phys., 2016, 145, 054103.
     DOI: 10.1063/1.4959605
   
   in the mass-spec context:
   * V. Asgeirsson, C. Bauer and S. Grimme, Chem. Sci., 2017, 8, 4879.
     DOI: 10.1039/c7sc00601b
   * J. Koopman and S. Grimme, ACS Omega 2019, 4, 12, 15120-15133.
     DOI: 10.1021/acsomega.9b02011
   
   for metadynamics refer to:
   * S. Grimme, J. Chem. Theory Comput., 2019, 155, 2847-2862
     DOI: 10.1021/acs.jctc.9b00143
   
   for SPH calculations refer to:
   * S. Spicher and S. Grimme, J. Chem. Theory Comput., 2021, 17, 1701-1714
     DOI: 10.1021/acs.jctc.0c01306
   
   for ONIOM refer to:
   * C. Plett, A. Katbashev, S. Ehlert, S. Grimme, M. Bursch,
     Phys. Chem. Chem. Phys., 2023, 25, 17860-17868. DOI: 10.1039/D3CP02178E
   
   for DIPRO refer to:
   * J. Kohn, N. Gildemeister, S. Grimme, D. Fazzi, A. Hansen,
     J. Chem. Phys., 2023, just accepted.
   
   for PTB refer to:
   * S. Grimme, M. Mueller, A. Hansen, J. Chem. Phys., 2023, 158, 124111.
     DOI: 10.1063/5.0137838
   
   with help from (in alphabetical order)
   P. Atkinson, C. Bannwarth, F. Bohle, G. Brandenburg, E. Caldeweyher
   M. Checinski, S. Dohm, S. Ehlert, S. Ehrlich, I. Gerasimov, C. Hölzer
   A. Katbashev, J. Kohn, J. Koopman, C. Lavigne, S. Lehtola, F. März, M. Müller,
   F. Musil, H. Neugebauer, J. Pisarek, C. Plett, P. Pracht, F. Pultar,
   J. Seibert, P. Shushkov, S. Spicher, M. Stahn, M. Steiner, T. Strunk,
   J. Stückrath, T. Rose, and J. Unsleber
   
 * started run on 2025/04/11 at 14:34:56.394     
   ID    Z sym.   atoms
    1    6 C      1-6
    2    1 H      7-18

           -------------------------------------------------
          |                Calculation Setup                |
           -------------------------------------------------

          program call               : /software/projects/pawsey0265/mwang1/xtb/bin/xtb xtb_rrho.coord --gfn2 --bhess vtight --chrg 0 --enso --norestart -I rrho-xcontrol-inp --parallel 1 --alpb water
          hostname                   : nid002549
          coordinate file            : xtb_rrho.coord
          omp threads                :                     1


           -------------------------------------------------
          |                 G F N 2 - x T B                 |
           -------------------------------------------------

        Reference                      10.1021/acs.jctc.8b01176
      * Hamiltonian:
        H0-scaling (s, p, d)           1.850000    2.230000    2.230000
        zeta-weighting                 0.500000
      * Dispersion:
        s8                             2.700000
        a1                             0.520000
        a2                             5.000000
        s9                             5.000000
      * Repulsion:
        kExp                           1.500000    1.000000
        rExp                           1.000000
      * Coulomb:
        alpha                          2.000000
        third order                    shell-resolved
        anisotropic                    true
        a3                             3.000000
        a5                             4.000000
        cn-shift                       1.200000
        cn-exp                         4.000000
        max-rad                        5.000000

      * Solvation model:               ALPB
        Solvent                        water
        Parameter file                 internal GFN2-xTB/ALPB
        Dielectric constant                8.0200E+01
        Reference state                gsolv [1 M gas/solution]
        Free energy shift                  1.0808E-03 Eh       6.7819E-01 kcal/mol
        Temperature                        2.9815E+02 K
        Density                            1.0000E+00 kg/L
        Solvent mass                       1.8000E+01 g/mol
        Interaction kernel             P16
        Born radius scaling (c1)           1.4744E+00
        Born radii integrator          GBOBC
        Born offset                        0.0000E+00 a0       0.0000E+00 AA
        H-bond correction              true
        Ion screening                  false
        Surface tension                    1.0000E-05 Eh       1.5569E+01 dyn/cm
        Grid points                               974 per atom

          ...................................................
          :                      SETUP                      :
          :.................................................:
          :  # basis functions                  36          :
          :  # atomic orbitals                  36          :
          :  # shells                           24          :
          :  # electrons                        36          :
          :  max. iterations                   250          :
          :  Hamiltonian                  GFN2-xTB          :
          :  restarted?                      false          :
          :  GBSA solvation                   true          :
          :  PC potential                    false          :
          :  electronic temp.          300.0000000     K    :
          :  accuracy                    1.0000000          :
          :  -> integral cutoff          0.2500000E+02      :
          :  -> integral neglect         0.1000000E-07      :
          :  -> SCF convergence          0.1000000E-05 Eh   :
          :  -> wf. convergence          0.1000000E-03 e    :
          :  Broyden damping             0.4000000          :
          :  net charge                          0          :
          :  unpaired electrons                  0          :
          ...................................................

 iter      E             dE          RMSdq      gap      omega  full diag
   1    -19.2038857 -0.192039E+02  0.287E+00    5.37       0.0  T
   2    -19.2295657 -0.256800E-01  0.161E+00    5.29       1.0  T
   3    -19.2291467  0.419038E-03  0.717E-01    5.27       1.0  T
   4    -19.2298946 -0.747872E-03  0.392E-01    5.22       1.0  T
   5    -19.2314878 -0.159326E-02  0.600E-02    5.24       1.0  T
   6    -19.2314911 -0.327806E-05  0.266E-02    5.24       1.0  T
   7    -19.2314918 -0.658193E-06  0.420E-03    5.24       5.6  T
   8    -19.2314918 -0.297190E-07  0.121E-03    5.24      19.5  T
   9    -19.2314918 -0.958075E-09  0.547E-04    5.24      43.1  T
  10    -19.2314918 -0.696378E-09  0.141E-04    5.24     167.3  T

   *** convergence criteria satisfied after 10 iterations ***

         #    Occupation            Energy/Eh            Energy/eV
      -------------------------------------------------------------
         1        2.0000           -0.6207822             -16.8923
       ...           ...                  ...                  ...
        12        2.0000           -0.4584526             -12.4751
        13        2.0000           -0.4524274             -12.3112
        14        2.0000           -0.4333507             -11.7921
        15        2.0000           -0.4298655             -11.6972
        16        2.0000           -0.4204306             -11.4405
        17        2.0000           -0.4127672             -11.2320
        18        2.0000           -0.3900921             -10.6149 (HOMO)
        19                         -0.1974925              -5.3740 (LUMO)
        20                          0.0866550               2.3580
        21                          0.0883849               2.4051
        22                          0.1164742               3.1694
        23                          0.1256895               3.4202
       ...                                ...                  ...
        36                          0.5948024              16.1854
      -------------------------------------------------------------
                  HL-Gap            0.1925996 Eh            5.2409 eV
             Fermi-level           -0.2937923 Eh           -7.9945 eV

 SCC (total)                   0 d,  0 h,  0 min,  0.056 sec
 SCC setup                      ...        0 min,  0.002 sec (  2.872%)
 Dispersion                     ...        0 min,  0.000 sec (  0.239%)
 classical contributions        ...        0 min,  0.000 sec (  0.077%)
 integral evaluation            ...        0 min,  0.002 sec (  3.284%)
 iterations                     ...        0 min,  0.047 sec ( 84.754%)
 molecular gradient             ...        0 min,  0.005 sec (  8.480%)
 printout                       ...        0 min,  0.000 sec (  0.248%)

         :::::::::::::::::::::::::::::::::::::::::::::::::::::
         ::                     SUMMARY                     ::
         :::::::::::::::::::::::::::::::::::::::::::::::::::::
         :: total energy             -18.931513897941 Eh    ::
         :: total w/o Gsasa/hb       -18.931085917868 Eh    ::
         :: gradient norm              0.024581337686 Eh/a0 ::
         :: HOMO-LUMO gap              5.240902347809 eV    ::
         ::.................................................::
         :: SCC energy               -19.231453158630 Eh    ::
         :: -> isotropic ES            0.004187993726 Eh    ::
         :: -> anisotropic ES          0.006148904454 Eh    ::
         :: -> anisotropic XC          0.014223670080 Eh    ::
         :: -> dispersion             -0.010515469266 Eh    ::
         :: -> Gsolv                  -0.000740726264 Eh    ::
         ::    -> Gelec               -0.000312746192 Eh    ::
         ::    -> Gsasa               -0.001054703268 Eh    ::
         ::    -> Ghb                 -0.000454036503 Eh    ::
         ::    -> Gshift               0.001080759698 Eh    ::
         :: repulsion energy           0.299939260689 Eh    ::
         :: add. restraining           0.000000000000 Eh    ::
         :: total charge               0.000000000000 e     ::
         :::::::::::::::::::::::::::::::::::::::::::::::::::::

metadynamics with 1 initial structures loaded
           -------------------------------------------------
          |           Optimal kpush determination           |
           -------------------------------------------------
      ----------------------------------------------------------- 
     |                   =====================                   |
     |                        A N C O P T                        |
     |                   =====================                   |
     |               Approximate Normal Coordinate               |
     |                Rational Function Optimizer                |
      ----------------------------------------------------------- 
target rmsd / Å         0.100000
unbiased initial rmsd   0.064487
 
iter. min.        max.        rmsd       kpush
final kpush:  0.000000
           -------------------------------------------------
          |            Biased Numerical Hessian             |
           -------------------------------------------------
kpush                :   0.00000
alpha                :   1.00000
step length          :   0.00500
SCC accuracy         :   0.30000
Hessian scale factor :   1.00000
frozen atoms in %    :   0.00000    0
RMS gradient         :   0.00004
estimated CPU  time      0.02 min
estimated wall time      0.02 min

writing file <hessian>.

 projected vibrational frequencies (cm⁻¹)
eigval :       -0.00    -0.00     0.00     0.00     0.00     0.00
eigval :       50.04   108.93   127.20   226.94   244.38   350.27
eigval :      408.94   541.45   554.43   782.34   852.51   871.27
eigval :      895.18   950.75   964.51  1002.27  1028.15  1073.39
eigval :     1098.87  1108.76  1162.41  1183.53  1235.03  1275.20
eigval :     1308.91  1338.42  1354.50  1358.41  1411.13  1414.99
eigval :     1462.69  1487.08  1493.55  1502.69  1507.41  1720.66
eigval :     2926.12  2960.08  2960.85  2973.08  2986.24  2991.04
eigval :     3023.23  3028.22  3029.04  3041.75  3103.28  3123.55
           -------------------------------------------------
          |                Property Printout                |
           -------------------------------------------------

    * Orbital Energies and Occupations

         #    Occupation            Energy/Eh            Energy/eV
      -------------------------------------------------------------
         1        2.0000           -0.6222010             -16.9310
       ...           ...                  ...                  ...
         6        2.0000           -0.5296274             -14.4119
         7        2.0000           -0.5137080             -13.9787
         8        2.0000           -0.5084230             -13.8349
         9        2.0000           -0.4893418             -13.3157
        10        2.0000           -0.4809260             -13.0867
        11        2.0000           -0.4684669             -12.7476
        12        2.0000           -0.4590321             -12.4909
        13        2.0000           -0.4523232             -12.3083
        14        2.0000           -0.4333548             -11.7922
        15        2.0000           -0.4293152             -11.6823
        16        2.0000           -0.4198282             -11.4241
        17        2.0000           -0.4126607             -11.2291
        18        2.0000           -0.3919788             -10.6663 (HOMO)
        19                         -0.1945187              -5.2931 (LUMO)
        20                          0.0946274               2.5749
        21                          0.0970352               2.6405
        22                          0.1225378               3.3344
        23                          0.1327434               3.6121
        24                          0.1386733               3.7735
        25                          0.1419510               3.8627
        26                          0.1631896               4.4406
        27                          0.1739533               4.7335
        28                          0.2014295               5.4812
        29                          0.2260206               6.1503
       ...                                ...                  ...
        36                          0.6317101              17.1897
      -------------------------------------------------------------
                  HL-Gap            0.1974602 Eh            5.3732 eV
             Fermi-level           -0.2932487 Eh           -7.9797 eV

     #   Z          covCN         q      C6AA      α(0)
     1   6 C        3.751    -0.109    22.644     6.786
     2   6 C        3.800    -0.058    21.616     6.620
     3   6 C        3.801    -0.062    21.686     6.630
     4   6 C        3.804    -0.064    21.720     6.635
     5   6 C        2.884    -0.031    28.779     8.795
     6   6 C        2.835    -0.105    30.635     9.070
     7   1 H        0.925     0.034     2.531     2.488
     8   1 H        0.925     0.035     2.510     2.477
     9   1 H        0.925     0.036     2.509     2.477
    10   1 H        0.924     0.028     2.609     2.526
    11   1 H        0.924     0.035     2.515     2.480
    12   1 H        0.924     0.034     2.534     2.490
    13   1 H        0.924     0.034     2.526     2.486
    14   1 H        0.924     0.047     2.360     2.402
    15   1 H        0.924     0.048     2.347     2.396
    16   1 H        0.925     0.028     2.616     2.529
    17   1 H        0.926     0.030     2.582     2.513
    18   1 H        0.926     0.039     2.462     2.454

 Mol. C6AA /au·bohr⁶  :       2357.471402
 Mol. C8AA /au·bohr⁸  :      50643.484282
 Mol. α(0) /au        :         74.253929


Wiberg/Mayer (AO) data.
largest (>0.10) Wiberg bond orders for each atom

 ---------------------------------------------------------------------------
     #   Z sym  total        # sym  WBO       # sym  WBO       # sym  WBO
 ---------------------------------------------------------------------------
     1   6 C    3.997 --     2 C    1.020     9 H    0.987     7 H    0.987
                             8 H    0.985
     2   6 C    3.998 --     1 C    1.020     3 C    1.007    10 H    0.979
                            11 H    0.976
     3   6 C    3.997 --     2 C    1.007     4 C    1.007    12 H    0.977
                            13 H    0.975
     4   6 C    3.998 --     5 C    1.027     3 C    1.007    14 H    0.962
                            15 H    0.954
     5   6 C    3.991 --     6 C    1.974     4 C    1.027    16 H    0.967
     6   6 C    3.991 --     5 C    1.974    17 H    0.977    18 H    0.973
     7   1 H    0.999 --     1 C    0.987
     8   1 H    0.999 --     1 C    0.985
     9   1 H    0.999 --     1 C    0.987
    10   1 H    0.999 --     2 C    0.979
    11   1 H    0.999 --     2 C    0.976
    12   1 H    0.999 --     3 C    0.977
    13   1 H    0.999 --     3 C    0.975
    14   1 H    0.998 --     4 C    0.962
    15   1 H    0.998 --     4 C    0.954
    16   1 H    0.999 --     5 C    0.967
    17   1 H    0.999 --     6 C    0.977
    18   1 H    0.998 --     6 C    0.973
 ---------------------------------------------------------------------------

Topologies differ in total number of bonds
Writing topology from bond orders to xtbtopo.mol

molecular dipole:
                 x           y           z       tot (Debye)
 q only:        0.132      -0.163      -0.040
   full:        0.119      -0.170      -0.057       0.547
molecular quadrupole (traceless):
                xx          xy          yy          xz          yz          zz
 q only:       -0.809       0.236       0.409       0.136       0.374       0.400
  q+dip:       -1.346      -0.838       0.311       0.803       1.030       1.035
   full:       -1.009      -0.144       0.346       0.509       0.576       0.663

           -------------------------------------------------
          |                Geometry Summary                 |
           -------------------------------------------------

      molecular mass/u    :       84.1597044
   center of mass at/Å    :        0.0002203      -0.0000830      -0.0002440
  moments of inertia/u·Å² :        0.8269180E+02   0.2544033E+03   0.2709421E+03
rotational constants/cm⁻¹ :        0.2038610E+00   0.6626343E-01   0.6221858E-01

 * 16 selected distances

     #   Z          #   Z                                           value/Å
     1   6 C        2   6 C                                       1.5249552
     2   6 C        3   6 C                                       1.5305096 (max)
     3   6 C        4   6 C                                       1.5281733
     5   6 C        6   6 C                                       1.3202169
     1   6 C        7   1 H                                       1.0874473
     1   6 C        8   1 H                                       1.0868637
     1   6 C        9   1 H                                       1.0880422
     2   6 C       10   1 H                                       1.0926200
     2   6 C       11   1 H                                       1.0911030
     3   6 C       12   1 H                                       1.0925932
     3   6 C       13   1 H                                       1.0912992
     4   6 C       14   1 H                                       1.0925279
     4   6 C       15   1 H                                       1.0953832
     5   6 C       16   1 H                                       1.0839725
     6   6 C       17   1 H                                       1.0770588
     6   6 C       18   1 H                                       1.0761675 (min)

 * 2 distinct bonds (by element types)

   Z      Z             #   av. dist./Å        max./Å        min./Å
   1 H    6 C          12     1.0879232     1.0953832     1.0761675
   6 C    6 C           4     1.4759637     1.5305096     1.3202169

           -------------------------------------------------
          |               Frequency Printout                |
           -------------------------------------------------
 projected vibrational frequencies (cm⁻¹)
eigval :       -0.00    -0.00     0.00     0.00     0.00     0.00
eigval :       50.04   108.93   127.20   226.94   244.38   350.27
eigval :      408.94   541.45   554.43   782.34   852.51   871.27
eigval :      895.18   950.75   964.51  1002.27  1028.15  1073.39
eigval :     1098.87  1108.76  1162.41  1183.53  1235.03  1275.20
eigval :     1308.91  1338.42  1354.50  1358.41  1411.13  1414.99
eigval :     1462.69  1487.08  1493.55  1502.69  1507.41  1720.66
eigval :     2926.12  2960.08  2960.85  2973.08  2986.24  2991.04
eigval :     3023.23  3028.22  3029.04  3041.75  3103.28  3123.55
 reduced masses (amu)
   1: 10.39   2: 10.13   3:  9.78   4:  9.37   5:  9.36   6:  9.39   7:  7.37   8:  6.42
   9:  6.55  10:  4.24  11:  7.60  12:  7.39  13:  6.67  14:  7.23  15:  3.99  16:  3.68
  17:  6.68  18:  6.10  19:  4.03  20:  5.32  21:  6.03  22:  5.43  23:  2.01  24:  4.59
  25:  5.77  26:  5.93  27:  7.52  28:  3.33  29:  3.79  30:  2.48  31:  2.88  32:  4.32
  33:  4.90  34:  5.28  35:  3.11  36:  2.48  37:  1.90  38:  1.90  39:  1.81  40:  1.70
  41:  1.55  42: 11.16  43:  1.85  44:  1.87  45:  1.85  46:  1.62  47:  1.57  48:  1.60
  49:  1.89  50:  1.80  51:  1.89  52:  1.36  53:  1.62  54:  2.00
 IR intensities (km·mol⁻¹)
   1:  0.01   2:  0.01   3:  0.02   4:  0.01   5:  0.08   6:  0.07   7:  0.10   8:  0.12
   9:  0.40  10:  0.04  11:  0.26  12:  1.50  13:  1.55  14:  0.31  15:  5.32  16: 15.46
  17:  6.18  18:  3.56  19: 13.26  20:  8.55  21:  0.75  22:  4.38  23:  8.28  24:  2.45
  25:  1.40  26:  3.22  27:  4.11  28:  1.64  29:  0.03  30:  1.38  31:  7.09  32:  4.88
  33:  2.39  34:  3.12  35:  2.19  36: 13.42  37:  1.74  38:  0.55  39:  1.35  40:  1.03
  41:  0.62  42: 28.74  43: 60.85  44: 36.72  45: 78.22  46: 81.35  47:110.39  48: 57.30
  49: 97.63  50:135.66  51: 60.25  52: 49.19  53: 61.61  54: 82.88
 Raman intensities (Ä⁴*amu⁻¹)
   1:  0.00   2:  0.00   3:  0.00   4:  0.00   5:  0.00   6:  0.00   7:  0.00   8:  0.00
   9:  0.00  10:  0.00  11:  0.00  12:  0.00  13:  0.00  14:  0.00  15:  0.00  16:  0.00
  17:  0.00  18:  0.00  19:  0.00  20:  0.00  21:  0.00  22:  0.00  23:  0.00  24:  0.00
  25:  0.00  26:  0.00  27:  0.00  28:  0.00  29:  0.00  30:  0.00  31:  0.00  32:  0.00
  33:  0.00  34:  0.00  35:  0.00  36:  0.00  37:  0.00  38:  0.00  39:  0.00  40:  0.00
  41:  0.00  42:  0.00  43:  0.00  44:  0.00  45:  0.00  46:  0.00  47:  0.00  48:  0.00
  49:  0.00  50:  0.00  51:  0.00  52:  0.00  53:  0.00  54:  0.00
 output can be read by thermo (or use thermo option).
 writing <g98.out> molden fake output.
 recommended (thermochemical) frequency scaling factor: 1.0
           -------------------------------------------------
          |             Thermodynamic Functions             |
           -------------------------------------------------

Molecule has no symmetry elements
It seems to be the C1 point group
c1  symmetry found (for desy threshold:  0.10E+00) used in thermo

          ...................................................
          :                      SETUP                      :
          :.................................................:
          :  # frequencies                          48      :
          :  # imaginary freq.                       0      :
          :  linear?                             false      :
          :  only rotor calc.                    false      :
          :  symmetry                               c1      :
          :  rotational number                       1      :
          :  scaling factor                  1.0000000      :
          :  rotor cutoff                    0.0000000 cm⁻¹ :
          :  imag. cutoff                 -100.0000000 cm⁻¹ :
          :.................................................:

    mode    ω/cm⁻¹     T·S(HO)/kcal·mol⁻¹    T·S(FR)/kcal·mol⁻¹   T·S(vib)
   ------------------------------------------------------------------------
       1     50.04    -1.43586 (100.00%)    -1.05584 (  0.00%)    -1.43586
       2    108.93    -0.98029 (100.00%)    -0.82565 (  0.00%)    -0.98029
       3    127.20    -0.89085 (100.00%)    -0.77974 (  0.00%)    -0.89085
       4    226.94    -0.56739 (100.00%)    -0.60833 (  0.00%)    -0.56739
       5    244.38    -0.52795 (100.00%)    -0.58640 (  0.00%)    -0.52795
   ------------------------------------------------------------------------

   temp. (K)  partition function   enthalpy   heat capacity  entropy
                                   cal/mol     cal/K/mol   cal/K/mol   J/K/mol
 298.15  VIB   103.                 3096.751     21.395     19.590
         ROT  0.182E+06              888.752      2.981     27.054
         INT  0.187E+08             3985.504     24.376     46.644
         TR   0.747E+27             1481.254      4.968     39.186
         TOT                        5466.7575    29.3438    85.8304   359.1144

       T/K    H(0)-H(T)+PV         H(T)/Eh          T*S/Eh         G(T)/Eh
   ------------------------------------------------------------------------
    298.15    0.871183E-02    0.171837E+00    0.407808E-01    0.131056E+00
   ------------------------------------------------------------------------

         :::::::::::::::::::::::::::::::::::::::::::::::::::::
         ::                  THERMODYNAMIC                  ::
         :::::::::::::::::::::::::::::::::::::::::::::::::::::
         :: total free energy         -18.801474932110 Eh   ::
         ::.................................................::
         :: total energy              -18.932531117552 Eh   ::
         :: zero point energy           0.163125144705 Eh   ::
         :: G(RRHO) w/o ZPVE           -0.032068959262 Eh   ::
         :: G(RRHO) contrib.            0.131056185442 Eh   ::
         :::::::::::::::::::::::::::::::::::::::::::::::::::::

optimized geometry written to: xtbopt.coord


           -------------------------------------------------
          | TOTAL ENERGY              -18.932531117552 Eh   |
          | TOTAL ENTHALPY            -18.760694140305 Eh   |
          | TOTAL FREE ENERGY         -18.801474932110 Eh   |
          | GRADIENT NORM               0.000040870683 Eh/α |
          | HOMO-LUMO GAP               5.373164844105 eV   |
           -------------------------------------------------

------------------------------------------------------------------------
 * finished run on 2025/04/11 at 14:34:57.757     
------------------------------------------------------------------------
 total:
 * wall-time:     0 d,  0 h,  0 min,  1.362 sec
 *  cpu-time:     0 d,  0 h,  0 min,  1.263 sec
 * ratio c/w:     0.927 speedup
 SCF:
 * wall-time:     0 d,  0 h,  0 min,  0.056 sec
 *  cpu-time:     0 d,  0 h,  0 min,  0.022 sec
 * ratio c/w:     0.392 speedup
 analytical hessian:
 * wall-time:     0 d,  0 h,  0 min,  1.058 sec
 *  cpu-time:     0 d,  0 h,  0 min,  1.054 sec
 * ratio c/w:     0.996 speedup

