 Entering Gaussian System
 *********************************************
 Gaussian 98:
 frequency output generated by the xtb code
 *********************************************
                         Standard orientation:
 --------------------------------------------------------------------
  Center     Atomic     Atomic              Coordinates (Angstroms)
  Number     Number      Type              X           Y           Z
 --------------------------------------------------------------------
    1          6             0        2.877684   -0.209228   -0.841184
    2          6             0        2.330128   -0.173502    0.581284
    3          6             0        0.853187   -0.562191    0.665545
    4          6             0       -0.068112    0.442730   -0.025068
    5          6             0       -1.553323    0.228333    0.287887
    6          6             0       -2.376226    1.381290   -0.286035
    7          6             0       -2.062825   -1.100001   -0.267349
    8          1             0        3.946278   -0.007217   -0.839251
    9          1             0        2.714249   -1.188255   -1.286065
   10          1             0        2.392694    0.538085   -1.463098
   11          1             0        2.463999    0.828212    0.996234
   12          1             0        2.907269   -0.865833    1.198907
   13          1             0        0.724225   -1.550908    0.221900
   14          1             0        0.571085   -0.630500    1.719488
   15          1             0        0.211657    1.448680    0.298855
   16          1             0        0.072754    0.390775   -1.106138
   17          1             0       -1.679962    0.221686    1.376988
   18          1             0       -2.043747    2.332863    0.122552
   19          1             0       -2.271837    1.417116   -1.368421
   20          1             0       -3.429658    1.255162   -0.047223
   21          1             0       -3.128567   -1.204237   -0.076493
   22          1             0       -1.552438   -1.939229    0.196796
   23          1             0       -1.900953   -1.146405   -1.342202
 --------------------------------------------------------------------
     1 basis functions        1 primitive gaussians
     1 alpha electrons        1 beta electrons
 
 Harmonic frequencies (cm**-1), IR intensities (km*mol⁻¹),
 Raman scattering activities (A**4/amu), Raman depolarization ratios,
 reduced masses (AMU), force constants (mDyne/A) and normal coordinates:
                      1                      2                      3
                        a                      a                      a 
 Frequencies --    40.7111                83.8762               113.1964
 Red. masses --     7.9140                 7.2807                 7.1921
 Frc consts  --     0.0000                 0.0000                 0.0000
 IR Inten    --     0.0021                 0.0469                 0.0601
 Raman Activ --     0.0000                 0.0000                 0.0000
 Depolar     --     0.0000                 0.0000                 0.0000
 Atom AN      X      Y      Z        X      Y      Z        X      Y      Z
   1   6     0.07   0.43   0.09     0.31  -0.06   0.19     0.32  -0.23   0.09
   2   6    -0.04  -0.20   0.06    -0.02   0.21   0.05    -0.06  -0.03  -0.06
   3   6    -0.04  -0.26  -0.23     0.03  -0.01  -0.16    -0.07  -0.04  -0.38
   4   6     0.02  -0.12  -0.13    -0.03  -0.21  -0.38    -0.07   0.31   0.13
   5   6     0.03   0.09   0.02     0.01  -0.06  -0.04    -0.06   0.10   0.07
   6   6     0.10   0.03  -0.21    -0.02   0.08   0.28    -0.24  -0.06   0.00
   7   6    -0.14  -0.00   0.39    -0.28   0.04  -0.00     0.17  -0.01   0.13
   8   1     0.02   0.12   0.08     0.07   0.10   0.10     0.07   0.05   0.09
   9   1     0.03   0.18  -0.10     0.22  -0.08   0.14     0.23  -0.12   0.09
  10   1     0.04   0.20   0.11     0.05  -0.13  -0.05     0.06  -0.17  -0.07
  11   1    -0.03  -0.11   0.14    -0.08   0.10  -0.05    -0.05   0.01  -0.04
  12   1    -0.02  -0.13  -0.05    -0.01   0.14   0.11    -0.06   0.02   0.05
  13   1     0.01  -0.05  -0.14     0.07  -0.02  -0.02    -0.01   0.06  -0.26
  14   1    -0.05  -0.14  -0.08    -0.03   0.02  -0.06    -0.04  -0.17  -0.12
  15   1     0.05  -0.05  -0.04     0.01  -0.03  -0.22    -0.03   0.05   0.18
  16   1    -0.03  -0.04  -0.04    -0.06  -0.16  -0.11    -0.03   0.25   0.03
  17   1     0.03   0.11   0.01     0.08  -0.04  -0.00    -0.03   0.04   0.02
  18   1     0.07   0.03  -0.15     0.04  -0.00   0.10    -0.09   0.01  -0.05
  19   1    -0.00  -0.08  -0.07    -0.07   0.07   0.08    -0.11  -0.06  -0.00
  20   1     0.03   0.06  -0.02     0.01   0.03   0.14    -0.06  -0.04   0.04
  21   1    -0.04   0.05   0.13    -0.05   0.00   0.15     0.03  -0.00  -0.06
  22   1    -0.06   0.02   0.17    -0.01  -0.01  -0.12     0.01   0.02   0.12
  23   1    -0.05  -0.09   0.11    -0.24   0.06  -0.03     0.15  -0.05   0.05
                      4                      5                      6
                        a                      a                      a 
 Frequencies --   173.1034               206.3622               234.1642
 Red. masses --     5.1989                 1.6632                 1.9133
 Frc consts  --     0.0000                 0.0000                 0.0000
 IR Inten    --     0.1025                 0.0314                 0.0154
 Raman Activ --     0.0000                 0.0000                 0.0000
 Depolar     --     0.0000                 0.0000                 0.0000
 Atom AN      X      Y      Z        X      Y      Z        X      Y      Z
   1   6     0.07  -0.06   0.09    -0.06   0.03   0.01    -0.10   0.01  -0.01
   2   6     0.03  -0.20   0.08    -0.02   0.05   0.02     0.02  -0.08   0.04
   3   6    -0.08   0.21  -0.04    -0.00  -0.00   0.05     0.01  -0.03   0.06
   4   6     0.04   0.15  -0.29     0.02  -0.07  -0.08     0.05   0.07   0.13
   5   6     0.08   0.06  -0.08     0.03  -0.03  -0.03     0.03   0.04  -0.01
   6   6    -0.28  -0.09   0.15     0.00   0.02   0.13    -0.04  -0.07  -0.11
   7   6     0.16  -0.02   0.02     0.03   0.00  -0.12     0.05   0.07  -0.07
   8   1     0.08  -0.35   0.07    -0.03   0.05  -0.01    -0.06   0.16  -0.04
   9   1    -0.28   0.10  -0.12     0.01  -0.01   0.02     0.10  -0.04   0.04
  10   1     0.26   0.22   0.13    -0.05  -0.02  -0.01    -0.16  -0.09  -0.02
  11   1     0.10  -0.10   0.09    -0.02   0.02  -0.01     0.02  -0.03   0.03
  12   1    -0.07  -0.16  -0.01     0.01   0.03   0.01     0.01  -0.04  -0.01
  13   1    -0.06   0.04   0.04    -0.00  -0.02   0.05    -0.00   0.00  -0.01
  14   1    -0.05   0.13  -0.01    -0.00   0.04   0.02     0.00  -0.03   0.02
  15   1     0.01   0.06  -0.14     0.02  -0.01  -0.05     0.01   0.00   0.09
  16   1     0.00  -0.02  -0.08     0.00  -0.06  -0.02     0.04   0.07   0.04
  17   1     0.09   0.01  -0.01     0.03  -0.03  -0.01    -0.00   0.01  -0.00
  18   1    -0.07  -0.00  -0.01     0.28   0.03  -0.25     0.19   0.03  -0.32
  19   1    -0.21  -0.04   0.03    -0.34  -0.21  -0.00    -0.28  -0.26  -0.07
  20   1    -0.05  -0.07   0.17     0.06   0.21   0.41     0.04   0.13   0.26
  21   1     0.07  -0.06   0.08    -0.07   0.16  -0.36     0.09  -0.15   0.31
  22   1     0.12   0.01  -0.04    -0.25  -0.02   0.21     0.27   0.02  -0.31
  23   1    -0.03   0.01  -0.01     0.34  -0.13   0.02    -0.33   0.20  -0.08
                      7                      8                      9
                        a                      a                      a 
 Frequencies --   244.6260               281.7384               373.0827
 Red. masses --     5.6596                 6.9078                 7.6218
 Frc consts  --     0.0000                 0.0000                 0.0000
 IR Inten    --     0.0361                 0.0919                 0.2353
 Raman Activ --     0.0000                 0.0000                 0.0000
 Depolar     --     0.0000                 0.0000                 0.0000
 Atom AN      X      Y      Z        X      Y      Z        X      Y      Z
   1   6    -0.28   0.03   0.05     0.32   0.08  -0.08     0.16   0.03  -0.03
   2   6    -0.10  -0.20   0.11     0.26  -0.31  -0.09    -0.14  -0.10  -0.13
   3   6    -0.13   0.01   0.00     0.09   0.21   0.20    -0.21   0.23   0.01
   4   6     0.10   0.03  -0.28    -0.04   0.04   0.06    -0.23   0.10  -0.01
   5   6     0.15   0.11  -0.06    -0.10  -0.01  -0.01    -0.17  -0.17  -0.03
   6   6    -0.06   0.03   0.11    -0.21  -0.09  -0.05     0.34   0.22   0.06
   7   6     0.34  -0.00   0.05    -0.29   0.06  -0.05     0.13  -0.35   0.05
   8   1    -0.14   0.35  -0.05     0.05   0.24   0.01     0.04   0.05   0.09
   9   1     0.21  -0.07   0.09     0.30  -0.00  -0.04     0.12   0.01  -0.05
  10   1    -0.35  -0.19  -0.02    -0.04  -0.06  -0.02     0.07   0.01  -0.03
  11   1     0.01  -0.08   0.08     0.20  -0.15   0.08     0.02  -0.05   0.01
  12   1    -0.04  -0.11  -0.02     0.01  -0.21  -0.11    -0.10  -0.09  -0.05
  13   1    -0.06  -0.01   0.04    -0.08   0.02   0.18    -0.12   0.04   0.08
  14   1    -0.08   0.06  -0.01     0.10   0.19   0.09    -0.02   0.15   0.02
  15   1     0.07   0.02  -0.17    -0.05   0.03  -0.02    -0.11   0.04   0.00
  16   1    -0.01  -0.09  -0.08     0.00  -0.03   0.02    -0.06   0.04  -0.00
  17   1     0.09   0.03  -0.01    -0.04  -0.00  -0.00    -0.06  -0.06  -0.01
  18   1    -0.13  -0.00   0.15    -0.12  -0.01  -0.01     0.29  -0.01   0.04
  19   1     0.04   0.12   0.04    -0.04  -0.02  -0.01     0.10   0.08   0.02
  20   1    -0.02  -0.11  -0.04    -0.06  -0.08  -0.04     0.07   0.27   0.03
  21   1     0.10  -0.04  -0.01    -0.10   0.10  -0.07     0.06  -0.21   0.06
  22   1     0.11   0.03   0.06    -0.17  -0.02   0.02     0.15  -0.03   0.02
  23   1     0.13  -0.03   0.02    -0.03  -0.00  -0.00     0.00  -0.11   0.01
                     10                     11                     12
                        a                      a                      a 
 Frequencies --   388.1515               452.5830               479.8109
 Red. masses --     8.0049                 8.0067                 7.4603
 Frc consts  --     0.0000                 0.0000                 0.0000
 IR Inten    --     0.7877                 0.9087                 0.9851
 Raman Activ --     0.0000                 0.0000                 0.0000
 Depolar     --     0.0000                 0.0000                 0.0000
 Atom AN      X      Y      Z        X      Y      Z        X      Y      Z
   1   6     0.23   0.06  -0.09    -0.03  -0.01  -0.01    -0.09  -0.06   0.07
   2   6    -0.12  -0.00  -0.19     0.21   0.02   0.09     0.35  -0.00   0.21
   3   6    -0.07  -0.25   0.20     0.19  -0.13   0.07     0.23   0.14  -0.22
   4   6    -0.11  -0.33   0.07     0.07  -0.08   0.08    -0.28  -0.11  -0.07
   5   6    -0.17   0.22   0.15    -0.16   0.08  -0.45    -0.29   0.01   0.28
   6   6    -0.21   0.14  -0.05    -0.27   0.37   0.01    -0.01   0.09  -0.06
   7   6     0.32   0.15  -0.03    -0.02  -0.24   0.06     0.07   0.01  -0.05
   8   1     0.07  -0.02   0.10    -0.01  -0.01  -0.08    -0.03  -0.02  -0.15
   9   1     0.09   0.04  -0.08    -0.04  -0.01   0.02    -0.10  -0.03   0.07
  10   1     0.16   0.05  -0.05    -0.05  -0.01   0.02    -0.13  -0.04   0.08
  11   1    -0.10   0.02  -0.09     0.05   0.01   0.02     0.19  -0.04   0.12
  12   1     0.02   0.07  -0.02     0.09   0.01   0.01     0.03  -0.11   0.01
  13   1    -0.02  -0.11   0.15     0.11  -0.03  -0.02     0.16   0.06  -0.15
  14   1     0.06   0.01   0.08     0.05  -0.09   0.01     0.02  -0.08  -0.09
  15   1     0.08  -0.08  -0.12    -0.01  -0.05   0.12    -0.06   0.01  -0.17
  16   1    -0.07  -0.23   0.02     0.12   0.06   0.03    -0.23  -0.13  -0.04
  17   1    -0.08   0.08   0.04    -0.07   0.03  -0.13    -0.11   0.01   0.07
  18   1    -0.09   0.06  -0.05    -0.02   0.04   0.11     0.04   0.03  -0.06
  19   1    -0.05  -0.00  -0.02    -0.19   0.26  -0.00     0.07  -0.06  -0.01
  20   1    -0.06   0.02  -0.02    -0.05   0.09   0.10    -0.03   0.12  -0.08
  21   1     0.10  -0.12  -0.06     0.01  -0.12   0.09     0.02  -0.12  -0.11
  22   1     0.19   0.09  -0.03     0.09   0.05   0.14     0.08   0.02  -0.05
  23   1     0.15   0.12  -0.00    -0.05  -0.24   0.02     0.11   0.11  -0.00
                     13                     14                     15
                        a                      a                      a 
 Frequencies --   785.8059               818.4294               878.6310
 Red. masses --     2.8088                 3.2482                 7.7076
 Frc consts  --     0.0000                 0.0000                 0.0000
 IR Inten    --     8.3642                 4.8241                 1.4920
 Raman Activ --     0.0000                 0.0000                 0.0000
 Depolar     --     0.0000                 0.0000                 0.0000
 Atom AN      X      Y      Z        X      Y      Z        X      Y      Z
   1   6    -0.01   0.03  -0.08    -0.04   0.08   0.05    -0.07   0.06   0.04
   2   6    -0.15   0.16  -0.05    -0.08   0.22  -0.05    -0.08   0.03  -0.05
   3   6    -0.06   0.12   0.19     0.03  -0.01  -0.14     0.09  -0.10  -0.03
   4   6     0.03   0.02   0.19    -0.09  -0.27  -0.07     0.37   0.18  -0.09
   5   6     0.08   0.01  -0.08     0.01  -0.01  -0.05    -0.01   0.02   0.30
   6   6     0.03  -0.02  -0.00     0.04  -0.04   0.01    -0.22   0.27  -0.01
   7   6     0.00  -0.02  -0.03     0.04   0.15   0.06    -0.14  -0.40  -0.06
   8   1     0.01  -0.07   0.11     0.01  -0.10   0.03    -0.00  -0.05   0.08
   9   1     0.03  -0.07   0.13    -0.07  -0.10   0.29    -0.02  -0.05   0.14
  10   1     0.14  -0.08  -0.24     0.09  -0.12  -0.23     0.07  -0.05  -0.14
  11   1     0.18  -0.08   0.21     0.15  -0.11   0.32    -0.06  -0.04   0.11
  12   1    -0.09  -0.21  -0.24    -0.11  -0.25  -0.26     0.04  -0.04  -0.12
  13   1     0.08   0.18  -0.32     0.11  -0.12   0.20    -0.05  -0.05   0.07
  14   1    -0.02  -0.39   0.02     0.02   0.22  -0.02     0.03   0.08   0.00
  15   1     0.02   0.10  -0.27    -0.05  -0.17   0.31     0.20   0.03  -0.05
  16   1     0.04  -0.34   0.07     0.04   0.26  -0.02     0.06   0.02  -0.03
  17   1    -0.04  -0.01  -0.03     0.04   0.03  -0.01     0.08  -0.01   0.09
  18   1    -0.00  -0.01   0.02    -0.01  -0.01   0.01    -0.06   0.13  -0.13
  19   1    -0.04   0.03  -0.00    -0.01   0.00   0.00     0.10  -0.10   0.00
  20   1     0.02  -0.04   0.05     0.02  -0.05   0.02    -0.10   0.17  -0.15
  21   1     0.00   0.06   0.04     0.01  -0.00  -0.01    -0.05  -0.14  -0.11
  22   1    -0.03  -0.01   0.02     0.05   0.07   0.02    -0.07  -0.20  -0.14
  23   1    -0.05  -0.07  -0.01     0.04   0.05   0.02     0.02   0.06  -0.02
                     16                     17                     18
                        a                      a                      a 
 Frequencies --   927.5100               944.1133               947.6912
 Red. masses --     7.9416                 3.2631                 2.8964
 Frc consts  --     0.0000                 0.0000                 0.0000
 IR Inten    --     0.6405                 5.3895                 4.0517
 Raman Activ --     0.0000                 0.0000                 0.0000
 Depolar     --     0.0000                 0.0000                 0.0000
 Atom AN      X      Y      Z        X      Y      Z        X      Y      Z
   1   6     0.26   0.08  -0.32     0.11   0.11   0.07    -0.06  -0.05  -0.03
   2   6     0.21   0.08   0.27     0.07  -0.00  -0.03    -0.03  -0.00   0.01
   3   6    -0.37  -0.22   0.26    -0.04  -0.15  -0.18     0.03   0.04   0.09
   4   6    -0.05   0.13  -0.21    -0.07   0.14   0.19     0.03  -0.04  -0.11
   5   6    -0.07   0.00  -0.01     0.04   0.08  -0.02    -0.08   0.10  -0.02
   6   6    -0.02  -0.07   0.06     0.06  -0.00   0.06     0.06   0.03   0.24
   7   6    -0.01   0.02   0.04     0.08   0.01  -0.18    -0.15   0.09  -0.17
   8   1     0.09  -0.06  -0.34     0.05  -0.09  -0.24    -0.02   0.04   0.13
   9   1    -0.08  -0.03   0.09    -0.17  -0.04   0.25     0.08   0.02  -0.11
  10   1    -0.01  -0.06  -0.13    -0.07  -0.08  -0.03     0.04   0.03   0.01
  11   1    -0.01   0.01   0.14    -0.19  -0.03   0.14     0.09   0.01  -0.06
  12   1     0.14   0.03   0.01     0.04   0.01  -0.02    -0.01  -0.01  -0.00
  13   1    -0.07  -0.02  -0.03    -0.23  -0.08   0.13     0.13   0.02  -0.05
  14   1    -0.26  -0.13   0.02     0.15   0.17   0.01    -0.06  -0.07   0.00
  15   1    -0.03   0.01   0.04     0.13   0.06  -0.16    -0.04  -0.03   0.07
  16   1     0.09   0.09  -0.04    -0.23  -0.15   0.03     0.10   0.07  -0.02
  17   1     0.10   0.01   0.01    -0.16  -0.19  -0.03     0.11  -0.25   0.01
  18   1     0.07  -0.04  -0.00    -0.06   0.06  -0.06    -0.15   0.19  -0.23
  19   1     0.10  -0.06   0.02     0.02  -0.09   0.01     0.21  -0.38   0.06
  20   1    -0.04   0.10  -0.07     0.02  -0.07   0.00    -0.02  -0.06  -0.14
  21   1    -0.00  -0.03  -0.03     0.04   0.15   0.19     0.00  -0.21   0.04
  22   1     0.01   0.00  -0.02    -0.02   0.08   0.15     0.19   0.31   0.23
  23   1     0.04   0.06   0.01    -0.17  -0.33  -0.06    -0.01  -0.30  -0.02
                     19                     20                     21
                        a                      a                      a 
 Frequencies --   976.6466               988.9647              1036.3188
 Red. masses --     5.7825                 4.5427                 5.1836
 Frc consts  --     0.0000                 0.0000                 0.0000
 IR Inten    --     2.7913                 0.2821                 0.2197
 Raman Activ --     0.0000                 0.0000                 0.0000
 Depolar     --     0.0000                 0.0000                 0.0000
 Atom AN      X      Y      Z        X      Y      Z        X      Y      Z
   1   6     0.14  -0.03  -0.10    -0.01   0.06   0.05    -0.22   0.05  -0.02
   2   6    -0.01   0.07   0.09     0.01  -0.06  -0.04     0.19  -0.11   0.06
   3   6    -0.19   0.12  -0.04     0.05  -0.05  -0.03     0.11  -0.19   0.15
   4   6    -0.10  -0.20   0.10     0.13   0.15   0.01    -0.32   0.19  -0.16
   5   6     0.25   0.09   0.10    -0.16   0.14  -0.04     0.06   0.02   0.03
   6   6     0.18   0.29  -0.04     0.27  -0.19   0.01     0.14   0.08  -0.03
   7   6    -0.07  -0.27  -0.05    -0.33  -0.00   0.02     0.07  -0.07  -0.02
   8   1     0.03   0.03  -0.19     0.01  -0.04  -0.02    -0.04  -0.04   0.36
   9   1    -0.03   0.02  -0.07    -0.05  -0.02   0.12     0.12  -0.03   0.03
  10   1    -0.08   0.01   0.09     0.01  -0.03  -0.05     0.20  -0.01  -0.22
  11   1     0.08   0.01   0.01    -0.14  -0.02   0.03    -0.04   0.01  -0.04
  12   1    -0.14  -0.04   0.09     0.08   0.04  -0.03     0.37   0.10  -0.13
  13   1     0.02   0.02  -0.02    -0.12   0.00   0.00     0.03  -0.05   0.03
  14   1    -0.10   0.01  -0.02     0.07   0.03   0.01    -0.08  -0.03   0.01
  15   1    -0.03  -0.07   0.08     0.03   0.07  -0.09    -0.14   0.06  -0.02
  16   1    -0.06   0.01   0.02     0.03  -0.05   0.00    -0.22   0.14  -0.06
  17   1     0.05   0.08   0.03    -0.09   0.21  -0.01    -0.03   0.02   0.00
  18   1    -0.33   0.26  -0.14    -0.02  -0.06   0.09    -0.13   0.09  -0.03
  19   1    -0.16  -0.02  -0.03    -0.12   0.08  -0.01    -0.09   0.02  -0.02
  20   1     0.13  -0.37   0.14     0.13  -0.25   0.18     0.08  -0.18   0.08
  21   1    -0.03  -0.07  -0.06    -0.07  -0.46  -0.21     0.01   0.11   0.04
  22   1    -0.05  -0.13  -0.09     0.21   0.19   0.03    -0.07  -0.08  -0.03
  23   1    -0.00   0.01  -0.02     0.18   0.10   0.04    -0.05  -0.03  -0.02
                     22                     23                     24
                        a                      a                      a 
 Frequencies --  1047.3031              1105.5863              1138.0190
 Red. masses --     3.9777                 7.8398                 7.4996
 Frc consts  --     0.0000                 0.0000                 0.0000
 IR Inten    --     2.2156                 1.4943                 0.4915
 Raman Activ --     0.0000                 0.0000                 0.0000
 Depolar     --     0.0000                 0.0000                 0.0000
 Atom AN      X      Y      Z        X      Y      Z        X      Y      Z
   1   6     0.02   0.09   0.22    -0.01   0.07  -0.34     0.14  -0.08  -0.19
   2   6     0.04  -0.13  -0.22    -0.14  -0.19   0.37    -0.39   0.00   0.16
   3   6     0.06   0.04   0.06     0.16   0.23  -0.14     0.41  -0.15   0.14
   4   6    -0.20  -0.07  -0.04     0.18  -0.17   0.09    -0.21   0.26  -0.10
   5   6     0.10  -0.14  -0.13     0.01  -0.28   0.07     0.01   0.07  -0.07
   6   6    -0.04   0.15   0.05    -0.06   0.13  -0.10     0.04  -0.03   0.04
   7   6     0.03   0.06   0.12     0.01   0.16   0.05    -0.00  -0.05   0.01
   8   1     0.01  -0.05  -0.11     0.01  -0.05   0.04     0.02   0.02  -0.14
   9   1    -0.12  -0.03   0.21     0.06  -0.03  -0.01    -0.01   0.02  -0.12
  10   1    -0.06  -0.04   0.03     0.13  -0.04  -0.25    -0.06   0.00   0.04
  11   1    -0.20  -0.03  -0.01    -0.32  -0.02   0.12    -0.17  -0.06   0.20
  12   1     0.08   0.05  -0.04     0.05   0.07   0.15    -0.24  -0.08   0.09
  13   1    -0.23   0.10  -0.12    -0.11   0.09  -0.05     0.29  -0.10   0.10
  14   1     0.28  -0.13   0.07    -0.09   0.11  -0.07     0.25  -0.06   0.07
  15   1    -0.39   0.07  -0.00    -0.14   0.02  -0.01    -0.10   0.09  -0.07
  16   1     0.26  -0.06   0.03     0.03  -0.04   0.02    -0.09   0.06  -0.03
  17   1     0.31  -0.03  -0.00    -0.09  -0.16   0.01     0.09   0.06  -0.01
  18   1    -0.09   0.12  -0.12    -0.06   0.04  -0.01     0.00   0.00  -0.01
  19   1     0.06  -0.11   0.01    -0.08   0.06  -0.03     0.02  -0.03   0.01
  20   1    -0.02   0.01  -0.07    -0.01  -0.01   0.01     0.01  -0.01  -0.00
  21   1    -0.00  -0.02  -0.05     0.01  -0.02   0.02    -0.01   0.02  -0.02
  22   1     0.01  -0.03  -0.05     0.05   0.10   0.06    -0.02  -0.04  -0.03
  23   1     0.07   0.15   0.03     0.03   0.01   0.02     0.00   0.02  -0.00
                     25                     26                     27
                        a                      a                      a 
 Frequencies --  1158.4187              1183.3271              1188.4988
 Red. masses --     7.5374                 7.0802                 6.3242
 Frc consts  --     0.0000                 0.0000                 0.0000
 IR Inten    --     2.8143                 2.1256                 7.2145
 Raman Activ --     0.0000                 0.0000                 0.0000
 Depolar     --     0.0000                 0.0000                 0.0000
 Atom AN      X      Y      Z        X      Y      Z        X      Y      Z
   1   6     0.10  -0.02   0.14     0.09   0.16   0.09     0.03  -0.01   0.04
   2   6    -0.08   0.06  -0.20    -0.15  -0.28  -0.16    -0.05   0.02  -0.06
   3   6    -0.01  -0.13   0.20     0.14   0.26   0.23     0.03  -0.03   0.02
   4   6     0.12   0.16  -0.17     0.07  -0.18  -0.21     0.21   0.07  -0.11
   5   6     0.08  -0.42   0.25    -0.11   0.22   0.22    -0.45  -0.12  -0.19
   6   6    -0.03   0.17  -0.25     0.03  -0.09  -0.01     0.19   0.07   0.17
   7   6    -0.05   0.20   0.01     0.07  -0.09  -0.17     0.19   0.04   0.22
   8   1     0.02   0.01  -0.12     0.04  -0.07  -0.15     0.00   0.01  -0.04
   9   1    -0.07   0.02   0.03    -0.13  -0.02   0.21    -0.02   0.01   0.00
  10   1    -0.10  -0.00   0.14    -0.05  -0.07  -0.05    -0.03   0.00   0.04
  11   1     0.09  -0.01  -0.03    -0.17  -0.02  -0.12     0.01  -0.00  -0.00
  12   1    -0.03  -0.04  -0.10     0.04   0.06   0.03    -0.02  -0.02  -0.03
  13   1     0.11  -0.02  -0.01     0.13   0.14  -0.15     0.04  -0.01  -0.00
  14   1    -0.07  -0.09   0.03    -0.12  -0.14  -0.00    -0.06   0.01  -0.02
  15   1    -0.05   0.05  -0.02     0.00  -0.10   0.14     0.02   0.02  -0.03
  16   1    -0.15   0.10  -0.07     0.01   0.19  -0.06     0.17  -0.01  -0.02
  17   1    -0.08  -0.31   0.05    -0.13   0.19   0.04    -0.43  -0.12  -0.09
  18   1    -0.08   0.02   0.04     0.04  -0.06   0.06    -0.16   0.14  -0.10
  19   1    -0.20   0.21  -0.07    -0.01   0.04   0.00     0.01  -0.19   0.03
  20   1     0.03  -0.04   0.07     0.02  -0.00   0.04     0.06  -0.20   0.01
  21   1     0.01  -0.08   0.03     0.02   0.10   0.08     0.01   0.20   0.00
  22   1     0.10   0.17   0.10    -0.06  -0.03   0.04    -0.10  -0.16  -0.09
  23   1     0.05  -0.04   0.02    -0.12  -0.18  -0.05    -0.02   0.21   0.03
                     28                     29                     30
                        a                      a                      a 
 Frequencies --  1226.7170              1257.3271              1283.4737
 Red. masses --     5.1137                 3.3573                 2.2931
 Frc consts  --     0.0000                 0.0000                 0.0000
 IR Inten    --     1.9668                 0.1816                 0.5838
 Raman Activ --     0.0000                 0.0000                 0.0000
 Depolar     --     0.0000                 0.0000                 0.0000
 Atom AN      X      Y      Z        X      Y      Z        X      Y      Z
   1   6    -0.04  -0.19  -0.05     0.09  -0.24   0.06    -0.03  -0.04  -0.05
   2   6     0.07   0.24   0.08    -0.08   0.16  -0.09     0.05   0.03   0.05
   3   6    -0.03  -0.09  -0.04     0.11   0.07   0.08    -0.04   0.15   0.14
   4   6     0.07  -0.04  -0.20     0.08  -0.13   0.07    -0.06  -0.09  -0.14
   5   6    -0.20   0.06   0.32     0.14   0.04  -0.12    -0.04   0.08  -0.09
   6   6     0.07  -0.03  -0.10    -0.06  -0.02   0.10     0.02   0.00  -0.04
   7   6     0.10  -0.01  -0.18    -0.03  -0.01   0.02    -0.01   0.00   0.12
   8   1    -0.03   0.09   0.06    -0.01   0.08  -0.03    -0.01   0.01   0.05
   9   1     0.09   0.02  -0.19     0.01   0.04  -0.19     0.03   0.00  -0.04
  10   1     0.01   0.07   0.10    -0.10   0.05   0.24     0.01   0.02   0.00
  11   1    -0.04  -0.02   0.22    -0.27  -0.06   0.30    -0.09  -0.01   0.11
  12   1    -0.01  -0.04  -0.07     0.31   0.01  -0.36    -0.01   0.02   0.05
  13   1    -0.33   0.04  -0.05    -0.13   0.09  -0.08    -0.25   0.16  -0.15
  14   1     0.27  -0.03   0.06    -0.27   0.06  -0.06     0.39  -0.18   0.12
  15   1    -0.20   0.02   0.04    -0.11   0.01  -0.00     0.47  -0.21   0.13
  16   1     0.35   0.01  -0.00    -0.28   0.09  -0.03    -0.26   0.19  -0.08
  17   1    -0.02   0.13   0.09    -0.13   0.12  -0.05     0.04  -0.35  -0.02
  18   1    -0.02  -0.03   0.07     0.03   0.01  -0.04     0.02  -0.02   0.02
  19   1    -0.09   0.09  -0.02     0.08  -0.06   0.03    -0.02   0.01  -0.01
  20   1     0.04  -0.05   0.09    -0.04   0.07  -0.07     0.02  -0.05   0.02
  21   1     0.04   0.08   0.11    -0.01  -0.04  -0.03    -0.01  -0.04  -0.06
  22   1    -0.06   0.01   0.08     0.02  -0.00  -0.02    -0.01  -0.05  -0.05
  23   1    -0.12  -0.18  -0.05     0.02   0.02   0.01     0.03   0.09   0.03
                     31                     32                     33
                        a                      a                      a 
 Frequencies --  1293.5874              1333.4218              1340.5962
 Red. masses --     2.8183                 4.3926                 4.5718
 Frc consts  --     0.0000                 0.0000                 0.0000
 IR Inten    --     3.5051                 4.3417                13.1016
 Raman Activ --     0.0000                 0.0000                 0.0000
 Depolar     --     0.0000                 0.0000                 0.0000
 Atom AN      X      Y      Z        X      Y      Z        X      Y      Z
   1   6     0.04  -0.09   0.05    -0.02  -0.03   0.00    -0.04  -0.02   0.00
   2   6    -0.04  -0.07  -0.02     0.04  -0.05   0.03     0.11  -0.02  -0.04
   3   6    -0.08   0.17  -0.11    -0.24   0.13  -0.04    -0.16   0.03  -0.03
   4   6    -0.17   0.08   0.08    -0.07   0.08  -0.06    -0.09  -0.02  -0.12
   5   6    -0.17   0.06   0.06     0.13  -0.41  -0.00     0.39   0.27   0.08
   6   6     0.05   0.01  -0.13    -0.02   0.06   0.12    -0.08  -0.06  -0.00
   7   6     0.02  -0.02   0.01    -0.04   0.04  -0.09    -0.09  -0.04   0.09
   8   1    -0.00   0.03  -0.05    -0.00  -0.00  -0.01    -0.01   0.01   0.01
   9   1    -0.00   0.02  -0.07     0.03   0.00  -0.03     0.03  -0.01  -0.01
  10   1    -0.03   0.01   0.08     0.02   0.00  -0.00     0.03   0.02  -0.01
  11   1    -0.24  -0.04   0.13    -0.11  -0.02   0.07    -0.13  -0.02   0.07
  12   1     0.32   0.07  -0.22     0.13   0.05  -0.03    -0.01   0.00   0.04
  13   1     0.37  -0.06   0.09     0.24  -0.03   0.03     0.22  -0.06   0.05
  14   1    -0.10   0.04  -0.05     0.32  -0.09   0.08     0.14  -0.05   0.03
  15   1     0.27  -0.06   0.02     0.27  -0.09   0.06    -0.20   0.03   0.03
  16   1     0.34  -0.17   0.08     0.04  -0.03  -0.00     0.24  -0.03   0.01
  17   1     0.31  -0.27   0.05    -0.21   0.51  -0.03    -0.56  -0.31  -0.06
  18   1     0.00  -0.04   0.07    -0.07   0.10  -0.10     0.06  -0.04  -0.00
  19   1    -0.06   0.06  -0.03    -0.00  -0.04   0.02     0.06   0.04   0.01
  20   1     0.05  -0.08   0.08    -0.04   0.05  -0.10    -0.03   0.09   0.01
  21   1    -0.00   0.05   0.00     0.01   0.06   0.07    -0.03  -0.11  -0.08
  22   1    -0.01  -0.02  -0.00     0.08   0.13   0.08     0.01  -0.06  -0.09
  23   1    -0.01   0.01   0.00     0.05   0.01  -0.01     0.04  -0.00   0.03
                     34                     35                     36
                        a                      a                      a 
 Frequencies --  1350.1080              1375.6759              1406.0219
 Red. masses --     4.4830                 5.3209                 3.3614
 Frc consts  --     0.0000                 0.0000                 0.0000
 IR Inten    --     6.3358                 2.8220                 1.2337
 Raman Activ --     0.0000                 0.0000                 0.0000
 Depolar     --     0.0000                 0.0000                 0.0000
 Atom AN      X      Y      Z        X      Y      Z        X      Y      Z
   1   6    -0.10  -0.03  -0.08     0.02  -0.00   0.01    -0.01   0.00   0.03
   2   6     0.41   0.05  -0.32    -0.08   0.04  -0.02    -0.00   0.01   0.00
   3   6    -0.01   0.00   0.12     0.37  -0.07   0.06     0.03  -0.02   0.01
   4   6     0.00   0.04   0.02    -0.41   0.09  -0.08    -0.02  -0.03   0.00
   5   6    -0.06  -0.06  -0.00     0.19  -0.11   0.04    -0.00   0.12   0.00
   6   6     0.01   0.01  -0.01    -0.05   0.05   0.00     0.15  -0.24   0.08
   7   6     0.00  -0.00  -0.02    -0.05   0.02  -0.01    -0.10  -0.30  -0.09
   8   1    -0.03   0.01   0.23    -0.00   0.03  -0.02    -0.00  -0.00  -0.04
   9   1     0.02  -0.06   0.09    -0.03   0.00   0.01     0.02   0.01  -0.03
  10   1    -0.01   0.07   0.08     0.00   0.01   0.01     0.02  -0.01  -0.03
  11   1    -0.41  -0.07   0.29     0.08   0.01  -0.03     0.01   0.00  -0.01
  12   1    -0.40  -0.06   0.30    -0.07  -0.02   0.02    -0.01  -0.01  -0.00
  13   1     0.10  -0.01   0.01    -0.34   0.07  -0.06    -0.05   0.02  -0.04
  14   1    -0.25  -0.03  -0.04    -0.31   0.06  -0.09    -0.03   0.04  -0.00
  15   1     0.05   0.00  -0.01     0.37  -0.13   0.06    -0.01   0.00  -0.02
  16   1    -0.02  -0.01   0.00     0.37  -0.09   0.05     0.02   0.03   0.00
  17   1     0.09   0.05   0.01    -0.21   0.05  -0.02     0.01  -0.13   0.00
  18   1    -0.01   0.01   0.00     0.03   0.00  -0.01    -0.23   0.14  -0.17
  19   1    -0.01  -0.00  -0.00     0.04  -0.02   0.01    -0.20   0.29  -0.01
  20   1     0.00  -0.01   0.00    -0.01  -0.02  -0.00    -0.06   0.29  -0.14
  21   1     0.00   0.04   0.02     0.00  -0.05   0.03    -0.02   0.33   0.15
  22   1     0.01   0.02   0.02     0.02   0.03   0.02     0.20   0.22   0.21
  23   1     0.01   0.01  -0.00     0.05   0.00   0.01     0.14   0.37   0.00
                     37                     38                     39
                        a                      a                      a 
 Frequencies --  1411.2911              1419.1257              1485.0107
 Red. masses --     3.2589                 3.1171                 1.7742
 Frc consts  --     0.0000                 0.0000                 0.0000
 IR Inten    --     1.4338                 0.5907                 0.2356
 Raman Activ --     0.0000                 0.0000                 0.0000
 Depolar     --     0.0000                 0.0000                 0.0000
 Atom AN      X      Y      Z        X      Y      Z        X      Y      Z
   1   6     0.18  -0.01  -0.39    -0.01  -0.00   0.03     0.04  -0.04   0.01
   2   6    -0.10  -0.02   0.07     0.01  -0.00  -0.01     0.05   0.02   0.07
   3   6    -0.01   0.02  -0.05     0.03   0.02  -0.00     0.02   0.13  -0.07
   4   6     0.00   0.01  -0.02    -0.03   0.02   0.00    -0.03  -0.12   0.09
   5   6     0.01   0.02   0.01    -0.04  -0.02  -0.02    -0.01   0.01  -0.00
   6   6     0.02  -0.04   0.02     0.18  -0.23   0.13     0.05   0.03   0.01
   7   6    -0.00  -0.01   0.00     0.10   0.25   0.11    -0.08   0.04  -0.03
   8   1     0.01   0.06   0.48    -0.00  -0.00  -0.03    -0.03   0.17   0.04
   9   1    -0.25  -0.16   0.42     0.02   0.01  -0.03    -0.17   0.03  -0.01
  10   1    -0.29   0.14   0.37     0.02  -0.01  -0.02     0.04  -0.02  -0.05
  11   1     0.13  -0.01  -0.02    -0.02  -0.00   0.01    -0.10   0.07  -0.14
  12   1     0.12   0.07  -0.03    -0.01  -0.00   0.01    -0.04  -0.14  -0.11
  13   1    -0.01  -0.02   0.03    -0.01  -0.00   0.02    -0.10  -0.13   0.33
  14   1     0.05  -0.03   0.00    -0.04  -0.02  -0.01    -0.04  -0.36  -0.04
  15   1    -0.02  -0.01   0.04     0.06  -0.03   0.04     0.06   0.10  -0.37
  16   1     0.03  -0.05   0.00     0.02  -0.05   0.01     0.11   0.38  -0.00
  17   1    -0.02  -0.01  -0.00     0.05   0.02   0.00    -0.01  -0.01  -0.00
  18   1    -0.03   0.02  -0.03    -0.26   0.18  -0.22    -0.03  -0.03   0.11
  19   1    -0.03   0.04   0.00    -0.26   0.30  -0.00    -0.14  -0.11  -0.02
  20   1    -0.01   0.05  -0.02    -0.07   0.31  -0.21    -0.02   0.04  -0.11
  21   1    -0.00   0.00  -0.00     0.01  -0.29  -0.16     0.04   0.00   0.23
  22   1     0.00   0.00   0.01    -0.18  -0.20  -0.19    -0.01  -0.07  -0.14
  23   1    -0.00   0.01   0.00    -0.15  -0.32  -0.00     0.28  -0.09   0.05
                     40                     41                     42
                        a                      a                      a 
 Frequencies --  1489.1971              1494.1859              1496.2563
 Red. masses --     1.9625                 1.9028                 1.5993
 Frc consts  --     0.0000                 0.0000                 0.0000
 IR Inten    --     1.2936                 1.5876                 0.3107
 Raman Activ --     0.0000                 0.0000                 0.0000
 Depolar     --     0.0000                 0.0000                 0.0000
 Atom AN      X      Y      Z        X      Y      Z        X      Y      Z
   1   6    -0.01   0.01   0.01     0.02  -0.01   0.06    -0.07   0.06  -0.03
   2   6     0.06   0.04   0.10    -0.11  -0.05  -0.20    -0.04   0.01  -0.01
   3   6     0.07   0.14  -0.07     0.03   0.10  -0.07     0.01  -0.03   0.02
   4   6     0.08   0.14  -0.12     0.05   0.03  -0.03     0.02   0.04  -0.04
   5   6    -0.01   0.01  -0.01    -0.01   0.02  -0.01    -0.01   0.03  -0.01
   6   6    -0.02  -0.02  -0.00     0.00  -0.00   0.01     0.12   0.05  -0.05
   7   6     0.00  -0.03  -0.01    -0.02  -0.00  -0.03    -0.13   0.03   0.02
   8   1     0.01  -0.06  -0.03    -0.01   0.05   0.02     0.05  -0.26  -0.08
   9   1     0.08  -0.01   0.01    -0.11   0.08  -0.13     0.30  -0.08   0.06
  10   1    -0.00   0.02   0.03    -0.02  -0.12  -0.12    -0.05   0.09   0.13
  11   1    -0.18   0.12  -0.21     0.32  -0.21   0.40     0.04  -0.02   0.03
  12   1    -0.08  -0.23  -0.19     0.15   0.42   0.32     0.02   0.03   0.01
  13   1    -0.15  -0.13   0.35    -0.10  -0.10   0.26    -0.00   0.04  -0.09
  14   1    -0.08  -0.39  -0.05    -0.07  -0.28  -0.04     0.01   0.09   0.01
  15   1    -0.09  -0.10   0.41    -0.07  -0.02   0.12    -0.03  -0.04   0.16
  16   1    -0.16  -0.40  -0.01    -0.06  -0.12  -0.00    -0.05  -0.16   0.00
  17   1     0.00  -0.01  -0.00     0.00  -0.01  -0.00     0.00   0.00  -0.00
  18   1     0.01   0.01  -0.05     0.01  -0.00  -0.00    -0.18  -0.08   0.33
  19   1     0.07   0.05   0.01    -0.01   0.00  -0.00    -0.22  -0.30  -0.03
  20   1     0.01  -0.02   0.06    -0.00  -0.01  -0.02    -0.03   0.17  -0.09
  21   1     0.00   0.02   0.01     0.02  -0.01   0.11     0.01   0.14   0.17
  22   1    -0.00   0.02   0.05    -0.03  -0.02  -0.01     0.16  -0.06  -0.30
  23   1    -0.01   0.06  -0.00     0.10   0.02   0.01     0.34  -0.22   0.06
                     43                     44                     45
                        a                      a                      a 
 Frequencies --  1499.1038              1503.4892              1505.6699
 Red. masses --     1.5587                 1.6100                 1.6570
 Frc consts  --     0.0000                 0.0000                 0.0000
 IR Inten    --     0.6322                 0.8325                 0.1577
 Raman Activ --     0.0000                 0.0000                 0.0000
 Depolar     --     0.0000                 0.0000                 0.0000
 Atom AN      X      Y      Z        X      Y      Z        X      Y      Z
   1   6     0.05  -0.04   0.02     0.10  -0.05   0.04     0.11  -0.02   0.04
   2   6     0.01  -0.00   0.00     0.05   0.00   0.02     0.06   0.01   0.04
   3   6     0.01   0.02  -0.01    -0.01  -0.03   0.01    -0.03  -0.08   0.04
   4   6    -0.01  -0.01   0.00     0.00   0.05  -0.04     0.03   0.05  -0.04
   5   6     0.01  -0.05  -0.01     0.06   0.03   0.02    -0.07   0.01  -0.00
   6   6     0.01  -0.06  -0.16     0.11   0.11   0.04    -0.05  -0.04   0.02
   7   6     0.00  -0.03   0.12     0.04  -0.05   0.03    -0.11   0.05  -0.02
   8   1    -0.03   0.16   0.05    -0.04   0.23   0.12    -0.03   0.18   0.17
   9   1    -0.18   0.05  -0.05    -0.34   0.11  -0.12    -0.35   0.13  -0.16
  10   1     0.03  -0.06  -0.09    -0.01  -0.15  -0.17    -0.08  -0.21  -0.18
  11   1     0.00  -0.00  -0.00    -0.05   0.03  -0.05    -0.07   0.04  -0.06
  12   1    -0.01   0.00   0.01    -0.04  -0.06  -0.02    -0.04  -0.08  -0.03
  13   1    -0.04  -0.01   0.05     0.02   0.03  -0.07     0.07   0.08  -0.20
  14   1    -0.01  -0.06  -0.01     0.01   0.07   0.01     0.05   0.21   0.03
  15   1     0.03  -0.00  -0.02    -0.04  -0.04   0.15    -0.04  -0.04   0.17
  16   1     0.00   0.03  -0.00    -0.03  -0.16   0.00    -0.05  -0.17  -0.00
  17   1    -0.01   0.05  -0.00    -0.02  -0.01   0.00     0.03  -0.00   0.00
  18   1    -0.39   0.05   0.20     0.07  -0.13   0.27     0.06   0.05  -0.18
  19   1     0.26  -0.13   0.01    -0.43  -0.28  -0.05     0.16   0.18   0.02
  20   1     0.05   0.34   0.41    -0.08  -0.02  -0.38     0.03  -0.08   0.10
  21   1    -0.08   0.20  -0.32    -0.04   0.02  -0.19     0.04   0.07   0.27
  22   1     0.27   0.09  -0.13     0.05   0.07   0.09     0.05  -0.10  -0.26
  23   1    -0.18  -0.13  -0.01    -0.20   0.06  -0.03     0.39  -0.18   0.07
                     46                     47                     48
                        a                      a                      a 
 Frequencies --  1507.2594              1510.3051              2912.3783
 Red. masses --     1.5616                 1.5350                 1.7427
 Frc consts  --     0.0000                 0.0000                 0.0000
 IR Inten    --     0.9204                 1.3845                96.6251
 Raman Activ --     0.0000                 0.0000                 0.0000
 Depolar     --     0.0000                 0.0000                 0.0000
 Atom AN      X      Y      Z        X      Y      Z        X      Y      Z
   1   6    -0.08  -0.19  -0.02    -0.02   0.01  -0.01     0.00  -0.00   0.00
   2   6    -0.04  -0.05  -0.02    -0.01   0.01  -0.01    -0.00   0.00  -0.00
   3   6     0.00  -0.01   0.01     0.02   0.02  -0.02     0.00   0.00  -0.01
   4   6     0.03   0.03  -0.02     0.00  -0.02   0.01    -0.00  -0.01  -0.01
   5   6    -0.02   0.01  -0.01    -0.04  -0.01   0.06    -0.03  -0.00   0.26
   6   6     0.00   0.00   0.01    -0.05   0.03   0.10     0.00  -0.00  -0.00
   7   6    -0.02   0.01  -0.00    -0.06  -0.05   0.15     0.00   0.00  -0.00
   8   1    -0.10   0.52  -0.26     0.01  -0.06  -0.02     0.00   0.00  -0.00
   9   1    -0.07  -0.14   0.30     0.07  -0.02   0.02     0.00  -0.00  -0.00
  10   1     0.53   0.39   0.05    -0.01   0.02   0.03    -0.00   0.00  -0.00
  11   1     0.05  -0.02   0.01     0.03  -0.01   0.02     0.00   0.00   0.00
  12   1     0.02   0.04   0.04     0.01   0.02   0.01     0.00  -0.00   0.00
  13   1     0.03   0.02  -0.04    -0.06  -0.03   0.08    -0.00  -0.01  -0.00
  14   1     0.00   0.04   0.00    -0.02  -0.08  -0.01    -0.01   0.00   0.02
  15   1    -0.03  -0.02   0.09    -0.00   0.02  -0.06     0.01   0.05   0.01
  16   1    -0.08  -0.09  -0.01     0.04   0.06   0.00    -0.01  -0.00   0.04
  17   1     0.02  -0.00   0.00     0.02   0.01   0.02     0.11   0.01  -0.96
  18   1     0.02  -0.00  -0.01     0.30  -0.00  -0.23     0.01   0.02   0.01
  19   1    -0.01   0.01   0.00    -0.08   0.19   0.00    -0.00  -0.00   0.03
  20   1    -0.00  -0.02  -0.02    -0.02  -0.28  -0.20    -0.02  -0.00   0.00
  21   1     0.01   0.02   0.05    -0.10   0.37  -0.33    -0.02  -0.00   0.00
  22   1     0.02  -0.02  -0.05     0.43   0.10  -0.30     0.01  -0.01   0.01
  23   1     0.07  -0.03   0.01    -0.08  -0.27   0.01    -0.00   0.00   0.03
                     49                     50                     51
                        a                      a                      a 
 Frequencies --  2952.1134              2954.9930              2957.5330
 Red. masses --     1.8581                 1.9560                 1.8250
 Frc consts  --     0.0000                 0.0000                 0.0000
 IR Inten    --    26.5578                75.9084               108.7693
 Raman Activ --     0.0000                 0.0000                 0.0000
 Depolar     --     0.0000                 0.0000                 0.0000
 Atom AN      X      Y      Z        X      Y      Z        X      Y      Z
   1   6     0.00   0.00   0.00     0.01  -0.01   0.00     0.00   0.00   0.00
   2   6     0.03  -0.04   0.02    -0.08   0.27  -0.04     0.02  -0.00   0.03
   3   6     0.04  -0.05  -0.20    -0.00  -0.03  -0.05     0.04  -0.02  -0.16
   4   6     0.03   0.14   0.10     0.00   0.01   0.02    -0.04  -0.18  -0.11
   5   6     0.00   0.00   0.01    -0.00   0.00   0.00    -0.00  -0.01  -0.02
   6   6    -0.00  -0.00  -0.00    -0.00  -0.00   0.00     0.00   0.01   0.00
   7   6     0.00   0.00  -0.00    -0.00   0.00  -0.00    -0.01   0.00   0.00
   8   1    -0.00   0.00  -0.00    -0.01  -0.01   0.00     0.00   0.00  -0.00
   9   1    -0.00  -0.01  -0.00     0.01   0.04   0.02    -0.00  -0.00  -0.00
  10   1     0.00  -0.01   0.01    -0.02   0.03  -0.03     0.00  -0.00   0.00
  11   1     0.00   0.00   0.01    -0.09  -0.56  -0.25    -0.01  -0.10  -0.03
  12   1    -0.11   0.14  -0.12     0.37  -0.43   0.40    -0.08   0.10  -0.08
  13   1     0.04   0.23   0.08     0.03   0.17   0.07     0.02   0.07   0.01
  14   1    -0.17  -0.04   0.65    -0.03  -0.01   0.10    -0.15  -0.03   0.55
  15   1    -0.14  -0.51  -0.16    -0.01  -0.04  -0.01     0.18   0.67   0.22
  16   1     0.04   0.01  -0.23     0.01  -0.00  -0.05    -0.03  -0.01   0.15
  17   1     0.00   0.00  -0.02    -0.00   0.00  -0.00    -0.01  -0.00   0.05
  18   1     0.00   0.01   0.00     0.00   0.00   0.00    -0.01  -0.02  -0.01
  19   1    -0.00   0.00   0.00     0.00   0.00  -0.00    -0.00  -0.00   0.01
  20   1     0.00   0.00  -0.00     0.00   0.00  -0.00    -0.00   0.00   0.00
  21   1    -0.01   0.00   0.00     0.00   0.00  -0.00     0.01  -0.00  -0.00
  22   1     0.00  -0.00   0.00     0.00  -0.00   0.00     0.00  -0.00   0.00
  23   1    -0.00  -0.00   0.01    -0.00   0.00   0.00     0.00   0.00  -0.01
                     52                     53                     54
                        a                      a                      a 
 Frequencies --  2974.4383              2981.2197              2983.2151
 Red. masses --     1.5170                 1.5862                 1.6289
 Frc consts  --     0.0000                 0.0000                 0.0000
 IR Inten    --   116.2977               104.2259                82.7508
 Raman Activ --     0.0000                 0.0000                 0.0000
 Depolar     --     0.0000                 0.0000                 0.0000
 Atom AN      X      Y      Z        X      Y      Z        X      Y      Z
   1   6    -0.02  -0.01  -0.00     0.01  -0.01   0.00     0.00   0.01   0.00
   2   6     0.10   0.07   0.16    -0.01   0.02  -0.01     0.01  -0.04   0.01
   3   6    -0.01   0.02   0.06     0.02   0.06  -0.02    -0.04  -0.21  -0.04
   4   6     0.00   0.02   0.00     0.05   0.06  -0.20     0.01  -0.01  -0.08
   5   6    -0.00   0.00   0.00     0.00   0.00  -0.01     0.00  -0.00  -0.00
   6   6     0.00  -0.00   0.00    -0.01  -0.01   0.01     0.00  -0.00   0.00
   7   6     0.00  -0.00  -0.00    -0.00  -0.00   0.01    -0.01   0.01  -0.00
   8   1     0.07   0.01   0.00    -0.01  -0.00   0.00     0.00   0.00   0.00
   9   1     0.00   0.04   0.02     0.00   0.01   0.00    -0.01  -0.02  -0.01
  10   1     0.00  -0.02   0.01    -0.01   0.02  -0.02    -0.00   0.00  -0.00
  11   1    -0.07  -0.68  -0.25    -0.00  -0.02  -0.01     0.01   0.04   0.02
  12   1    -0.31   0.41  -0.32     0.03  -0.04   0.03    -0.06   0.08  -0.07
  13   1    -0.01  -0.08  -0.03    -0.03  -0.21  -0.11     0.10   0.78   0.38
  14   1     0.05   0.01  -0.18    -0.04   0.00   0.17     0.06  -0.02  -0.25
  15   1    -0.01  -0.06  -0.02    -0.07  -0.27  -0.12     0.01   0.01  -0.01
  16   1    -0.00   0.00   0.01    -0.11   0.07   0.86    -0.04   0.02   0.30
  17   1     0.00   0.00  -0.01     0.00   0.00   0.02     0.00  -0.00  -0.00
  18   1     0.00   0.00   0.00     0.01   0.02   0.01     0.00   0.00   0.00
  19   1     0.00   0.00  -0.00     0.00  -0.00  -0.03     0.00   0.00  -0.02
  20   1    -0.00  -0.00   0.00     0.02   0.00  -0.00    -0.01  -0.00   0.00
  21   1    -0.01  -0.00   0.00     0.00   0.00   0.00     0.01   0.00  -0.00
  22   1    -0.00   0.00   0.00    -0.00   0.00  -0.00     0.02  -0.02   0.01
  23   1    -0.00   0.00  -0.00     0.00   0.00  -0.02     0.00   0.00  -0.01
                     55                     56                     57
                        a                      a                      a 
 Frequencies --  3021.9061              3023.1144              3024.3858
 Red. masses --     1.9231                 1.9464                 1.9248
 Frc consts  --     0.0000                 0.0000                 0.0000
 IR Inten    --    17.5809                72.1503               134.6402
 Raman Activ --     0.0000                 0.0000                 0.0000
 Depolar     --     0.0000                 0.0000                 0.0000
 Atom AN      X      Y      Z        X      Y      Z        X      Y      Z
   1   6    -0.00  -0.00  -0.00     0.02   0.01   0.01    -0.02  -0.02  -0.01
   2   6    -0.00  -0.00  -0.00     0.00   0.00   0.00    -0.00  -0.00  -0.00
   3   6    -0.00  -0.00  -0.00    -0.00  -0.00  -0.00    -0.00  -0.00   0.00
   4   6     0.00   0.00  -0.00    -0.00  -0.00  -0.00    -0.00  -0.00   0.01
   5   6    -0.00  -0.00  -0.01     0.00  -0.00  -0.02    -0.01  -0.00   0.02
   6   6     0.00  -0.09  -0.23    -0.10  -0.11  -0.08    -0.21  -0.11   0.12
   7   6    -0.04  -0.02   0.14     0.19  -0.02  -0.14    -0.03  -0.01   0.11
   8   1     0.01   0.00  -0.00    -0.04  -0.01  -0.00     0.07   0.01   0.00
   9   1     0.00   0.01   0.00    -0.01  -0.04  -0.02     0.01   0.05   0.02
  10   1     0.00  -0.00   0.00    -0.00   0.01  -0.01     0.00  -0.01   0.01
  11   1    -0.00   0.00   0.00    -0.00  -0.00  -0.00     0.00   0.01   0.00
  12   1     0.00  -0.00   0.00    -0.00   0.00  -0.00    -0.00  -0.00   0.00
  13   1     0.00   0.00   0.00     0.00   0.01   0.01     0.00   0.01   0.00
  14   1     0.00  -0.00  -0.00     0.00  -0.00  -0.00    -0.00  -0.00  -0.00
  15   1    -0.00  -0.00  -0.00     0.01   0.02   0.01     0.01   0.02   0.01
  16   1    -0.00   0.00   0.00    -0.00  -0.00   0.01     0.01  -0.00  -0.04
  17   1    -0.00   0.00   0.01    -0.00  -0.00   0.03     0.01   0.00  -0.03
  18   1     0.15   0.38   0.14     0.13   0.38   0.16     0.09   0.31   0.16
  19   1    -0.08  -0.03   0.67    -0.04  -0.02   0.20     0.02  -0.01  -0.45
  20   1    -0.08  -0.03  -0.02     0.25   0.02  -0.08     0.63   0.08  -0.14
  21   1     0.13   0.01  -0.00    -0.60  -0.05   0.10     0.10   0.01  -0.00
  22   1    -0.05   0.06  -0.02    -0.03   0.10  -0.08    -0.03   0.04  -0.01
  23   1     0.07  -0.01  -0.49    -0.05   0.01   0.47     0.05  -0.01  -0.37
                     58                     59                     60
                        a                      a                      a 
 Frequencies --  3025.7818              3029.4427              3030.8112
 Red. masses --     1.9380                 1.7240                 1.7572
 Frc consts  --     0.0000                 0.0000                 0.0000
 IR Inten    --    93.4009                90.0938                77.0630
 Raman Activ --     0.0000                 0.0000                 0.0000
 Depolar     --     0.0000                 0.0000                 0.0000
 Atom AN      X      Y      Z        X      Y      Z        X      Y      Z
   1   6     0.19   0.20   0.08     0.00  -0.01  -0.00    -0.19   0.17   0.00
   2   6     0.01   0.02   0.01    -0.00  -0.00  -0.00    -0.01   0.02  -0.01
   3   6    -0.00   0.00   0.01    -0.00  -0.00  -0.00     0.00   0.00  -0.00
   4   6    -0.00   0.00   0.00    -0.00  -0.00   0.00     0.00   0.00  -0.00
   5   6    -0.00  -0.00   0.00     0.01   0.00   0.01     0.00   0.00  -0.00
   6   6    -0.01  -0.00   0.01     0.04   0.09   0.05     0.00   0.01  -0.00
   7   6    -0.01  -0.00   0.03     0.18  -0.04   0.14     0.01  -0.00   0.00
   8   1    -0.59  -0.09  -0.00    -0.00  -0.00  -0.00     0.66   0.16   0.01
   9   1    -0.09  -0.66  -0.29     0.01   0.04   0.02    -0.12  -0.52  -0.24
  10   1     0.01   0.05  -0.01    -0.01   0.01  -0.01     0.15  -0.25   0.22
  11   1    -0.01  -0.07  -0.02     0.00   0.00   0.00    -0.00  -0.01  -0.00
  12   1    -0.01   0.02  -0.01    -0.00  -0.00   0.00     0.04  -0.04   0.04
  13   1    -0.00  -0.02  -0.01     0.00   0.01   0.01    -0.00  -0.01  -0.00
  14   1     0.01   0.00  -0.02     0.00  -0.00  -0.00    -0.00  -0.00   0.01
  15   1     0.00  -0.00   0.00    -0.00  -0.00  -0.00    -0.00  -0.00  -0.00
  16   1     0.00   0.00  -0.01     0.00   0.00   0.00    -0.00   0.00   0.02
  17   1     0.00   0.00  -0.01     0.00   0.00  -0.02    -0.00   0.00   0.00
  18   1    -0.00  -0.00   0.00    -0.12  -0.33  -0.15    -0.01  -0.03  -0.01
  19   1     0.00   0.00  -0.05     0.01   0.01  -0.04    -0.00   0.00   0.02
  20   1     0.04   0.01  -0.01    -0.04   0.01   0.02     0.01   0.00  -0.00
  21   1     0.03   0.00  -0.00    -0.63  -0.06   0.14    -0.03  -0.00   0.01
  22   1    -0.01   0.01  -0.00    -0.12   0.23  -0.12    -0.00   0.00  -0.00
  23   1     0.01  -0.00  -0.09     0.11  -0.02  -0.51     0.00  -0.00  -0.01
                     61                     62                     63
                        a                      a                      a 
 Frequencies --  3036.2790              3045.8695              3046.6916
 Red. masses --     1.2781                 1.4467                 1.4627
 Frc consts  --     0.0000                 0.0000                 0.0000
 IR Inten    --    64.8878                80.5016                20.1484
 Raman Activ --     0.0000                 0.0000                 0.0000
 Depolar     --     0.0000                 0.0000                 0.0000
 Atom AN      X      Y      Z        X      Y      Z        X      Y      Z
   1   6    -0.01   0.01  -0.00     0.03  -0.11   0.13    -0.02   0.06  -0.07
   2   6    -0.00   0.00  -0.00     0.00  -0.01   0.01    -0.00   0.01  -0.00
   3   6     0.00   0.00  -0.00     0.00  -0.00   0.00    -0.00  -0.01  -0.00
   4   6    -0.00  -0.00   0.00    -0.00  -0.00   0.00     0.00  -0.00  -0.00
   5   6     0.01  -0.00   0.00     0.00  -0.00   0.00     0.00  -0.00   0.01
   6   6     0.11  -0.10   0.03    -0.00   0.00   0.00    -0.00   0.01   0.00
   7   6     0.04  -0.02   0.03     0.02  -0.09   0.03     0.04  -0.17   0.06
   8   1     0.02   0.00   0.00     0.29   0.04   0.02    -0.14  -0.02  -0.01
   9   1    -0.00  -0.01  -0.01    -0.03  -0.20  -0.06     0.01   0.10   0.03
  10   1     0.01  -0.01   0.01    -0.37   0.55  -0.44     0.19  -0.29   0.23
  11   1     0.00   0.00   0.00     0.00   0.01   0.01    -0.00  -0.01  -0.00
  12   1     0.00  -0.00   0.00    -0.01   0.02  -0.01     0.01  -0.01   0.00
  13   1    -0.00  -0.00  -0.00     0.00   0.01   0.00     0.00   0.02   0.01
  14   1    -0.00  -0.00   0.01     0.00  -0.00  -0.00    -0.00  -0.00  -0.00
  15   1     0.00   0.01   0.01     0.00   0.00   0.00    -0.00  -0.00  -0.00
  16   1     0.00  -0.00  -0.01     0.00  -0.00  -0.02    -0.00   0.00   0.02
  17   1     0.00  -0.00   0.01     0.00  -0.00  -0.01     0.00  -0.00  -0.02
  18   1     0.18   0.45   0.21    -0.01  -0.02  -0.01    -0.02  -0.05  -0.02
  19   1     0.06  -0.00  -0.48    -0.00   0.00   0.00    -0.00   0.00   0.01
  20   1    -0.63  -0.10   0.16     0.01   0.00  -0.00     0.03   0.01  -0.01
  21   1    -0.10  -0.01   0.03     0.15  -0.00  -0.02     0.27  -0.00  -0.04
  22   1    -0.05   0.09  -0.05    -0.20   0.31  -0.18    -0.39   0.60  -0.35
  23   1     0.02  -0.01  -0.08    -0.01  -0.01   0.09    -0.02  -0.02   0.18
