! r2scan-3c def2/J RI DEFGRID2 scfconv6 printgap
%output
    printlevel normal
end
* xyz 0 1
C -3.3283640603 -1.0988697964 0.2640515634
C -1.9455588053 -0.7413128257 -0.2652616693
C -1.3521591739 0.4534276475 0.4964411068
C -0.0011212679 0.7874024703 -0.0751057058
O 0.2105179062 1.6528657172 -0.9010402589
O 0.9423370513 -0.0104042388 0.402112753
C 2.2816109735 0.1400077058 -0.0993884111
C 3.0504424156 -1.1322063558 0.2025557291
H -4.0092552637 -0.2594775056 0.1492543423
H -3.730442619 -1.9466337726 -0.2837525435
H -3.2764260072 -1.3603250661 1.3176119246
H -2.0090297251 -0.4904854874 -1.3262589436
H -1.2762328349 -1.5965710414 -0.1581653768
H -1.2394259316 0.1946479664 1.5485434316
H -2.0008835863 1.3221882776 0.3892115079
H 2.2291738836 0.3436695294 -1.1739121451
H 2.7322559487 1.007191707 0.3938246981
H 3.0531580609 -1.3176403049 1.2724368206
H 2.588622784 -1.9778222581 -0.2986646872
H 4.0721871075 -1.024880811 -0.1461592297
*
