! r2scan-3c def2/J RI DEFGRID2 scfconv6 printgap
%output
    printlevel normal
end
%cpcm
    smd true
    smdsolvent "water"
end
* xyz 0 1
C -2.3354078935 -1.2112612595 -0.608264917
C -2.0062404186 -0.5606351956 0.7298106486
C -1.4381455975 0.8521032116 0.5487687355
C -0.1166417201 0.8264361315 -0.1757549988
O 0.107300203 1.3883697945 -1.2295176611
O 0.7890547626 0.1128306967 0.4758766481
C 2.0982205362 -0.0256420816 -0.0998184775
C 2.7302401431 -1.2936270054 0.4431140537
H -3.0770195196 -0.6248120149 -1.1456749324
H -1.4456072857 -1.2800165738 -1.2316333657
H -2.7289987919 -2.2128785417 -0.45751693
H -1.2774912014 -1.167881339 1.2679486142
H -2.9112972243 -0.4953457687 1.3344915596
H -1.2712271211 1.3039080775 1.527364393
H -2.1253443208 1.47389168 -0.025003732
H 1.9988370036 -0.0503202531 -1.1900102955
H 2.6813436752 0.8592511863 0.174278821
H 2.1437281643 -2.1607431522 0.1531504313
H 3.7343494089 -1.3927716573 0.0442538344
H 2.7768971628 -1.2482672203 1.5270469949
*
