 Entering Gaussian System
 *********************************************
 Gaussian 98:
 frequency output generated by the xtb code
 *********************************************
                         Standard orientation:
 --------------------------------------------------------------------
  Center     Atomic     Atomic              Coordinates (Angstroms)
  Number     Number      Type              X           Y           Z
 --------------------------------------------------------------------
    1          6             0        2.954357    0.271228   -0.667404
    2          6             0        1.642095   -0.319910   -0.165899
    3          6             0        0.862960    0.680473    0.685929
    4          6             0       -0.465750    0.096843    1.177761
    5          6             0       -1.413398   -0.245308    0.054870
    6          8             0       -1.862875   -1.367681   -0.083835
    7          6             0       -1.774956    0.877688   -0.872617
    8          1             0        3.582671    0.564939    0.170109
    9          1             0        3.496671   -0.456720   -1.265275
   10          1             0        2.768286    1.149597   -1.281069
   11          1             0        1.848048   -1.213873    0.426962
   12          1             0        1.031081   -0.632165   -1.016802
   13          1             0        0.681397    1.588487    0.110597
   14          1             0        1.464572    0.951884    1.555154
   15          1             0       -0.281975   -0.808215    1.760258
   16          1             0       -0.963804    0.826839    1.818837
   17          1             0       -1.903499    1.806371   -0.326255
   18          1             0       -0.966377    1.009555   -1.589128
   19          1             0       -2.679070    0.628072   -1.421308
 --------------------------------------------------------------------
     1 basis functions        1 primitive gaussians
     1 alpha electrons        1 beta electrons
 
 Harmonic frequencies (cm**-1), IR intensities (km*mol⁻¹),
 Raman scattering activities (A**4/amu), Raman depolarization ratios,
 reduced masses (AMU), force constants (mDyne/A) and normal coordinates:
                      1                      2                      3
                        a                      a                      a 
 Frequencies --    47.6648                73.8242                93.1094
 Red. masses --    11.7985                 8.3522                 5.7323
 Frc consts  --     0.0000                 0.0000                 0.0000
 IR Inten    --     8.1098                 0.4447                 0.1491
 Raman Activ --     0.0000                 0.0000                 0.0000
 Depolar     --     0.0000                 0.0000                 0.0000
 Atom AN      X      Y      Z        X      Y      Z        X      Y      Z
   1   6    -0.01   0.29  -0.07    -0.37   0.05  -0.37    -0.15  -0.07  -0.04
   2   6     0.11   0.07  -0.02    -0.02  -0.14   0.33    -0.31   0.12  -0.24
   3   6     0.02  -0.09   0.08    -0.02  -0.05   0.23     0.02  -0.01   0.21
   4   6     0.05  -0.23  -0.02    -0.09   0.03   0.13    -0.06   0.11   0.13
   5   6    -0.04  -0.06   0.01     0.10   0.03  -0.03     0.10  -0.01   0.02
   6   8    -0.59   0.11   0.27     0.21   0.02  -0.20     0.16  -0.03   0.10
   7   6     0.39  -0.10  -0.21     0.22   0.06  -0.05     0.25  -0.11  -0.16
   8   1    -0.00   0.10  -0.03    -0.06   0.19  -0.21     0.01  -0.21   0.02
   9   1     0.02   0.12  -0.04    -0.09  -0.02  -0.06    -0.13   0.02  -0.14
  10   1    -0.05   0.08  -0.01    -0.25  -0.09  -0.21     0.03   0.09   0.13
  11   1     0.08   0.02  -0.02     0.13   0.04   0.17    -0.16  -0.06  -0.18
  12   1     0.03   0.01  -0.00    -0.07  -0.18   0.19    -0.12   0.19  -0.10
  13   1    -0.00  -0.01   0.05     0.02  -0.02   0.04     0.05   0.07   0.16
  14   1    -0.00  -0.05   0.04    -0.02  -0.00   0.07     0.05  -0.13   0.07
  15   1     0.02  -0.09  -0.04    -0.06   0.01   0.05    -0.05   0.04   0.07
  16   1     0.01  -0.10   0.03    -0.04   0.02   0.01    -0.03   0.05   0.00
  17   1     0.19   0.01  -0.11     0.07   0.02  -0.02    -0.20  -0.08  -0.03
  18   1     0.14  -0.14  -0.05     0.08  -0.00  -0.00     0.22   0.14   0.15
  19   1     0.10   0.03  -0.06     0.07   0.03  -0.03     0.23  -0.15  -0.26
                      4                      5                      6
                        a                      a                      a 
 Frequencies --   123.2401               221.1454               244.5446
 Red. masses --     3.2723                 4.2256                 6.3088
 Frc consts  --     0.0000                 0.0000                 0.0000
 IR Inten    --     1.1830                 0.8565                 0.9149
 Raman Activ --     0.0000                 0.0000                 0.0000
 Depolar     --     0.0000                 0.0000                 0.0000
 Atom AN      X      Y      Z        X      Y      Z        X      Y      Z
   1   6    -0.10  -0.04   0.04    -0.02  -0.10   0.06    -0.01   0.21   0.08
   2   6    -0.21   0.08  -0.12    -0.22   0.14  -0.17     0.04  -0.19  -0.22
   3   6    -0.07   0.04   0.05    -0.15   0.15  -0.12     0.19  -0.38   0.14
   4   6    -0.05   0.03   0.11     0.04  -0.11   0.07    -0.10   0.18   0.02
   5   6     0.07  -0.01   0.04     0.06  -0.07   0.07    -0.05   0.11   0.00
   6   8     0.20  -0.05  -0.05     0.01  -0.04  -0.05     0.11   0.05   0.10
   7   6     0.17  -0.04  -0.03     0.25   0.04   0.12    -0.18  -0.03  -0.12
   8   1    -0.00  -0.13   0.04    -0.22   0.32   0.05    -0.18   0.30   0.07
   9   1    -0.08   0.01  -0.06     0.19  -0.21   0.41     0.21   0.06   0.22
  10   1     0.02   0.06   0.10     0.06  -0.27  -0.34    -0.06  -0.07  -0.14
  11   1    -0.11  -0.02  -0.09    -0.13   0.02  -0.05     0.02  -0.11  -0.16
  12   1    -0.07   0.10  -0.06    -0.04   0.08  -0.08     0.02   0.03  -0.10
  13   1    -0.03   0.02   0.04    -0.10   0.04  -0.03     0.16  -0.03   0.13
  14   1     0.01  -0.02   0.00    -0.01   0.06  -0.06     0.08  -0.26   0.07
  15   1    -0.01   0.02   0.04     0.08  -0.05  -0.02    -0.15   0.08   0.09
  16   1    -0.03   0.01   0.02    -0.00  -0.09   0.07     0.03   0.16  -0.08
  17   1     0.51   0.11  -0.11     0.05  -0.01   0.06    -0.01   0.03  -0.08
  18   1    -0.15  -0.38  -0.30     0.11   0.03   0.08    -0.08  -0.06  -0.08
  19   1    -0.20   0.18   0.31     0.10   0.04  -0.02    -0.08  -0.03   0.02
                      7                      8                      9
                        a                      a                      a 
 Frequencies --   277.5716               388.3706               429.3192
 Red. masses --     7.8218                 8.3002                 9.2815
 Frc consts  --     0.0000                 0.0000                 0.0000
 IR Inten    --     0.7449                 1.8202                 2.3062
 Raman Activ --     0.0000                 0.0000                 0.0000
 Depolar     --     0.0000                 0.0000                 0.0000
 Atom AN      X      Y      Z        X      Y      Z        X      Y      Z
   1   6    -0.15   0.20   0.19    -0.27   0.02   0.18     0.27  -0.03  -0.15
   2   6    -0.02  -0.32  -0.11    -0.18  -0.14   0.04     0.16   0.10  -0.07
   3   6    -0.17  -0.17  -0.44     0.05   0.03  -0.04    -0.21  -0.13  -0.01
   4   6    -0.06   0.09   0.11     0.31  -0.26  -0.00    -0.16  -0.14   0.38
   5   6    -0.02   0.02   0.15     0.20   0.22  -0.04    -0.24   0.24   0.33
   6   8     0.11  -0.00  -0.01     0.16   0.27   0.12     0.15   0.17  -0.18
   7   6     0.26   0.09   0.13    -0.17  -0.04  -0.25    -0.06  -0.10  -0.16
   8   1    -0.08  -0.02   0.11    -0.12   0.02   0.08     0.11  -0.02  -0.07
   9   1     0.02   0.20  -0.06    -0.01   0.06   0.04     0.02  -0.07  -0.03
  10   1    -0.11   0.14   0.19    -0.11   0.02   0.08     0.12  -0.02  -0.07
  11   1     0.04  -0.05   0.02    -0.06  -0.03   0.03     0.07   0.03  -0.02
  12   1     0.06  -0.17  -0.05    -0.06  -0.04   0.02     0.08   0.00  -0.03
  13   1    -0.10  -0.13  -0.24    -0.04  -0.02  -0.04    -0.16  -0.07  -0.02
  14   1    -0.01   0.10  -0.20     0.05   0.06  -0.05    -0.04   0.04  -0.04
  15   1    -0.02   0.07   0.10     0.15  -0.20  -0.21    -0.05  -0.10   0.02
  16   1     0.04   0.10  -0.01     0.09  -0.24   0.19     0.06  -0.05   0.20
  17   1     0.03   0.01   0.05    -0.13   0.02  -0.14    -0.08   0.07  -0.23
  18   1     0.14   0.03   0.11    -0.10   0.02  -0.13     0.04  -0.17  -0.00
  19   1     0.12   0.05  -0.05    -0.05  -0.17   0.00     0.04  -0.15  -0.09
                     10                     11                     12
                        a                      a                      a 
 Frequencies --   508.3553               570.7336               773.2933
 Red. masses --    11.2447                 8.1383                 3.8051
 Frc consts  --     0.0000                 0.0000                 0.0000
 IR Inten    --    23.0388                 2.0531                14.9083
 Raman Activ --     0.0000                 0.0000                 0.0000
 Depolar     --     0.0000                 0.0000                 0.0000
 Atom AN      X      Y      Z        X      Y      Z        X      Y      Z
   1   6    -0.06   0.01   0.04    -0.12  -0.01   0.07     0.01   0.01  -0.03
   2   6    -0.04  -0.03  -0.00    -0.04  -0.05   0.04    -0.08   0.05  -0.15
   3   6     0.18   0.10   0.00     0.27   0.18  -0.02    -0.19   0.01  -0.13
   4   6     0.20   0.14   0.22     0.17   0.11  -0.21    -0.12   0.04  -0.15
   5   6     0.22  -0.12   0.16    -0.51   0.05   0.27     0.14   0.07   0.04
   6   8    -0.38   0.19  -0.49     0.05  -0.16  -0.19     0.03   0.17   0.00
   7   6    -0.03  -0.31   0.11    -0.03  -0.05   0.06     0.08  -0.17   0.17
   8   1    -0.04   0.01   0.02    -0.06   0.01   0.03    -0.09  -0.11   0.10
   9   1     0.01   0.03   0.01     0.00   0.04   0.01     0.02  -0.03   0.05
  10   1    -0.03   0.01   0.02    -0.07   0.01   0.04     0.19   0.06   0.02
  11   1    -0.03  -0.02  -0.01    -0.03  -0.00   0.04     0.19   0.25   0.26
  12   1    -0.03   0.02   0.00    -0.04  -0.02   0.03     0.04  -0.41   0.07
  13   1     0.03   0.00  -0.03     0.21   0.11   0.06     0.12   0.22   0.26
  14   1     0.09   0.07  -0.04     0.06  -0.09   0.05    -0.02  -0.39   0.07
  15   1     0.06   0.14   0.21     0.16  -0.02  -0.16     0.03  -0.02  -0.10
  16   1     0.02   0.14  -0.07     0.12  -0.05   0.09    -0.04  -0.05   0.02
  17   1    -0.10  -0.05  -0.05     0.08   0.08  -0.13    -0.01  -0.04   0.02
  18   1    -0.08  -0.07  -0.04     0.19  -0.27   0.18    -0.01  -0.04   0.01
  19   1    -0.01  -0.26   0.11     0.07   0.08  -0.16     0.01  -0.14   0.10
                     13                     14                     15
                        a                      a                      a 
 Frequencies --   814.6784               848.5245               906.6615
 Red. masses --     7.5623                 5.0539                 4.5342
 Frc consts  --     0.0000                 0.0000                 0.0000
 IR Inten    --     3.4337                 0.7653                 3.6495
 Raman Activ --     0.0000                 0.0000                 0.0000
 Depolar     --     0.0000                 0.0000                 0.0000
 Atom AN      X      Y      Z        X      Y      Z        X      Y      Z
   1   6    -0.01  -0.01   0.06     0.16  -0.03  -0.03     0.06  -0.00  -0.20
   2   6     0.05   0.03   0.16     0.08  -0.25  -0.01    -0.01  -0.15  -0.11
   3   6    -0.15  -0.11  -0.05    -0.06   0.19  -0.02     0.10   0.10   0.28
   4   6    -0.09  -0.06  -0.45    -0.26   0.30   0.17    -0.16   0.06  -0.10
   5   6     0.11   0.16   0.09     0.01  -0.01  -0.06     0.02   0.08  -0.12
   6   8     0.10   0.26   0.02    -0.05   0.01  -0.04     0.03   0.11   0.02
   7   6     0.09  -0.22   0.32     0.09  -0.16  -0.01    -0.03  -0.17   0.18
   8   1     0.15   0.10  -0.14     0.08   0.12  -0.08    -0.26  -0.12   0.20
   9   1    -0.10  -0.02  -0.05     0.11   0.13  -0.11     0.25   0.09   0.05
  10   1    -0.17  -0.07  -0.03    -0.21  -0.03   0.03     0.22   0.11   0.04
  11   1    -0.17  -0.14  -0.13    -0.14  -0.15  -0.07     0.19  -0.05  -0.11
  12   1     0.07   0.26  -0.09     0.09   0.08  -0.11    -0.24  -0.04   0.14
  13   1     0.02  -0.05  -0.06     0.18   0.10   0.01    -0.07  -0.15  -0.18
  14   1    -0.18  -0.00   0.08    -0.01  -0.07   0.03    -0.03   0.34   0.01
  15   1    -0.08  -0.01  -0.09     0.17  -0.08  -0.27    -0.10  -0.06  -0.13
  16   1    -0.04   0.02  -0.17    -0.10  -0.23   0.37    -0.18  -0.11   0.01
  17   1    -0.01   0.02  -0.07     0.04  -0.15   0.18     0.06  -0.02   0.01
  18   1     0.05  -0.18   0.10    -0.07   0.14  -0.07     0.08  -0.15   0.12
  19   1     0.07  -0.20   0.08    -0.04  -0.00   0.08     0.03  -0.01  -0.03
                     16                     17                     18
                        a                      a                      a 
 Frequencies --   933.6700               974.9624              1001.8575
 Red. masses --     4.9003                 5.5194                 4.2484
 Frc consts  --     0.0000                 0.0000                 0.0000
 IR Inten    --     1.4526                25.7542                18.4104
 Raman Activ --     0.0000                 0.0000                 0.0000
 Depolar     --     0.0000                 0.0000                 0.0000
 Atom AN      X      Y      Z        X      Y      Z        X      Y      Z
   1   6    -0.20   0.13   0.08     0.02  -0.05  -0.10    -0.08   0.15   0.02
   2   6     0.00   0.20   0.09     0.02  -0.02   0.03     0.02  -0.08   0.03
   3   6     0.10  -0.29  -0.05     0.03   0.08   0.02    -0.07  -0.06  -0.01
   4   6    -0.00   0.20  -0.03    -0.06  -0.12  -0.21    -0.07   0.16   0.02
   5   6    -0.13   0.07  -0.02    -0.23   0.01   0.34     0.18  -0.17   0.05
   6   8     0.00   0.04  -0.05     0.04  -0.11  -0.03    -0.08  -0.15   0.01
   7   6     0.11  -0.25  -0.03     0.33   0.14  -0.11    -0.02   0.33   0.06
   8   1     0.04  -0.11   0.00    -0.14  -0.03   0.09     0.05  -0.08  -0.01
   9   1    -0.29  -0.24   0.14     0.16   0.09  -0.01    -0.19  -0.16   0.09
  10   1     0.25   0.01  -0.10     0.02   0.04   0.05     0.22   0.02  -0.09
  11   1     0.18   0.01  -0.10     0.02  -0.03  -0.04     0.18  -0.10  -0.16
  12   1    -0.03   0.07   0.04    -0.15   0.06   0.09     0.01   0.04  -0.02
  13   1     0.07  -0.16  -0.16     0.06   0.00  -0.04     0.24  -0.05  -0.14
  14   1     0.00   0.05  -0.04    -0.17   0.04   0.12    -0.07  -0.03   0.04
  15   1    -0.01  -0.06  -0.18     0.01   0.03   0.03     0.29   0.05  -0.08
  16   1     0.23   0.02   0.20     0.08   0.06  -0.08    -0.24  -0.17   0.08
  17   1     0.07  -0.21   0.26    -0.17  -0.01  -0.00    -0.13   0.26  -0.32
  18   1    -0.06   0.16  -0.06    -0.23   0.32  -0.31    -0.01  -0.10  -0.03
  19   1    -0.05   0.05   0.06    -0.02  -0.26   0.27     0.06  -0.18   0.02
                     19                     20                     21
                        a                      a                      a 
 Frequencies --  1052.8731              1090.8799              1094.7204
 Red. masses --     7.0023                 7.0514                 6.3906
 Frc consts  --     0.0000                 0.0000                 0.0000
 IR Inten    --     8.8066                13.1106                 5.1056
 Raman Activ --     0.0000                 0.0000                 0.0000
 Depolar     --     0.0000                 0.0000                 0.0000
 Atom AN      X      Y      Z        X      Y      Z        X      Y      Z
   1   6     0.18   0.04  -0.16    -0.35  -0.18   0.05     0.20   0.29   0.02
   2   6    -0.14  -0.08   0.15     0.46   0.05  -0.13    -0.30  -0.29   0.02
   3   6    -0.44  -0.17   0.07    -0.06   0.16  -0.06     0.05   0.14   0.04
   4   6     0.35   0.15  -0.06    -0.04  -0.16   0.07     0.04  -0.20  -0.05
   5   6     0.09  -0.05   0.07     0.03   0.02   0.15    -0.13   0.08   0.19
   6   8    -0.02   0.05  -0.04     0.06   0.14  -0.00     0.09   0.13  -0.01
   7   6    -0.13  -0.04  -0.12    -0.10  -0.09  -0.15    -0.00  -0.11  -0.14
   8   1    -0.06  -0.01   0.05    -0.17  -0.09   0.09     0.23   0.02  -0.11
   9   1     0.16   0.07  -0.02    -0.05  -0.04   0.05    -0.15  -0.11   0.03
  10   1     0.10   0.06   0.01    -0.06  -0.02   0.04     0.19   0.01  -0.13
  11   1    -0.02  -0.09  -0.06     0.21  -0.05  -0.17    -0.04  -0.07  -0.00
  12   1    -0.14   0.06   0.08     0.13   0.09  -0.07    -0.02  -0.10  -0.02
  13   1     0.02  -0.02   0.02     0.14   0.09   0.01     0.10   0.01  -0.05
  14   1    -0.31  -0.08   0.17    -0.20  -0.02   0.13     0.12  -0.00  -0.05
  15   1     0.30   0.12   0.05     0.14   0.08   0.16     0.07   0.07   0.15
  16   1     0.21   0.09   0.02    -0.22  -0.05  -0.12    -0.37  -0.10  -0.23
  17   1     0.08  -0.06   0.08     0.08  -0.11   0.14     0.05  -0.13   0.16
  18   1     0.05   0.00   0.06     0.03   0.05   0.05    -0.01   0.11  -0.01
  19   1    -0.03   0.19  -0.12    -0.05   0.20  -0.09    -0.06   0.13  -0.01
                     22                     23                     24
                        a                      a                      a 
 Frequencies --  1126.7230              1178.9646              1210.0839
 Red. masses --     7.4957                 5.8071                 8.5567
 Frc consts  --     0.0000                 0.0000                 0.0000
 IR Inten    --    11.1833                 7.4504               173.5259
 Raman Activ --     0.0000                 0.0000                 0.0000
 Depolar     --     0.0000                 0.0000                 0.0000
 Atom AN      X      Y      Z        X      Y      Z        X      Y      Z
   1   6    -0.07  -0.04   0.14     0.06  -0.19   0.00    -0.06   0.00  -0.12
   2   6     0.12  -0.13  -0.30    -0.08   0.39   0.02     0.09   0.01   0.18
   3   6    -0.24   0.02   0.41     0.06  -0.40  -0.00    -0.13  -0.04  -0.07
   4   6     0.29   0.25  -0.18     0.04   0.16  -0.07     0.21  -0.05   0.19
   5   6    -0.14   0.02   0.03    -0.02  -0.02   0.17    -0.40   0.22  -0.51
   6   8    -0.01  -0.06  -0.03     0.02   0.04  -0.02     0.06  -0.00   0.06
   7   6     0.10   0.00   0.01    -0.00  -0.01  -0.07     0.14  -0.07   0.17
   8   1     0.10   0.03  -0.07    -0.06   0.08   0.01    -0.11  -0.06   0.07
   9   1    -0.12  -0.05  -0.01     0.14   0.12  -0.08     0.06   0.00   0.04
  10   1    -0.10  -0.07  -0.02    -0.20  -0.02   0.10     0.09   0.05   0.01
  11   1     0.16   0.02  -0.04    -0.03   0.17   0.12    -0.06  -0.07  -0.04
  12   1     0.22  -0.18  -0.15    -0.05  -0.00   0.07     0.06   0.11  -0.02
  13   1    -0.39  -0.04   0.14     0.01  -0.18  -0.12     0.04   0.04   0.05
  14   1     0.07   0.15  -0.03     0.16  -0.02  -0.13     0.13  -0.11  -0.09
  15   1     0.07   0.04  -0.08     0.21   0.06  -0.04     0.22   0.13   0.20
  16   1    -0.06  -0.03  -0.03    -0.46  -0.22  -0.07    -0.15  -0.04  -0.07
  17   1    -0.05  -0.01   0.00     0.01  -0.03   0.03    -0.03  -0.01   0.01
  18   1    -0.04   0.05  -0.06    -0.01   0.05  -0.02    -0.02  -0.05  -0.02
  19   1    -0.00  -0.06   0.07    -0.02   0.06  -0.01     0.04  -0.24   0.13
                     25                     26                     27
                        a                      a                      a 
 Frequencies --  1231.9633              1279.8858              1298.3702
 Red. masses --     4.7378                 2.1046                 3.8120
 Frc consts  --     0.0000                 0.0000                 0.0000
 IR Inten    --    23.5052                 0.1240                 9.3146
 Raman Activ --     0.0000                 0.0000                 0.0000
 Depolar     --     0.0000                 0.0000                 0.0000
 Atom AN      X      Y      Z        X      Y      Z        X      Y      Z
   1   6    -0.13   0.09  -0.24    -0.08   0.05  -0.13    -0.01  -0.14  -0.06
   2   6     0.17  -0.10   0.30    -0.05   0.04  -0.08    -0.18   0.10   0.18
   3   6    -0.03  -0.02  -0.08     0.09  -0.06   0.22    -0.24   0.14   0.19
   4   6     0.05   0.14  -0.10    -0.04  -0.05  -0.01    -0.08  -0.12  -0.10
   5   6     0.10  -0.08   0.24    -0.01   0.01  -0.03     0.05  -0.03   0.07
   6   8    -0.03  -0.02  -0.04     0.00   0.01   0.01     0.00   0.01  -0.00
   7   6    -0.02   0.02  -0.07    -0.00   0.01  -0.01    -0.01   0.01  -0.02
   8   1    -0.19  -0.15   0.13    -0.10  -0.07   0.05    -0.03   0.04  -0.01
   9   1     0.06  -0.04   0.10     0.02  -0.01   0.03     0.15   0.10  -0.04
  10   1     0.24   0.11  -0.01     0.12   0.06  -0.01     0.00   0.02   0.05
  11   1    -0.27  -0.12   0.04    -0.41   0.13   0.31     0.33  -0.06  -0.22
  12   1     0.20   0.17  -0.11     0.47  -0.15  -0.30     0.29  -0.03  -0.18
  13   1    -0.28   0.07   0.20     0.24  -0.16  -0.24     0.29  -0.04  -0.19
  14   1     0.24  -0.11  -0.16    -0.20   0.17   0.15     0.42  -0.08  -0.25
  15   1    -0.20  -0.09  -0.15     0.09   0.04   0.05    -0.01  -0.01  -0.01
  16   1    -0.14  -0.07  -0.02     0.07   0.01   0.03     0.21   0.12  -0.03
  17   1    -0.01   0.00  -0.00     0.00  -0.01   0.02    -0.00  -0.00   0.00
  18   1    -0.01   0.04  -0.01     0.01  -0.01   0.01     0.00   0.01   0.00
  19   1    -0.02   0.09  -0.03    -0.00  -0.03   0.01    -0.01   0.02  -0.01
                     28                     29                     30
                        a                      a                      a 
 Frequencies --  1312.3376              1358.9286              1364.7465
 Red. masses --     4.4010                 3.4380                 4.8861
 Frc consts  --     0.0000                 0.0000                 0.0000
 IR Inten    --     6.9824                46.8292                 8.9004
 Raman Activ --     0.0000                 0.0000                 0.0000
 Depolar     --     0.0000                 0.0000                 0.0000
 Atom AN      X      Y      Z        X      Y      Z        X      Y      Z
   1   6     0.01  -0.04   0.01     0.01  -0.03  -0.01    -0.01   0.08   0.04
   2   6    -0.06   0.04  -0.01    -0.14   0.03   0.09     0.35  -0.03  -0.21
   3   6    -0.15   0.04  -0.07     0.12  -0.02  -0.08    -0.32   0.03   0.18
   4   6     0.45   0.12   0.18     0.00   0.03   0.00     0.03  -0.02  -0.06
   5   6    -0.06   0.03  -0.00     0.03  -0.02   0.03     0.03  -0.02   0.05
   6   8    -0.03  -0.09  -0.03    -0.01  -0.01  -0.00    -0.01  -0.01  -0.01
   7   6     0.03  -0.01   0.02    -0.02   0.31  -0.27    -0.03   0.13  -0.11
   8   1     0.00   0.02  -0.01     0.00   0.03  -0.01    -0.01  -0.06   0.04
   9   1     0.03   0.03  -0.03     0.04   0.03  -0.01    -0.11  -0.08   0.03
  10   1    -0.02  -0.01   0.01     0.01   0.01   0.02    -0.06  -0.03  -0.04
  11   1     0.08   0.01  -0.04     0.13  -0.03  -0.09    -0.32   0.04   0.16
  12   1     0.05  -0.02  -0.04     0.11  -0.02  -0.07    -0.32   0.03   0.22
  13   1     0.30   0.00  -0.14    -0.11   0.02   0.06     0.30  -0.03  -0.15
  14   1    -0.20  -0.04   0.11    -0.11   0.01   0.07     0.28  -0.03  -0.19
  15   1    -0.62  -0.23  -0.11    -0.03  -0.00  -0.00    -0.07  -0.02  -0.00
  16   1    -0.23  -0.09  -0.07    -0.04  -0.03   0.02     0.07   0.03   0.00
  17   1    -0.00   0.02  -0.03    -0.10  -0.24   0.42    -0.00  -0.09   0.16
  18   1    -0.02   0.04  -0.02     0.25  -0.43   0.16     0.10  -0.14   0.07
  19   1     0.01  -0.02   0.00    -0.10  -0.30   0.28    -0.03  -0.14   0.10
                     31                     32                     33
                        a                      a                      a 
 Frequencies --  1412.3132              1433.8078              1443.7402
 Red. masses --     3.2050                 1.7635                 1.8669
 Frc consts  --     0.0000                 0.0000                 0.0000
 IR Inten    --     0.5425                24.6920                 2.0940
 Raman Activ --     0.0000                 0.0000                 0.0000
 Depolar     --     0.0000                 0.0000                 0.0000
 Atom AN      X      Y      Z        X      Y      Z        X      Y      Z
   1   6     0.38   0.14  -0.16     0.02  -0.00  -0.01     0.00  -0.00  -0.01
   2   6    -0.08   0.02   0.05    -0.02  -0.00   0.02    -0.01  -0.00   0.01
   3   6     0.02   0.02  -0.00     0.00  -0.04  -0.02     0.01   0.04   0.01
   4   6     0.00  -0.01   0.01    -0.01   0.00  -0.04     0.03   0.01  -0.18
   5   6    -0.00   0.00  -0.00     0.01   0.03   0.03     0.01  -0.01   0.05
   6   8     0.00   0.00   0.00    -0.02  -0.06  -0.01     0.00   0.01  -0.00
   7   6     0.01  -0.00   0.01    -0.20  -0.02  -0.13    -0.11   0.13   0.09
   8   1    -0.37  -0.12   0.33    -0.02  -0.00   0.01    -0.00  -0.00   0.00
   9   1    -0.36  -0.34   0.06    -0.01  -0.01  -0.00    -0.00  -0.01   0.01
  10   1    -0.50  -0.03   0.09    -0.02  -0.00   0.00    -0.01   0.00   0.01
  11   1     0.05  -0.04  -0.08     0.03  -0.00  -0.01     0.02   0.00  -0.01
  12   1     0.08  -0.06  -0.04     0.02   0.00  -0.02     0.01   0.01  -0.00
  13   1     0.00   0.00  -0.00     0.02   0.06   0.08    -0.06  -0.04  -0.06
  14   1    -0.00   0.00   0.01    -0.01   0.11  -0.03     0.02  -0.10   0.02
  15   1    -0.00  -0.01  -0.02    -0.03   0.03   0.05    -0.16   0.18   0.31
  16   1     0.00   0.02  -0.02     0.00  -0.04   0.04     0.02  -0.24   0.28
  17   1    -0.02  -0.00  -0.00     0.58   0.15  -0.11     0.28  -0.07   0.23
  18   1    -0.01  -0.01  -0.02     0.22   0.44   0.33    -0.24  -0.09  -0.26
  19   1     0.00   0.02  -0.01    -0.04  -0.37   0.19     0.32  -0.26  -0.41
                     34                     35                     36
                        a                      a                      a 
 Frequencies --  1454.1504              1486.4206              1498.9860
 Red. masses --     1.8451                 1.9376                 1.5122
 Frc consts  --     0.0000                 0.0000                 0.0000
 IR Inten    --    11.6550                 2.6232                 1.5053
 Raman Activ --     0.0000                 0.0000                 0.0000
 Depolar     --     0.0000                 0.0000                 0.0000
 Atom AN      X      Y      Z        X      Y      Z        X      Y      Z
   1   6     0.01  -0.01  -0.00     0.00   0.02   0.00     0.03   0.11   0.15
   2   6    -0.00   0.02   0.01    -0.05  -0.04   0.01    -0.05  -0.09   0.02
   3   6    -0.01   0.00  -0.01    -0.07  -0.26  -0.07     0.01   0.02   0.01
   4   6     0.03   0.02  -0.23    -0.01  -0.01  -0.03     0.00   0.00  -0.00
   5   6     0.01  -0.03  -0.04     0.00  -0.03   0.02    -0.00  -0.00  -0.01
   6   8     0.01   0.03   0.00     0.01   0.02   0.00     0.00   0.00   0.00
   7   6     0.09  -0.10  -0.04     0.01   0.03   0.03     0.00  -0.00  -0.01
   8   1    -0.01   0.01   0.00     0.03  -0.09   0.01    -0.08  -0.37   0.21
   9   1    -0.01  -0.01  -0.00     0.05   0.02   0.01     0.01   0.27  -0.30
  10   1    -0.01   0.00   0.01    -0.04  -0.04  -0.05    -0.06  -0.37  -0.51
  11   1     0.01  -0.01  -0.03     0.07   0.04   0.04     0.16   0.16   0.18
  12   1    -0.00  -0.02   0.01     0.02   0.08  -0.05     0.02   0.28  -0.11
  13   1     0.02   0.00  -0.01     0.34   0.34   0.44    -0.05  -0.05  -0.06
  14   1     0.01  -0.00  -0.01    -0.01   0.62  -0.19     0.01  -0.10   0.02
  15   1    -0.23   0.25   0.44    -0.02   0.02   0.03     0.00   0.01   0.01
  16   1     0.06  -0.34   0.41     0.00  -0.03   0.03     0.00  -0.00   0.01
  17   1    -0.26   0.06  -0.18    -0.05  -0.03   0.04    -0.00   0.00  -0.00
  18   1     0.14   0.03   0.15    -0.07  -0.08  -0.09     0.02   0.00   0.02
  19   1    -0.22   0.25   0.25     0.05   0.02  -0.08    -0.01   0.00   0.02
                     37                     38                     39
                        a                      a                      a 
 Frequencies --  1499.7853              1503.2698              1698.6195
 Red. masses --     1.5241                 1.9736                13.2094
 Frc consts  --     0.0000                 0.0000                 0.0000
 IR Inten    --     1.6454                 2.3007               569.5512
 Raman Activ --     0.0000                 0.0000                 0.0000
 Depolar     --     0.0000                 0.0000                 0.0000
 Atom AN      X      Y      Z        X      Y      Z        X      Y      Z
   1   6     0.09  -0.14   0.12     0.04  -0.09  -0.06     0.00  -0.00  -0.00
   2   6     0.05   0.02   0.03    -0.05  -0.25  -0.08    -0.00  -0.00   0.00
   3   6    -0.01  -0.02  -0.01    -0.03   0.01   0.02    -0.01  -0.01   0.00
   4   6    -0.01  -0.00  -0.01     0.01  -0.00  -0.00    -0.03  -0.04  -0.03
   5   6     0.00  -0.00   0.01    -0.01  -0.01  -0.01     0.29   0.73   0.08
   6   8    -0.00   0.00  -0.00     0.00   0.01   0.00    -0.22  -0.55  -0.07
   7   6     0.00   0.00   0.01     0.00   0.00  -0.01     0.00  -0.06   0.01
   8   1    -0.35   0.46   0.11    -0.08   0.29  -0.05    -0.00   0.00   0.00
   9   1    -0.38   0.13  -0.51    -0.13  -0.14   0.03     0.00   0.00  -0.00
  10   1     0.35  -0.01  -0.10     0.07   0.18   0.24    -0.00  -0.00   0.00
  11   1    -0.10  -0.09  -0.08     0.28   0.32   0.40     0.01   0.01   0.01
  12   1     0.01  -0.12   0.04    -0.05   0.55  -0.18     0.00   0.01  -0.01
  13   1     0.02   0.04   0.06     0.00  -0.02  -0.03     0.00   0.00   0.01
  14   1     0.01   0.07  -0.03     0.02  -0.04  -0.00     0.00   0.01  -0.01
  15   1     0.00   0.00   0.00     0.00   0.00   0.00     0.05   0.04   0.05
  16   1     0.00  -0.00   0.00     0.01   0.00   0.00    -0.03  -0.01  -0.01
  17   1    -0.00  -0.00   0.01    -0.01  -0.00  -0.00    -0.03  -0.03   0.04
  18   1    -0.02  -0.01  -0.02     0.02  -0.01   0.02     0.01  -0.04  -0.00
  19   1     0.01   0.00  -0.02    -0.01   0.00   0.02    -0.01   0.07  -0.02
                     40                     41                     42
                        a                      a                      a 
 Frequencies --  2955.8964              2972.7170              2979.3480
 Red. masses --     1.9276                 1.8089                 1.7365
 Frc consts  --     0.0000                 0.0000                 0.0000
 IR Inten    --    56.9138                15.9762                81.6100
 Raman Activ --     0.0000                 0.0000                 0.0000
 Depolar     --     0.0000                 0.0000                 0.0000
 Atom AN      X      Y      Z        X      Y      Z        X      Y      Z
   1   6    -0.01   0.00  -0.01     0.00  -0.00  -0.00    -0.00   0.01   0.01
   2   6     0.14  -0.05   0.24     0.01   0.02   0.01    -0.05  -0.13  -0.03
   3   6    -0.03   0.01  -0.04     0.03   0.01   0.03    -0.10   0.03  -0.17
   4   6    -0.00  -0.01   0.00     0.12  -0.20  -0.12     0.02  -0.07   0.00
   5   6    -0.00   0.00   0.00     0.00  -0.01  -0.00     0.00  -0.00   0.00
   6   8     0.00  -0.00  -0.00     0.00   0.00  -0.00    -0.00   0.00  -0.00
   7   6     0.00   0.00   0.00    -0.00   0.01   0.00    -0.00  -0.00   0.00
   8   1     0.03   0.02   0.04     0.00   0.00   0.00    -0.02  -0.01  -0.02
   9   1    -0.01   0.01   0.00    -0.00   0.00   0.00     0.02  -0.03  -0.02
  10   1     0.01  -0.04   0.03    -0.00   0.00  -0.00     0.00  -0.02   0.02
  11   1    -0.08   0.43  -0.26     0.02  -0.06   0.05    -0.10   0.37  -0.27
  12   1    -0.44  -0.23  -0.61    -0.04  -0.02  -0.06     0.27   0.11   0.38
  13   1     0.01  -0.08   0.05     0.01  -0.02   0.02     0.05  -0.28   0.16
  14   1     0.09   0.05   0.14    -0.09  -0.04  -0.13     0.32   0.14   0.46
  15   1    -0.00   0.02  -0.01    -0.01   0.11  -0.10    -0.03   0.15  -0.10
  16   1    -0.00   0.00   0.00    -0.42   0.63   0.54    -0.06   0.09   0.08
  17   1     0.00  -0.00  -0.00     0.00  -0.02  -0.01    -0.00  -0.00  -0.00
  18   1     0.00   0.00  -0.00    -0.00   0.00   0.00     0.01   0.00  -0.01
  19   1    -0.00  -0.00  -0.00    -0.00   0.00   0.00     0.00   0.00   0.00
                     43                     44                     45
                        a                      a                      a 
 Frequencies --  2979.8040              2991.6868              3001.2427
 Red. masses --     1.6859                 1.6079                 1.6330
 Frc consts  --     0.0000                 0.0000                 0.0000
 IR Inten    --    36.2549                49.8399                84.3049
 Raman Activ --     0.0000                 0.0000                 0.0000
 Depolar     --     0.0000                 0.0000                 0.0000
 Atom AN      X      Y      Z        X      Y      Z        X      Y      Z
   1   6     0.01  -0.01   0.00    -0.00  -0.00  -0.00    -0.00   0.02   0.00
   2   6     0.00   0.16  -0.04     0.00  -0.01   0.01     0.00  -0.03   0.01
   3   6    -0.09   0.01  -0.15     0.04   0.05   0.06     0.00  -0.21   0.07
   4   6     0.01  -0.05   0.03     0.02  -0.15   0.15     0.02  -0.08   0.03
   5   6     0.00  -0.00   0.00     0.00  -0.01   0.00     0.00  -0.00   0.00
   6   8    -0.00  -0.00  -0.00     0.00   0.00   0.00    -0.00   0.00  -0.00
   7   6     0.00  -0.00   0.00     0.00   0.00  -0.00     0.01   0.00  -0.01
   8   1    -0.00  -0.00  -0.01     0.01   0.00   0.02    -0.02  -0.01  -0.02
   9   1    -0.02   0.03   0.02    -0.00   0.00   0.00     0.02  -0.02  -0.02
  10   1    -0.01   0.03  -0.02    -0.00   0.01  -0.01     0.01  -0.04   0.03
  11   1     0.14  -0.53   0.37    -0.01   0.04  -0.03    -0.02   0.08  -0.06
  12   1    -0.16  -0.05  -0.23    -0.00  -0.00   0.00     0.02   0.00   0.03
  13   1     0.02  -0.14   0.07     0.03  -0.13   0.10    -0.16   0.71  -0.48
  14   1     0.32   0.14   0.46    -0.20  -0.08  -0.29     0.16   0.04   0.24
  15   1    -0.04   0.20  -0.13    -0.16   0.72  -0.45    -0.05   0.23  -0.15
  16   1     0.01  -0.02  -0.01     0.10  -0.16  -0.10    -0.02   0.02   0.03
  17   1    -0.00   0.00   0.00     0.00  -0.00  -0.00     0.00  -0.00  -0.00
  18   1     0.00  -0.00  -0.00    -0.02  -0.00   0.01    -0.03  -0.00   0.03
  19   1    -0.00  -0.00  -0.00     0.00  -0.00   0.00    -0.01  -0.00  -0.01
                     46                     47                     48
                        a                      a                      a 
 Frequencies --  3021.8250              3028.5100              3032.2955
 Red. masses --     1.7896                 1.9442                 1.8941
 Frc consts  --     0.0000                 0.0000                 0.0000
 IR Inten    --     2.6715                85.6345                81.4429
 Raman Activ --     0.0000                 0.0000                 0.0000
 Depolar     --     0.0000                 0.0000                 0.0000
 Atom AN      X      Y      Z        X      Y      Z        X      Y      Z
   1   6     0.00   0.00   0.01    -0.13   0.15  -0.21    -0.01  -0.22  -0.17
   2   6     0.00   0.00   0.00    -0.01   0.02  -0.02    -0.01  -0.02  -0.01
   3   6     0.00  -0.01   0.01    -0.00   0.01  -0.00    -0.00  -0.01  -0.00
   4   6     0.00  -0.01   0.00    -0.00   0.00  -0.00     0.00  -0.00  -0.00
   5   6    -0.01  -0.01   0.01    -0.00  -0.00  -0.00     0.00  -0.00   0.00
   6   8     0.00   0.00   0.00     0.00   0.00   0.00    -0.00   0.00   0.00
   7   6    -0.21  -0.02   0.16    -0.01  -0.00   0.00    -0.00   0.00   0.00
   8   1    -0.01  -0.01  -0.02     0.28   0.16   0.39     0.40   0.15   0.52
   9   1     0.01  -0.01  -0.00     0.03  -0.05  -0.09    -0.29   0.38   0.31
  10   1    -0.00   0.01  -0.01     0.14  -0.65   0.44    -0.07   0.26  -0.23
  11   1     0.00  -0.00   0.00     0.02  -0.06   0.04    -0.01   0.03  -0.02
  12   1    -0.00  -0.00  -0.01     0.02   0.01   0.03     0.03   0.01   0.05
  13   1    -0.01   0.04  -0.02     0.01  -0.02   0.01    -0.01   0.04  -0.03
  14   1    -0.00  -0.00  -0.00    -0.00   0.00  -0.00     0.02   0.01   0.03
  15   1    -0.01   0.02  -0.01     0.00  -0.00   0.00    -0.00   0.00  -0.00
  16   1     0.00  -0.00  -0.00     0.00  -0.00  -0.00    -0.00   0.00   0.00
  17   1    -0.02  -0.06  -0.02    -0.00  -0.00  -0.00     0.00  -0.01  -0.00
  18   1     0.71   0.11  -0.63     0.02   0.00  -0.02     0.01   0.00  -0.01
  19   1     0.05   0.02   0.07     0.00   0.00   0.00    -0.00  -0.00  -0.00
                     49                     50                     51
                        a                      a                      a 
 Frequencies --  3041.8302              3051.8843              3060.1823
 Red. masses --     1.3052                 1.4083                 1.9702
 Frc consts  --     0.0000                 0.0000                 0.0000
 IR Inten    --    43.0268                 9.5310                19.2200
 Raman Activ --     0.0000                 0.0000                 0.0000
 Depolar     --     0.0000                 0.0000                 0.0000
 Atom AN      X      Y      Z        X      Y      Z        X      Y      Z
   1   6    -0.14   0.02   0.07     0.00  -0.00  -0.00     0.00  -0.00  -0.00
   2   6    -0.00   0.00   0.00    -0.00  -0.00  -0.00     0.00   0.00   0.00
   3   6    -0.00  -0.00  -0.00     0.00   0.00   0.00     0.00  -0.00   0.00
   4   6    -0.00   0.00  -0.00     0.00  -0.00  -0.00     0.00  -0.00  -0.00
   5   6     0.00   0.00   0.00     0.00  -0.00   0.00    -0.00  -0.01  -0.01
   6   8    -0.00  -0.00  -0.00     0.00   0.00   0.00     0.00   0.00   0.00
   7   6     0.00  -0.00  -0.00     0.17  -0.08   0.05    -0.10  -0.21  -0.18
   8   1     0.25   0.13   0.37     0.00   0.00   0.00     0.00   0.00   0.00
   9   1     0.36  -0.53  -0.42    -0.00   0.00   0.00    -0.00   0.00   0.00
  10   1    -0.09   0.33  -0.22     0.00  -0.00   0.00    -0.00   0.00  -0.00
  11   1     0.00  -0.02   0.01    -0.00   0.00  -0.00    -0.00   0.00  -0.00
  12   1    -0.01  -0.00  -0.01     0.00   0.00   0.00    -0.00  -0.00  -0.00
  13   1    -0.00   0.01  -0.00     0.00  -0.00   0.00     0.00   0.01  -0.00
  14   1     0.00   0.00   0.01    -0.01  -0.00  -0.01    -0.00   0.00  -0.00
  15   1     0.00  -0.01   0.00    -0.00   0.00  -0.00    -0.00   0.01  -0.00
  16   1    -0.00   0.00   0.00    -0.01   0.01   0.01    -0.01   0.01   0.01
  17   1     0.00   0.00   0.00    -0.05   0.49   0.30    -0.11   0.66   0.39
  18   1    -0.00  -0.00   0.00     0.11   0.00  -0.07    -0.01  -0.03  -0.03
  19   1    -0.00  -0.00  -0.00    -0.65  -0.20  -0.39     0.48   0.11   0.27
