 Entering Gaussian System
 *********************************************
 Gaussian 98:
 frequency output generated by the xtb code
 *********************************************
                         Standard orientation:
 --------------------------------------------------------------------
  Center     Atomic     Atomic              Coordinates (Angstroms)
  Number     Number      Type              X           Y           Z
 --------------------------------------------------------------------
    1          6             0       -1.736561   -1.190968    0.029324
    2          8             0       -1.805042    0.183748   -0.301506
    3          6             0       -0.841489    0.987711    0.342608
    4          6             0        0.569979    0.851789   -0.236847
    5          8             0        1.204512   -0.292224    0.302886
    6          6             0        2.541103   -0.435920   -0.127089
    7          1             0       -1.892878   -1.334869    1.103648
    8          1             0       -0.771176   -1.620417   -0.247621
    9          1             0       -2.535300   -1.672191   -0.529574
   10          1             0       -1.187316    2.012403    0.196326
   11          1             0       -0.806163    0.756416    1.415116
   12          1             0        1.151284    1.748857    0.019308
   13          1             0        0.510158    0.771426   -1.331862
   14          1             0        2.592483   -0.550089   -1.215374
   15          1             0        2.921652   -1.331638    0.356798
   16          1             0        3.140334    0.431537    0.169937
 --------------------------------------------------------------------
     1 basis functions        1 primitive gaussians
     1 alpha electrons        1 beta electrons
 
 Harmonic frequencies (cm**-1), IR intensities (km*mol⁻¹),
 Raman scattering activities (A**4/amu), Raman depolarization ratios,
 reduced masses (AMU), force constants (mDyne/A) and normal coordinates:
                      1                      2                      3
                        a                      a                      a 
 Frequencies --    79.0391                85.9119               110.2220
 Red. masses --     8.1158                 9.6093                 7.7232
 Frc consts  --     0.0000                 0.0000                 0.0000
 IR Inten    --    13.2282                 1.3353                 3.9094
 Raman Activ --     0.0000                 0.0000                 0.0000
 Depolar     --     0.0000                 0.0000                 0.0000
 Atom AN      X      Y      Z        X      Y      Z        X      Y      Z
   1   6    -0.22   0.02   0.32    -0.14   0.06  -0.11     0.46  -0.04   0.02
   2   8     0.15  -0.09  -0.19    -0.24   0.16   0.28     0.03  -0.05   0.11
   3   6     0.00  -0.02  -0.03     0.09  -0.06   0.03    -0.04   0.19  -0.09
   4   6     0.07   0.11   0.12    -0.05  -0.25  -0.30    -0.01   0.15   0.01
   5   8    -0.09  -0.24  -0.42     0.04  -0.18  -0.24    -0.32  -0.12  -0.24
   6   6     0.10   0.16   0.08     0.25   0.25   0.32    -0.18  -0.14   0.14
   7   1    -0.27   0.11   0.08     0.11  -0.05  -0.02     0.42  -0.02   0.05
   8   1    -0.02  -0.05   0.31    -0.08   0.02  -0.19     0.07   0.01  -0.25
   9   1     0.03  -0.02  -0.01    -0.12   0.07   0.05    -0.00  -0.03   0.21
  10   1    -0.01  -0.01  -0.02     0.06  -0.00   0.05    -0.03   0.04  -0.10
  11   1    -0.04  -0.01  -0.01     0.10  -0.04   0.00    -0.02   0.13  -0.01
  12   1     0.03  -0.02   0.19     0.01  -0.06  -0.17     0.02  -0.00   0.10
  13   1     0.07   0.19   0.02    -0.09  -0.13  -0.08     0.03   0.13  -0.00
  14   1     0.16   0.27   0.01     0.22   0.12   0.10     0.04   0.11   0.03
  15   1    -0.02  -0.05  -0.12     0.08   0.08   0.10    -0.14  -0.12  -0.04
  16   1    -0.02  -0.01   0.28    -0.03   0.11   0.20    -0.03  -0.11   0.21
                      4                      5                      6
                        a                      a                      a 
 Frequencies --   182.2515               224.1861               265.3112
 Red. masses --     4.5148                 3.7389                 9.5945
 Frc consts  --     0.0000                 0.0000                 0.0000
 IR Inten    --     5.0950                 6.7057                 5.8496
 Raman Activ --     0.0000                 0.0000                 0.0000
 Depolar     --     0.0000                 0.0000                 0.0000
 Atom AN      X      Y      Z        X      Y      Z        X      Y      Z
   1   6    -0.32  -0.01   0.07     0.00   0.00  -0.02     0.19   0.15   0.03
   2   8     0.06  -0.08  -0.22    -0.11   0.01   0.03    -0.17   0.13  -0.08
   3   6    -0.01  -0.09  -0.07    -0.02   0.01  -0.08    -0.15   0.14  -0.14
   4   6     0.10   0.04   0.18    -0.03  -0.14  -0.08    -0.03  -0.34   0.28
   5   8     0.15   0.04   0.12     0.15   0.13   0.32     0.07  -0.44   0.15
   6   6     0.08   0.08  -0.09     0.01  -0.00  -0.09     0.04   0.24  -0.19
   7   1     0.32   0.10   0.09    -0.03  -0.02  -0.01     0.07   0.06   0.01
   8   1    -0.28  -0.20  -0.34     0.02   0.03   0.02     0.09   0.12   0.03
   9   1    -0.41   0.10   0.38     0.03  -0.02  -0.04     0.10  -0.04   0.02
  10   1    -0.00  -0.03  -0.03     0.01   0.00  -0.06     0.05   0.05  -0.21
  11   1    -0.05  -0.03  -0.02    -0.01   0.04  -0.02    -0.16   0.18  -0.00
  12   1    -0.01   0.02   0.12    -0.02   0.00  -0.14     0.01  -0.12   0.12
  13   1     0.09   0.06   0.04    -0.03  -0.17  -0.01     0.04  -0.07   0.07
  14   1    -0.02   0.06  -0.03    -0.06   0.48  -0.08    -0.06   0.06  -0.06
  15   1     0.05   0.01  -0.07    -0.13  -0.29  -0.45     0.19   0.14  -0.07
  16   1     0.03   0.02  -0.03     0.16  -0.24   0.35    -0.10   0.17  -0.12
                      7                      8                      9
                        a                      a                      a 
 Frequencies --   345.7685               398.9735               515.2901
 Red. masses --     9.7976                 9.4864                 8.2507
 Frc consts  --     0.0000                 0.0000                 0.0000
 IR Inten    --     5.9450                 4.8690                11.2623
 Raman Activ --     0.0000                 0.0000                 0.0000
 Depolar     --     0.0000                 0.0000                 0.0000
 Atom AN      X      Y      Z        X      Y      Z        X      Y      Z
   1   6     0.16   0.16   0.09     0.20   0.24   0.14    -0.05  -0.07  -0.06
   2   8     0.41   0.07  -0.33    -0.33   0.12  -0.29     0.31  -0.06  -0.05
   3   6     0.10  -0.11   0.26    -0.26  -0.22   0.09    -0.25   0.34   0.27
   4   6    -0.16  -0.19  -0.13    -0.15   0.02   0.04    -0.31  -0.06   0.10
   5   8    -0.24  -0.09   0.09     0.23   0.09  -0.13     0.16   0.01  -0.16
   6   6    -0.24   0.18  -0.01     0.26  -0.22   0.04     0.24  -0.13  -0.01
   7   1     0.09   0.15   0.05     0.14   0.18   0.07    -0.03  -0.03  -0.02
   8   1     0.01  -0.03   0.02     0.10   0.16   0.05    -0.06  -0.11  -0.03
   9   1    -0.01   0.03   0.11     0.09  -0.11   0.15    -0.07   0.08  -0.03
  10   1     0.02  -0.01   0.26    -0.04  -0.03   0.20    -0.07   0.06  -0.16
  11   1     0.05  -0.22   0.03    -0.08  -0.24  -0.01    -0.21   0.28   0.11
  12   1     0.03  -0.05  -0.22    -0.10   0.04   0.03    -0.03  -0.00  -0.18
  13   1    -0.18  -0.18  -0.02    -0.06   0.04   0.01    -0.32  -0.12   0.04
  14   1    -0.09   0.10  -0.01     0.12  -0.10   0.02     0.12  -0.07   0.01
  15   1     0.00   0.06  -0.05    -0.03  -0.09   0.06    -0.02  -0.05   0.05
  16   1    -0.11   0.08   0.02     0.13  -0.11   0.02     0.10  -0.07   0.02
                     10                     11                     12
                        a                      a                      a 
 Frequencies --   846.7454               896.2042               985.0355
 Red. masses --     8.7417                 8.2626                 8.7144
 Frc consts  --     0.0000                 0.0000                 0.0000
 IR Inten    --    12.9454                35.8381                61.4822
 Raman Activ --     0.0000                 0.0000                 0.0000
 Depolar     --     0.0000                 0.0000                 0.0000
 Atom AN      X      Y      Z        X      Y      Z        X      Y      Z
   1   6     0.04   0.27  -0.03    -0.07  -0.20  -0.00     0.01   0.46  -0.08
   2   8     0.19   0.03   0.14    -0.30   0.03  -0.21     0.01  -0.30   0.14
   3   6     0.12  -0.47  -0.07     0.25  -0.02   0.23    -0.16  -0.29   0.02
   4   6    -0.17  -0.29   0.12     0.35  -0.02   0.22     0.25   0.35  -0.02
   5   8     0.01   0.29  -0.16     0.02   0.16  -0.19    -0.06  -0.14   0.04
   6   6    -0.14   0.06   0.02    -0.21   0.06   0.03     0.03  -0.08   0.02
   7   1    -0.01   0.05  -0.01     0.05   0.03   0.02    -0.00   0.05  -0.02
   8   1    -0.00   0.03  -0.00     0.04   0.09   0.01    -0.01   0.08  -0.02
   9   1    -0.00   0.12  -0.03     0.04  -0.25   0.08     0.00   0.12  -0.03
  10   1     0.18  -0.12  -0.35     0.20   0.01  -0.15    -0.20  -0.15  -0.18
  11   1    -0.10   0.18   0.05    -0.19   0.12   0.09    -0.14   0.06   0.04
  12   1    -0.22   0.01   0.16     0.23   0.00  -0.25     0.17   0.09  -0.27
  13   1    -0.01   0.08   0.01    -0.22  -0.13   0.07    -0.14  -0.12   0.02
  14   1     0.02  -0.04   0.01     0.01  -0.01   0.01    -0.03   0.05  -0.01
  15   1    -0.19  -0.01   0.07    -0.13   0.01   0.06     0.19   0.02  -0.07
  16   1     0.04  -0.04   0.01    -0.03  -0.00   0.02    -0.10   0.06   0.00
                     13                     14                     15
                        a                      a                      a 
 Frequencies --  1027.1119              1058.3781              1089.7945
 Red. masses --     9.0226                 7.6515                12.8078
 Frc consts  --     0.0000                 0.0000                 0.0000
 IR Inten    --    52.1741                14.6233                96.0256
 Raman Activ --     0.0000                 0.0000                 0.0000
 Depolar     --     0.0000                 0.0000                 0.0000
 Atom AN      X      Y      Z        X      Y      Z        X      Y      Z
   1   6    -0.08  -0.15  -0.04     0.07   0.00   0.08     0.04   0.14  -0.00
   2   8    -0.03   0.15  -0.07    -0.02   0.00   0.08    -0.07  -0.20  -0.03
   3   6     0.33  -0.16   0.05     0.19   0.00  -0.47    -0.10   0.12   0.15
   4   6    -0.26   0.22  -0.05    -0.14   0.09   0.47     0.28  -0.36   0.01
   5   8    -0.36  -0.03   0.18    -0.16   0.01  -0.02    -0.55   0.31   0.02
   6   6     0.39  -0.16  -0.04     0.13   0.02  -0.13     0.41   0.01  -0.15
   7   1     0.05   0.08   0.01    -0.04  -0.12  -0.00    -0.03  -0.02  -0.01
   8   1     0.04   0.08   0.03    -0.03  -0.06  -0.03    -0.02  -0.04  -0.01
   9   1     0.03  -0.21   0.08    -0.02   0.17  -0.08    -0.01   0.09  -0.03
  10   1     0.16  -0.04  -0.19     0.05   0.03   0.14     0.01   0.04   0.05
  11   1     0.04   0.15   0.05     0.04  -0.24  -0.17    -0.06  -0.03   0.02
  12   1    -0.12   0.07   0.03     0.02   0.07  -0.21     0.11  -0.11   0.06
  13   1    -0.18   0.13  -0.01    -0.26  -0.23   0.15     0.16  -0.01  -0.02
  14   1    -0.05   0.06  -0.02     0.16  -0.05  -0.02     0.05  -0.02  -0.02
  15   1     0.30  -0.01  -0.12    -0.11   0.01   0.08    -0.03  -0.02   0.01
  16   1    -0.04   0.05  -0.03     0.02  -0.02   0.05     0.10  -0.01  -0.02
                     16                     17                     18
                        a                      a                      a 
 Frequencies --  1093.5131              1126.2749              1131.0724
 Red. masses --    11.4341                 3.6447                 4.0030
 Frc consts  --     0.0000                 0.0000                 0.0000
 IR Inten    --   128.3979                 8.6441                 1.6257
 Raman Activ --     0.0000                 0.0000                 0.0000
 Depolar     --     0.0000                 0.0000                 0.0000
 Atom AN      X      Y      Z        X      Y      Z        X      Y      Z
   1   6    -0.08   0.35  -0.16    -0.03   0.07   0.25     0.17  -0.09  -0.26
   2   8    -0.17  -0.54  -0.06    -0.03  -0.09  -0.13    -0.07   0.09   0.16
   3   6     0.41   0.28   0.10     0.07   0.02  -0.01    -0.03  -0.04  -0.07
   4   6    -0.24  -0.00   0.03    -0.04   0.01  -0.03     0.03   0.03   0.06
   5   8     0.10  -0.09   0.05     0.01  -0.06  -0.13    -0.06  -0.09  -0.11
   6   6    -0.04   0.09  -0.02     0.06   0.11   0.30     0.09   0.18   0.18
   7   1     0.02   0.12  -0.02     0.03  -0.39   0.01    -0.11   0.45  -0.01
   8   1     0.01   0.08   0.02    -0.01   0.16  -0.18    -0.03  -0.36   0.24
   9   1     0.03  -0.12   0.06     0.05   0.17  -0.16    -0.11  -0.02   0.15
  10   1    -0.06   0.00   0.02     0.14   0.05   0.02    -0.06  -0.03  -0.00
  11   1     0.26   0.04   0.00    -0.12  -0.06  -0.02     0.03  -0.01  -0.01
  12   1    -0.02  -0.05   0.10     0.04  -0.04   0.02     0.06  -0.01  -0.05
  13   1    -0.05   0.07   0.01    -0.14   0.12  -0.01    -0.05  -0.04   0.02
  14   1     0.03  -0.06   0.01    -0.48  -0.01   0.05    -0.34  -0.06   0.03
  15   1    -0.15  -0.01   0.05     0.05  -0.09  -0.17    -0.09  -0.08  -0.09
  16   1     0.09  -0.05   0.00     0.29  -0.06  -0.25     0.33  -0.09  -0.20
                     19                     20                     21
                        a                      a                      a 
 Frequencies --  1141.1007              1179.4782              1220.8035
 Red. masses --     5.1374                 7.3166                 3.2776
 Frc consts  --     0.0000                 0.0000                 0.0000
 IR Inten    --     2.3193                16.3360                31.9482
 Raman Activ --     0.0000                 0.0000                 0.0000
 Depolar     --     0.0000                 0.0000                 0.0000
 Atom AN      X      Y      Z        X      Y      Z        X      Y      Z
   1   6    -0.29  -0.03  -0.01     0.16  -0.04   0.11     0.10  -0.01   0.10
   2   8     0.27   0.14   0.07    -0.14   0.07  -0.11    -0.14   0.01  -0.19
   3   6    -0.13  -0.09  -0.06     0.05  -0.15   0.14     0.07  -0.01   0.21
   4   6     0.04   0.04   0.04    -0.03   0.24  -0.25     0.00   0.11   0.08
   5   8    -0.12  -0.14   0.03    -0.04  -0.27   0.29    -0.07  -0.11  -0.12
   6   6     0.11   0.22  -0.07     0.04   0.23  -0.22     0.02   0.03   0.02
   7   1     0.17  -0.05   0.02    -0.08  -0.09  -0.01    -0.05  -0.09  -0.01
   8   1     0.09   0.39  -0.07    -0.04  -0.16  -0.02    -0.03  -0.08  -0.05
   9   1     0.12  -0.35   0.04    -0.05   0.24  -0.07    -0.02   0.16  -0.05
  10   1    -0.26  -0.10  -0.02     0.12  -0.02  -0.11     0.01  -0.02  -0.07
  11   1     0.12   0.05   0.00    -0.15   0.07   0.05     0.20   0.17   0.08
  12   1     0.05  -0.00  -0.06     0.15  -0.09   0.04    -0.41   0.34  -0.13
  13   1     0.11  -0.15   0.02    -0.05   0.14  -0.05     0.45  -0.43   0.03
  14   1    -0.00  -0.13   0.00     0.22  -0.15  -0.01    -0.04  -0.02   0.00
  15   1    -0.30  -0.04   0.08    -0.35   0.01   0.16    -0.02  -0.01  -0.01
  16   1     0.26  -0.11  -0.05     0.18  -0.11   0.07     0.04  -0.01  -0.03
                     22                     23                     24
                        a                      a                      a 
 Frequencies --  1270.2441              1315.0588              1343.0876
 Red. masses --     3.3466                 3.3323                 3.9504
 Frc consts  --     0.0000                 0.0000                 0.0000
 IR Inten    --    23.4346                25.2484                 3.3601
 Raman Activ --     0.0000                 0.0000                 0.0000
 Depolar     --     0.0000                 0.0000                 0.0000
 Atom AN      X      Y      Z        X      Y      Z        X      Y      Z
   1   6    -0.11   0.08  -0.14     0.02  -0.03   0.02    -0.01   0.01  -0.01
   2   8     0.13  -0.18   0.19    -0.03   0.08   0.03     0.02  -0.06  -0.03
   3   6    -0.05   0.10  -0.03     0.32   0.13  -0.01    -0.27   0.01  -0.03
   4   6    -0.00   0.12  -0.11     0.20  -0.15  -0.10     0.38  -0.09  -0.02
   5   8    -0.02  -0.11   0.03    -0.02  -0.06   0.04    -0.02  -0.11   0.08
   6   6     0.00   0.04  -0.02     0.00   0.03  -0.02     0.01   0.06  -0.04
   7   1     0.06   0.07  -0.00    -0.02  -0.01   0.00     0.01   0.03   0.00
   8   1     0.02   0.05   0.06    -0.00  -0.02   0.00     0.00   0.02  -0.01
   9   1     0.03  -0.18   0.07    -0.01   0.01   0.00     0.00   0.01  -0.02
  10   1     0.54   0.23   0.13    -0.52  -0.16   0.03     0.24   0.11   0.06
  11   1    -0.50  -0.20  -0.04    -0.46  -0.13  -0.02     0.40   0.11   0.00
  12   1    -0.21   0.16  -0.03    -0.40   0.23   0.07    -0.37   0.27   0.01
  13   1     0.18  -0.11  -0.02    -0.18   0.10  -0.02    -0.47   0.21   0.01
  14   1     0.02  -0.04  -0.00    -0.01  -0.02   0.00    -0.03  -0.03   0.00
  15   1    -0.04   0.00   0.01    -0.05  -0.00   0.01    -0.10  -0.00   0.04
  16   1     0.03  -0.02   0.01    -0.00  -0.01   0.02    -0.01  -0.01   0.04
                     25                     26                     27
                        a                      a                      a 
 Frequencies --  1391.6969              1394.9987              1423.8390
 Red. masses --     2.4335                 2.4244                 1.8628
 Frc consts  --     0.0000                 0.0000                 0.0000
 IR Inten    --     1.0535                 0.0360                 0.6890
 Raman Activ --     0.0000                 0.0000                 0.0000
 Depolar     --     0.0000                 0.0000                 0.0000
 Atom AN      X      Y      Z        X      Y      Z        X      Y      Z
   1   6     0.04   0.24  -0.01     0.04   0.20  -0.01     0.01  -0.04   0.01
   2   8     0.01   0.09  -0.01     0.00   0.08  -0.01     0.02   0.04   0.03
   3   6    -0.04  -0.01  -0.01    -0.02  -0.01   0.01    -0.07   0.18   0.19
   4   6     0.05  -0.02   0.01    -0.03   0.03  -0.00     0.00   0.00   0.01
   5   8    -0.07   0.02   0.01     0.08  -0.03  -0.01    -0.00  -0.01   0.01
   6   6    -0.20   0.06   0.03     0.24  -0.08  -0.04    -0.01   0.01  -0.00
   7   1    -0.08  -0.38  -0.06    -0.06  -0.33  -0.05    -0.02   0.02   0.00
   8   1    -0.16  -0.38   0.02    -0.13  -0.32   0.03     0.02   0.05  -0.01
   9   1     0.13  -0.38   0.16     0.10  -0.30   0.15    -0.02   0.03   0.01
  10   1    -0.01  -0.01  -0.03    -0.01  -0.01  -0.05     0.04  -0.06  -0.66
  11   1     0.05  -0.01  -0.01     0.01  -0.03  -0.01     0.17  -0.65  -0.14
  12   1    -0.03   0.01   0.03     0.03  -0.00  -0.02    -0.03   0.03  -0.02
  13   1    -0.06  -0.00   0.01     0.02   0.01  -0.01     0.00   0.02   0.00
  14   1     0.31  -0.11   0.03    -0.38   0.14  -0.03     0.01  -0.02   0.00
  15   1     0.31   0.06  -0.16    -0.37  -0.07   0.20     0.01  -0.00  -0.01
  16   1     0.28  -0.18  -0.06    -0.34   0.21   0.07     0.01  -0.01   0.01
                     28                     29                     30
                        a                      a                      a 
 Frequencies --  1453.9654              1456.7481              1464.0584
 Red. masses --     1.5280                 1.5299                 1.7758
 Frc consts  --     0.0000                 0.0000                 0.0000
 IR Inten    --     4.1390                 6.2542                 5.0952
 Raman Activ --     0.0000                 0.0000                 0.0000
 Depolar     --     0.0000                 0.0000                 0.0000
 Atom AN      X      Y      Z        X      Y      Z        X      Y      Z
   1   6    -0.14   0.02   0.16    -0.01   0.00   0.00    -0.03   0.00  -0.02
   2   8    -0.03   0.01   0.02    -0.00  -0.00  -0.00    -0.01   0.00  -0.01
   3   6     0.01   0.01   0.01     0.00   0.01   0.01    -0.00   0.01   0.01
   4   6    -0.00   0.00  -0.00     0.01   0.01  -0.01     0.10   0.16  -0.15
   5   8     0.00  -0.00   0.00    -0.01  -0.01  -0.03    -0.01   0.05  -0.03
   6   6     0.01  -0.00   0.01    -0.07  -0.12  -0.16     0.01  -0.04   0.04
   7   1     0.36   0.32   0.10     0.02   0.01   0.00     0.11  -0.04   0.01
   8   1    -0.21  -0.34  -0.19    -0.00  -0.01   0.00     0.03  -0.01   0.11
   9   1     0.44  -0.10  -0.55     0.01   0.00  -0.02    -0.02   0.04  -0.02
  10   1    -0.00  -0.00  -0.03    -0.00  -0.00  -0.01     0.01   0.00  -0.02
  11   1    -0.01  -0.02  -0.00    -0.00  -0.01  -0.00     0.01  -0.02  -0.01
  12   1     0.00   0.00  -0.00    -0.01  -0.01   0.05    -0.02  -0.16   0.62
  13   1     0.01   0.00  -0.00    -0.02  -0.05   0.00    -0.30  -0.58   0.06
  14   1     0.01  -0.00   0.00    -0.27   0.38  -0.06     0.06   0.11  -0.01
  15   1    -0.02  -0.01  -0.01     0.22   0.39   0.55    -0.06  -0.04  -0.01
  16   1    -0.01   0.02  -0.01     0.31  -0.29   0.19    -0.03   0.07  -0.15
                     31                     32                     33
                        a                      a                      a 
 Frequencies --  1476.8744              1481.7845              2860.9961
 Red. masses --     1.5821                 1.5866                 1.9596
 Frc consts  --     0.0000                 0.0000                 0.0000
 IR Inten    --     4.1470                 2.8151                80.9587
 Raman Activ --     0.0000                 0.0000                 0.0000
 Depolar     --     0.0000                 0.0000                 0.0000
 Atom AN      X      Y      Z        X      Y      Z        X      Y      Z
   1   6    -0.10   0.02  -0.09    -0.11   0.02  -0.11     0.00  -0.00  -0.00
   2   8    -0.03   0.02  -0.03    -0.03   0.02  -0.03    -0.00  -0.00  -0.00
   3   6     0.01  -0.00   0.01     0.01  -0.00   0.02     0.00   0.01  -0.02
   4   6    -0.01  -0.00   0.01    -0.01  -0.04   0.04     0.11   0.17   0.21
   5   8     0.02   0.04  -0.04    -0.02  -0.04   0.04     0.00   0.01   0.01
   6   6     0.02   0.13  -0.09    -0.03  -0.10   0.08     0.00   0.00   0.01
   7   1     0.39  -0.18   0.04     0.44  -0.21   0.04    -0.00  -0.00   0.01
   8   1     0.09  -0.07   0.42     0.10  -0.08   0.49    -0.01   0.00   0.00
   9   1    -0.05   0.13  -0.06    -0.07   0.15  -0.05    -0.00  -0.00  -0.00
  10   1    -0.02  -0.01  -0.01    -0.01  -0.01  -0.02    -0.01   0.02  -0.01
  11   1     0.02   0.01   0.00     0.02  -0.00   0.00     0.00  -0.02   0.11
  12   1     0.02  -0.02   0.03    -0.02   0.06  -0.18    -0.39  -0.60  -0.15
  13   1     0.00  -0.04   0.01     0.06   0.18  -0.02    -0.02  -0.03  -0.61
  14   1    -0.25  -0.44   0.04     0.22   0.35  -0.03     0.01  -0.00  -0.03
  15   1     0.16   0.03  -0.10    -0.12  -0.02   0.07    -0.00   0.00   0.00
  16   1    -0.09  -0.11   0.48     0.08   0.08  -0.39    -0.02  -0.02  -0.01
                     34                     35                     36
                        a                      a                      a 
 Frequencies --  2887.0816              2898.9953              2907.7148
 Red. masses --     1.4518                 1.6907                 1.9378
 Frc consts  --     0.0000                 0.0000                 0.0000
 IR Inten    --    38.0824               101.2302                69.1232
 Raman Activ --     0.0000                 0.0000                 0.0000
 Depolar     --     0.0000                 0.0000                 0.0000
 Atom AN      X      Y      Z        X      Y      Z        X      Y      Z
   1   6     0.00   0.00  -0.00    -0.01  -0.00   0.00     0.00  -0.00  -0.00
   2   8    -0.00  -0.00  -0.01     0.01   0.00   0.01     0.00  -0.00   0.00
   3   6    -0.01   0.03  -0.09    -0.00  -0.06   0.22     0.00   0.00   0.00
   4   6    -0.08  -0.10   0.12    -0.02  -0.02   0.08     0.01   0.01   0.01
   5   8     0.01  -0.02   0.01     0.00  -0.01   0.00    -0.00  -0.00  -0.01
   6   6     0.00   0.01  -0.01     0.00   0.01  -0.00    -0.09  -0.16  -0.23
   7   1    -0.00  -0.00   0.02     0.00   0.01  -0.02     0.00   0.00  -0.00
   8   1    -0.01   0.00   0.00     0.02  -0.01  -0.00    -0.01   0.00   0.00
   9   1    -0.00  -0.00  -0.00     0.01   0.00   0.01     0.00   0.00   0.00
  10   1     0.01  -0.02  -0.01     0.00  -0.01   0.03    -0.00   0.00   0.00
  11   1     0.01  -0.08   0.35    -0.03   0.20  -0.87    -0.00   0.00  -0.00
  12   1     0.32   0.50   0.18     0.08   0.13   0.05    -0.02  -0.03  -0.01
  13   1    -0.06  -0.08  -0.66    -0.03  -0.04  -0.34     0.00  -0.00  -0.02
  14   1     0.00   0.00   0.04     0.00   0.00   0.02    -0.04   0.05   0.69
  15   1     0.00  -0.01   0.01     0.00  -0.00   0.00    -0.01  -0.03  -0.04
  16   1    -0.01  -0.02  -0.01    -0.01  -0.02  -0.01     0.36   0.53   0.15
                     37                     38                     39
                        a                      a                      a 
 Frequencies --  2920.0990              2929.9913              2964.2555
 Red. masses --     1.7852                 1.4164                 1.5750
 Frc consts  --     0.0000                 0.0000                 0.0000
 IR Inten    --    68.7751                65.7977                32.7371
 Raman Activ --     0.0000                 0.0000                 0.0000
 Depolar     --     0.0000                 0.0000                 0.0000
 Atom AN      X      Y      Z        X      Y      Z        X      Y      Z
   1   6    -0.09   0.00   0.25     0.00  -0.00  -0.00     0.21  -0.09  -0.02
   2   8    -0.00  -0.01   0.01    -0.00  -0.00  -0.00     0.01  -0.02   0.00
   3   6    -0.00   0.01  -0.01     0.00  -0.00  -0.00    -0.01   0.02   0.00
   4   6     0.00   0.00   0.00     0.00   0.01  -0.01    -0.00   0.00  -0.00
   5   8    -0.00  -0.00   0.00     0.02   0.00  -0.01     0.00   0.00   0.00
   6   6    -0.00   0.00  -0.00     0.09   0.13  -0.11     0.00  -0.00   0.00
   7   1     0.13   0.11  -0.93    -0.00  -0.00   0.00     0.07   0.02  -0.21
   8   1     0.19  -0.08  -0.01    -0.01   0.00   0.00    -0.84   0.35   0.25
   9   1    -0.01   0.00   0.04    -0.00  -0.00  -0.00     0.04  -0.00  -0.00
  10   1     0.01  -0.02   0.00    -0.00   0.01  -0.00     0.03  -0.08   0.01
  11   1    -0.00  -0.01   0.02    -0.00  -0.00   0.01    -0.00   0.00  -0.01
  12   1    -0.00  -0.00   0.00    -0.01  -0.03  -0.01     0.00   0.00   0.00
  13   1    -0.00  -0.00  -0.01     0.01   0.00   0.04    -0.00  -0.00   0.00
  14   1     0.00   0.00   0.00    -0.01   0.10   0.67     0.00  -0.00  -0.01
  15   1     0.00  -0.00   0.00     0.01   0.02  -0.01    -0.00   0.00  -0.00
  16   1    -0.00  -0.00  -0.00    -0.38  -0.55  -0.23    -0.00  -0.00   0.00
                     40                     41                     42
                        a                      a                      a 
 Frequencies --  2982.2426              3031.9109              3037.1856
 Red. masses --     1.7320                 1.7219                 1.7158
 Frc consts  --     0.0000                 0.0000                 0.0000
 IR Inten    --    41.4354                25.1960                18.7737
 Raman Activ --     0.0000                 0.0000                 0.0000
 Depolar     --     0.0000                 0.0000                 0.0000
 Atom AN      X      Y      Z        X      Y      Z        X      Y      Z
   1   6     0.02  -0.01   0.00     0.19   0.11   0.13     0.00   0.00   0.00
   2   8    -0.00  -0.01  -0.00     0.00   0.01   0.00     0.00   0.00   0.00
   3   6     0.09  -0.24   0.04    -0.00  -0.00   0.00    -0.00  -0.00   0.00
   4   6    -0.00  -0.01   0.00    -0.00  -0.00   0.00    -0.00  -0.00   0.00
   5   8     0.00   0.00  -0.00    -0.00   0.00   0.00     0.01  -0.01   0.00
   6   6    -0.00  -0.00   0.00    -0.00   0.00  -0.00     0.08  -0.21   0.11
   7   1     0.01   0.00  -0.04     0.03   0.01   0.01     0.00   0.00  -0.00
   8   1    -0.08   0.03   0.02     0.02   0.02   0.02     0.00  -0.00  -0.00
   9   1     0.00   0.00   0.00    -0.71  -0.42  -0.50    -0.01  -0.00  -0.00
  10   1    -0.30   0.90  -0.14    -0.00   0.00  -0.00    -0.00   0.00  -0.00
  11   1     0.01  -0.03   0.01    -0.00   0.00  -0.01     0.00   0.00  -0.00
  12   1     0.02   0.03   0.01    -0.00   0.00   0.00     0.00   0.01   0.00
  13   1    -0.00  -0.00  -0.01     0.00  -0.00  -0.00    -0.00  -0.00  -0.01
  14   1     0.00  -0.00  -0.01     0.00  -0.00  -0.00     0.01  -0.03   0.02
  15   1     0.00  -0.00   0.00     0.00  -0.01   0.00    -0.33   0.80  -0.43
  16   1     0.00   0.00   0.00     0.00   0.00   0.00     0.01  -0.03   0.02
