14
 xtb: 6.7.1 (edcfbbe)
C            0.66406083243017        1.56735396476331       -0.00491238504233
C           -0.63582474482997        1.26490368252084        0.74135016132161
C           -1.81585456086247        0.84808151606662       -0.11105480559291
Cl          -1.77465270908386       -0.93878698625056       -0.59739022056730
C            1.37840267161042        0.40316416878232       -0.65346502992038
Cl           1.94173812302823       -0.83260505599178        0.59841698356525
H            1.35580355912902        2.07174417994370        0.67825792159846
H            0.45160726786617        2.27740729075811       -0.81683508590078
H           -0.95303724852241        2.19386491063396        1.23306187272463
H           -0.47057703706266        0.53643525002031        1.54232185127009
H           -2.75541300360281        0.95757034976798        0.43120767127029
H           -1.86577834121618        1.40501029369914       -1.04926047339635
H            0.75080080316388       -0.15180045805356       -1.35049436938362
H            2.28691594507176        0.73338323560546       -1.15917398814814
