      -----------------------------------------------------------      
     |                   =====================                   |     
     |                           x T B                           |     
     |                   =====================                   |     
     |                         S. Grimme                         |     
     |          Mulliken Center for Theoretical Chemistry        |     
     |                    University of Bonn                     |     
      -----------------------------------------------------------      

   * xtb version 6.7.1 (edcfbbe) compiled by 'albert@albert-system' on 2024-07-22

   xtb is free software: you can redistribute it and/or modify it under
   the terms of the GNU Lesser General Public License as published by
   the Free Software Foundation, either version 3 of the License, or
   (at your option) any later version.
   
   xtb is distributed in the hope that it will be useful,
   but WITHOUT ANY WARRANTY; without even the implied warranty of
   MERCHANTABILITY or FITNESS FOR A PARTICULAR PURPOSE.  See the
   GNU Lesser General Public License for more details.
   
   Cite this work as:
   * C. Bannwarth, E. Caldeweyher, S. Ehlert, A. Hansen, P. Pracht,
     J. Seibert, S. Spicher, S. Grimme, WIREs Comput. Mol. Sci., 2020, 11,
     e01493. DOI: 10.1002/wcms.1493
   
   for GFN2-xTB:
   * C. Bannwarth, S. Ehlert and S. Grimme., J. Chem. Theory Comput., 2019,
     15, 1652-1671. DOI: 10.1021/acs.jctc.8b01176
   for GFN1-xTB:
   * S. Grimme, C. Bannwarth, P. Shushkov, J. Chem. Theory Comput., 2017,
     13, 1989-2009. DOI: 10.1021/acs.jctc.7b00118
   for GFN0-xTB:
   * P. Pracht, E. Caldeweyher, S. Ehlert, S. Grimme, ChemRxiv, 2019, preprint.
     DOI: 10.26434/chemrxiv.8326202.v1
   for GFN-FF:
   * S. Spicher and S. Grimme, Angew. Chem. Int. Ed., 2020, 59, 15665-15673.
     DOI: 10.1002/anie.202004239
   
   for ALPB and GBSA implicit solvation:
   * S. Ehlert, M. Stahn, S. Spicher, S. Grimme, J. Chem. Theory Comput.,
     2021, 17, 4250-4261. DOI: 10.1021/acs.jctc.1c00471
   
   for ddCOSMO and CPCM-X implicit solvation:
   * M. Stahn, S. Ehlert, S. Grimme, J. Phys. Chem. A,
     2023, XX, XXXX-XXXX. DOI: 10.1021/acs.jpca.3c04382
   
   for DFT-D4:
   * E. Caldeweyher, C. Bannwarth and S. Grimme, J. Chem. Phys., 2017,
     147, 034112. DOI: 10.1063/1.4993215
   * E. Caldeweyher, S. Ehlert, A. Hansen, H. Neugebauer, S. Spicher,
     C. Bannwarth and S. Grimme, J. Chem. Phys., 2019, 150, 154122.
     DOI: 10.1063/1.5090222
   * E. Caldeweyher, J.-M. Mewes, S. Ehlert and S. Grimme, Phys. Chem. Chem. Phys.
     2020, 22, 8499-8512. DOI: 10.1039/D0CP00502A
   
   for sTDA-xTB:
   * S. Grimme and C. Bannwarth, J. Chem. Phys., 2016, 145, 054103.
     DOI: 10.1063/1.4959605
   
   in the mass-spec context:
   * V. Asgeirsson, C. Bauer and S. Grimme, Chem. Sci., 2017, 8, 4879.
     DOI: 10.1039/c7sc00601b
   * J. Koopman and S. Grimme, ACS Omega 2019, 4, 12, 15120-15133.
     DOI: 10.1021/acsomega.9b02011
   
   for metadynamics refer to:
   * S. Grimme, J. Chem. Theory Comput., 2019, 155, 2847-2862
     DOI: 10.1021/acs.jctc.9b00143
   
   for SPH calculations refer to:
   * S. Spicher and S. Grimme, J. Chem. Theory Comput., 2021, 17, 1701-1714
     DOI: 10.1021/acs.jctc.0c01306
   
   for ONIOM refer to:
   * C. Plett, A. Katbashev, S. Ehlert, S. Grimme, M. Bursch,
     Phys. Chem. Chem. Phys., 2023, 25, 17860-17868. DOI: 10.1039/D3CP02178E
   
   for DIPRO refer to:
   * J. Kohn, N. Gildemeister, S. Grimme, D. Fazzi, A. Hansen,
     J. Chem. Phys., 2023, just accepted.
   
   for PTB refer to:
   * S. Grimme, M. Mueller, A. Hansen, J. Chem. Phys., 2023, 158, 124111.
     DOI: 10.1063/5.0137838
   
   with help from (in alphabetical order)
   P. Atkinson, C. Bannwarth, F. Bohle, G. Brandenburg, E. Caldeweyher
   M. Checinski, S. Dohm, S. Ehlert, S. Ehrlich, I. Gerasimov, C. Hölzer
   A. Katbashev, J. Kohn, J. Koopman, C. Lavigne, S. Lehtola, F. März, M. Müller,
   F. Musil, H. Neugebauer, J. Pisarek, C. Plett, P. Pracht, F. Pultar,
   J. Seibert, P. Shushkov, S. Spicher, M. Stahn, M. Steiner, T. Strunk,
   J. Stückrath, T. Rose, and J. Unsleber
   
 * started run on 2025/04/11 at 16:01:10.971     
   ID    Z sym.   atoms
    1    6 C      1-4, 6, 8
    2    8 O      5, 7
    3    1 H      9-20

           -------------------------------------------------
          |                Calculation Setup                |
           -------------------------------------------------

          program call               : /srv/scratch/z5358697/.xtb/bin/xtb solv.coord --gfn2 --sp --chrg 0 --norestart --parallel 1 --alpb water reference -I xtb_sp-xcontrol-inp
          hostname                   : k124
          coordinate file            : solv.coord
          omp threads                :                     1


           -------------------------------------------------
          |                 G F N 2 - x T B                 |
           -------------------------------------------------

        Reference                      10.1021/acs.jctc.8b01176
      * Hamiltonian:
        H0-scaling (s, p, d)           1.850000    2.230000    2.230000
        zeta-weighting                 0.500000
      * Dispersion:
        s8                             2.700000
        a1                             0.520000
        a2                             5.000000
        s9                             5.000000
      * Repulsion:
        kExp                           1.500000    1.000000
        rExp                           1.000000
      * Coulomb:
        alpha                          2.000000
        third order                    shell-resolved
        anisotropic                    true
        a3                             3.000000
        a5                             4.000000
        cn-shift                       1.200000
        cn-exp                         4.000000
        max-rad                        5.000000

      * Solvation model:               ALPB
        Solvent                        water
        Parameter file                 internal GFN2-xTB/ALPB
        Dielectric constant                8.0200E+01
        Reference state                gsolv=reference [X=1]
        Free energy shift                  2.8945E-03 Eh       1.8164E+00 kcal/mol
        Temperature                        2.9815E+02 K
        Density                            1.0000E+00 kg/L
        Solvent mass                       1.8000E+01 g/mol
        Interaction kernel             P16
        Born radius scaling (c1)           1.4744E+00
        Born radii integrator          GBOBC
        Born offset                        0.0000E+00 a0       0.0000E+00 AA
        H-bond correction              true
        Ion screening                  false
        Surface tension                    1.0000E-05 Eh       1.5569E+01 dyn/cm
        Grid points                               974 per atom

          ...................................................
          :                      SETUP                      :
          :.................................................:
          :  # basis functions                  44          :
          :  # atomic orbitals                  44          :
          :  # shells                           28          :
          :  # electrons                        48          :
          :  max. iterations                   250          :
          :  Hamiltonian                  GFN2-xTB          :
          :  restarted?                      false          :
          :  GBSA solvation                   true          :
          :  PC potential                    false          :
          :  electronic temp.          300.0000000     K    :
          :  accuracy                    1.0000000          :
          :  -> integral cutoff          0.2500000E+02      :
          :  -> integral neglect         0.1000000E-07      :
          :  -> SCF convergence          0.1000000E-05 Eh   :
          :  -> wf. convergence          0.1000000E-03 e    :
          :  Broyden damping             0.4000000          :
          :  net charge                          0          :
          :  unpaired electrons                  0          :
          ...................................................

 iter      E             dE          RMSdq      gap      omega  full diag
   1    -27.3731733 -0.273732E+02  0.385E+00    5.74       0.0  T
   2    -27.4344661 -0.612928E-01  0.190E+00    4.95       1.0  T
   3    -27.4363805 -0.191446E-02  0.995E-01    5.28       1.0  T
   4    -27.4376662 -0.128565E-02  0.154E-01    5.05       1.0  T
   5    -27.4378429 -0.176723E-03  0.642E-02    5.10       1.0  T
   6    -27.4378448 -0.191503E-05  0.203E-02    5.09       1.1  T
   7    -27.4378460 -0.117522E-05  0.483E-03    5.10       4.6  T
   8    -27.4378461 -0.442470E-07  0.283E-03    5.10       7.9  T
   9    -27.4378461 -0.204672E-07  0.579E-04    5.10      38.6  T
  10    -27.4378461 -0.111625E-08  0.304E-04    5.10      73.5  T

   *** convergence criteria satisfied after 10 iterations ***

         #    Occupation            Energy/Eh            Energy/eV
      -------------------------------------------------------------
         1        2.0000           -0.7485293             -20.3685
       ...           ...                  ...                  ...
        18        2.0000           -0.4725737             -12.8594
        19        2.0000           -0.4648541             -12.6493
        20        2.0000           -0.4535166             -12.3408
        21        2.0000           -0.4376957             -11.9103
        22        2.0000           -0.4327753             -11.7764
        23        2.0000           -0.4275039             -11.6330
        24        2.0000           -0.4229557             -11.5092 (HOMO)
        25                         -0.2356472              -6.4123 (LUMO)
        26                          0.0008341               0.0227
        27                          0.0877673               2.3883
        28                          0.1050318               2.8581
        29                          0.1176316               3.2009
       ...                                ...                  ...
        44                          0.6153614              16.7448
      -------------------------------------------------------------
                  HL-Gap            0.1873085 Eh            5.0969 eV
             Fermi-level           -0.3293015 Eh           -8.9607 eV

 SCC (total)                   0 d,  0 h,  0 min,  0.016 sec
 SCC setup                      ...        0 min,  0.001 sec (  9.074%)
 Dispersion                     ...        0 min,  0.000 sec (  0.767%)
 classical contributions        ...        0 min,  0.000 sec (  0.213%)
 integral evaluation            ...        0 min,  0.002 sec (  9.947%)
 iterations                     ...        0 min,  0.008 sec ( 47.614%)
 molecular gradient             ...        0 min,  0.005 sec ( 31.269%)
 printout                       ...        0 min,  0.000 sec (  0.998%)

         :::::::::::::::::::::::::::::::::::::::::::::::::::::
         ::                     SUMMARY                     ::
         :::::::::::::::::::::::::::::::::::::::::::::::::::::
         :: total energy             -27.121244104614 Eh    ::
         :: total w/o Gsasa/hb       -27.122821314863 Eh    ::
         :: gradient norm              0.000089348738 Eh/a0 ::
         :: HOMO-LUMO gap              5.096922753173 eV    ::
         ::.................................................::
         :: SCC energy               -27.437805930273 Eh    ::
         :: -> isotropic ES            0.060014553445 Eh    ::
         :: -> anisotropic ES          0.001005023614 Eh    ::
         :: -> anisotropic XC          0.008133816449 Eh    ::
         :: -> dispersion             -0.011781406741 Eh    ::
         :: -> Gsolv                  -0.007708512343 Eh    ::
         ::    -> Gelec               -0.009285722592 Eh    ::
         ::    -> Gsasa                0.001270527320 Eh    ::
         ::    -> Ghb                 -0.002587866232 Eh    ::
         ::    -> Gshift               0.002894549160 Eh    ::
         :: repulsion energy           0.316561825658 Eh    ::
         :: add. restraining           0.000000000000 Eh    ::
         :: total charge               0.000000000000 e     ::
         :::::::::::::::::::::::::::::::::::::::::::::::::::::

           -------------------------------------------------
          |                Property Printout                |
           -------------------------------------------------

    * Orbital Energies and Occupations

         #    Occupation            Energy/Eh            Energy/eV
      -------------------------------------------------------------
         1        2.0000           -0.7485293             -20.3685
       ...           ...                  ...                  ...
        12        2.0000           -0.5221012             -14.2071
        13        2.0000           -0.5156275             -14.0309
        14        2.0000           -0.4961711             -13.5015
        15        2.0000           -0.4926000             -13.4043
        16        2.0000           -0.4818818             -13.1127
        17        2.0000           -0.4756650             -12.9435
        18        2.0000           -0.4725737             -12.8594
        19        2.0000           -0.4648541             -12.6493
        20        2.0000           -0.4535166             -12.3408
        21        2.0000           -0.4376957             -11.9103
        22        2.0000           -0.4327753             -11.7764
        23        2.0000           -0.4275039             -11.6330
        24        2.0000           -0.4229557             -11.5092 (HOMO)
        25                         -0.2356472              -6.4123 (LUMO)
        26                          0.0008341               0.0227
        27                          0.0877673               2.3883
        28                          0.1050318               2.8581
        29                          0.1176316               3.2009
        30                          0.1351439               3.6775
        31                          0.1479982               4.0272
        32                          0.1540839               4.1928
        33                          0.1624236               4.4198
        34                          0.1672360               4.5507
        35                          0.1840388               5.0080
       ...                                ...                  ...
        44                          0.6153614              16.7448
      -------------------------------------------------------------
                  HL-Gap            0.1873085 Eh            5.0969 eV
             Fermi-level           -0.3293015 Eh           -8.9607 eV

     #   Z          covCN         q      C6AA      α(0)
     1   6 C        3.752    -0.116    22.790     6.808
     2   6 C        3.800    -0.059    21.644     6.624
     3   6 C        3.800    -0.068    21.801     6.648
     4   6 C        3.696     0.067    19.625     6.337
     5   8 O        1.704    -0.267    18.434     5.797
     6   6 C        2.710     0.369    20.736     7.454
     7   8 O        0.856    -0.496    23.687     6.525
     8   6 C        3.754    -0.172    23.902     6.971
     9   1 H        0.925     0.042     2.418     2.432
    10   1 H        0.925     0.041     2.431     2.438
    11   1 H        0.925     0.043     2.404     2.425
    12   1 H        0.924     0.040     2.445     2.445
    13   1 H        0.924     0.041     2.434     2.440
    14   1 H        0.924     0.058     2.223     2.332
    15   1 H        0.924     0.041     2.431     2.438
    16   1 H        0.925     0.079     1.992     2.207
    17   1 H        0.924     0.054     2.266     2.354
    18   1 H        0.925     0.095     1.830     2.115
    19   1 H        0.925     0.108     1.712     2.046
    20   1 H        0.925     0.098     1.805     2.101

 Mol. C6AA /au·bohr⁶  :       2997.543674
 Mol. C8AA /au·bohr⁸  :      63873.654567
 Mol. α(0) /au        :         80.937323


Wiberg/Mayer (AO) data.
largest (>0.10) Wiberg bond orders for each atom

 ---------------------------------------------------------------------------
     #   Z sym  total        # sym  WBO       # sym  WBO       # sym  WBO
 ---------------------------------------------------------------------------
     1   6 C    3.996 --     2 C    1.021     9 H    0.987    11 H    0.987
                            10 H    0.985
     2   6 C    3.996 --     1 C    1.021     3 C    1.007    12 H    0.978
                            13 H    0.977
     3   6 C    3.993 --     2 C    1.007     4 C    0.999    15 H    0.976
                            14 H    0.971
     4   6 C    3.915 --     3 C    0.999    17 H    0.969    16 H    0.966
                             5 O    0.925
     5   8 O    2.322 --     6 C    1.165     4 C    0.925     7 O    0.169
     6   6 C    3.905 --     7 O    1.687     5 O    1.165     8 C    1.000
     7   8 O    1.966 --     6 C    1.687     5 O    0.169
     8   6 C    3.983 --     6 C    1.000    18 H    0.978    20 H    0.965
                            19 H    0.946
     9   1 H    0.998 --     1 C    0.987
    10   1 H    0.998 --     1 C    0.985
    11   1 H    0.998 --     1 C    0.987
    12   1 H    0.998 --     2 C    0.978
    13   1 H    0.998 --     2 C    0.977
    14   1 H    0.996 --     3 C    0.971
    15   1 H    0.998 --     3 C    0.976
    16   1 H    0.994 --     4 C    0.966
    17   1 H    0.997 --     4 C    0.969
    18   1 H    0.991 --     8 C    0.978
    19   1 H    0.988 --     8 C    0.946
    20   1 H    0.990 --     8 C    0.965
 ---------------------------------------------------------------------------

Topologies differ in total number of bonds
Writing topology from bond orders to xtbtopo.mol

molecular dipole:
                 x           y           z       tot (Debye)
 q only:       -0.714      -0.978      -0.159
   full:       -0.658      -0.968      -0.181       3.010
molecular quadrupole (traceless):
                xx          xy          yy          xz          yz          zz
 q only:        1.633      -9.556      -1.787       0.796      -2.286       0.154
  q+dip:        0.451      -9.584      -2.166       0.067      -2.416       1.714
   full:        0.623      -9.752      -2.538      -0.107      -2.611       1.915


           -------------------------------------------------
          | TOTAL ENERGY              -27.121244104614 Eh   |
          | GRADIENT NORM               0.000089348738 Eh/α |
          | HOMO-LUMO GAP               5.096922753173 eV   |
           -------------------------------------------------

------------------------------------------------------------------------
 * finished run on 2025/04/11 at 16:01:11.027     
------------------------------------------------------------------------
 total:
 * wall-time:     0 d,  0 h,  0 min,  0.055 sec
 *  cpu-time:     0 d,  0 h,  0 min,  0.023 sec
 * ratio c/w:     0.423 speedup
 SCF:
 * wall-time:     0 d,  0 h,  0 min,  0.016 sec
 *  cpu-time:     0 d,  0 h,  0 min,  0.015 sec
 * ratio c/w:     0.921 speedup

