 Entering Gaussian System
 *********************************************
 Gaussian 98:
 frequency output generated by the xtb code
 *********************************************
                         Standard orientation:
 --------------------------------------------------------------------
  Center     Atomic     Atomic              Coordinates (Angstroms)
  Number     Number      Type              X           Y           Z
 --------------------------------------------------------------------
    1          6             0        2.274718   -1.299257   -0.352408
    2          6             0        2.184459   -0.087529    0.569364
    3          6             0        1.510724    1.102382   -0.111966
    4          6             0        0.050162    0.991427   -0.349099
    5          6             0       -0.791968    0.073864    0.144763
    6          6             0       -2.201759    0.106507   -0.157998
    7          8             0       -3.032035   -0.684288    0.255638
    8          1             0        1.287894   -1.609763   -0.686196
    9          1             0        2.872139   -1.063850   -1.230340
   10          1             0        2.741524   -2.134704    0.163337
   11          1             0        3.193645    0.207832    0.861842
   12          1             0        1.643988   -0.349102    1.479632
   13          1             0        1.997798    1.294971   -1.072025
   14          1             0        1.662522    2.003190    0.492265
   15          1             0       -0.363558    1.769019   -0.981297
   16          1             0       -0.467746   -0.728749    0.789599
   17          1             0       -2.516736    0.931024   -0.825570
 --------------------------------------------------------------------
     1 basis functions        1 primitive gaussians
     1 alpha electrons        1 beta electrons
 
 Harmonic frequencies (cm**-1), IR intensities (km*mol⁻¹),
 Raman scattering activities (A**4/amu), Raman depolarization ratios,
 reduced masses (AMU), force constants (mDyne/A) and normal coordinates:
                      1                      2                      3
                        a                      a                      a 
 Frequencies --    86.4290                93.4881               143.8396
 Red. masses --    10.9727                 6.6029                 9.5896
 Frc consts  --     0.0000                 0.0000                 0.0000
 IR Inten    --     4.2088                 1.9434                 3.5125
 Raman Activ --     0.0000                 0.0000                 0.0000
 Depolar     --     0.0000                 0.0000                 0.0000
 Atom AN      X      Y      Z        X      Y      Z        X      Y      Z
   1   6    -0.52  -0.15   0.12     0.28  -0.09   0.16     0.18  -0.02  -0.01
   2   6    -0.01   0.05  -0.08    -0.01   0.04  -0.03     0.30   0.08  -0.13
   3   6     0.08   0.08  -0.10    -0.01  -0.10  -0.25    -0.02  -0.07  -0.08
   4   6     0.04   0.22   0.10    -0.10   0.13   0.18    -0.05  -0.19   0.13
   5   6     0.08   0.20   0.16    -0.02  -0.13  -0.18    -0.13   0.07   0.48
   6   6     0.09   0.02   0.09    -0.12   0.23   0.28    -0.05   0.06   0.06
   7   8     0.30  -0.38  -0.27    -0.06  -0.09  -0.19    -0.27   0.06  -0.38
   8   1    -0.19   0.00   0.12     0.11  -0.04  -0.03     0.03  -0.13   0.19
   9   1    -0.20  -0.13  -0.02     0.16  -0.06   0.09    -0.13   0.02  -0.12
  10   1    -0.17  -0.04   0.05     0.04  -0.00   0.12     0.23   0.07  -0.05
  11   1     0.04  -0.04  -0.12    -0.02   0.05   0.03     0.10   0.07  -0.13
  12   1     0.05   0.10   0.03    -0.04   0.03  -0.02     0.17   0.03   0.01
  13   1    -0.01  -0.02  -0.06    -0.08  -0.15  -0.13    -0.06  -0.02  -0.05
  14   1     0.09   0.03  -0.06     0.09   0.03  -0.18    -0.01  -0.00  -0.04
  15   1     0.00   0.07   0.04    -0.07   0.16   0.23    -0.02  -0.13  -0.05
  16   1     0.04   0.06   0.03     0.03  -0.18  -0.25    -0.07   0.07   0.22
  17   1    -0.01   0.04   0.09    -0.08   0.24   0.32     0.06   0.02  -0.01
                      4                      5                      6
                        a                      a                      a 
 Frequencies --   174.2256               211.5352               269.4726
 Red. masses --     7.2093                 5.2794                 7.9510
 Frc consts  --     0.0000                 0.0000                 0.0000
 IR Inten    --     0.9690                 2.1542                 6.9327
 Raman Activ --     0.0000                 0.0000                 0.0000
 Depolar     --     0.0000                 0.0000                 0.0000
 Atom AN      X      Y      Z        X      Y      Z        X      Y      Z
   1   6    -0.23  -0.01   0.11     0.16  -0.11   0.02     0.15  -0.16   0.01
   2   6     0.21   0.15  -0.05    -0.16  -0.17   0.06     0.01  -0.06  -0.12
   3   6    -0.01   0.11   0.11    -0.02  -0.07   0.07     0.00  -0.02  -0.07
   4   6     0.00  -0.04   0.14    -0.00   0.17  -0.17    -0.11   0.37   0.41
   5   6     0.11  -0.40  -0.33    -0.08   0.27  -0.15    -0.08   0.15   0.05
   6   6     0.06  -0.08  -0.10    -0.11   0.11   0.02    -0.00  -0.23  -0.35
   7   8    -0.11   0.21   0.08     0.18  -0.17   0.10    -0.03   0.05   0.15
   8   1    -0.12  -0.12   0.30     0.05  -0.34   0.29     0.06  -0.08  -0.01
   9   1    -0.31   0.00  -0.13    -0.28   0.14  -0.17     0.06  -0.07   0.01
  10   1     0.15   0.08  -0.03     0.45   0.12  -0.12     0.05  -0.02   0.05
  11   1     0.10   0.05  -0.16    -0.07  -0.03   0.07     0.00  -0.01  -0.03
  12   1     0.17   0.09   0.06    -0.08  -0.08  -0.01     0.01  -0.02  -0.03
  13   1    -0.03   0.08   0.03     0.05   0.01   0.05    -0.11  -0.12  -0.10
  14   1    -0.02   0.02   0.05    -0.01  -0.05   0.06     0.18   0.02  -0.11
  15   1    -0.04   0.07   0.16     0.05   0.06  -0.06    -0.04   0.18   0.21
  16   1     0.04  -0.19  -0.20    -0.01   0.08  -0.04    -0.01   0.03  -0.01
  17   1     0.05   0.01   0.00    -0.12   0.03   0.05     0.03  -0.26  -0.35
                      7                      8                      9
                        a                      a                      a 
 Frequencies --   301.0830               375.6160               525.8234
 Red. masses --     7.4705                 8.0133                12.2890
 Frc consts  --     0.0000                 0.0000                 0.0000
 IR Inten    --     3.8356                 7.2879                12.2037
 Raman Activ --     0.0000                 0.0000                 0.0000
 Depolar     --     0.0000                 0.0000                 0.0000
 Atom AN      X      Y      Z        X      Y      Z        X      Y      Z
   1   6     0.12  -0.22   0.09    -0.12   0.31  -0.07    -0.00  -0.04   0.00
   2   6     0.39   0.01  -0.16     0.28   0.01   0.32    -0.01  -0.02  -0.01
   3   6    -0.02   0.04   0.23     0.23  -0.26  -0.05     0.34   0.20  -0.03
   4   6    -0.02   0.07  -0.11     0.14  -0.07   0.05     0.21   0.19  -0.10
   5   6    -0.22   0.20  -0.20    -0.20   0.10  -0.15     0.16   0.11  -0.06
   6   6    -0.28   0.08  -0.03    -0.26   0.03  -0.09    -0.09  -0.35   0.24
   7   8    -0.03  -0.17   0.09    -0.05  -0.14   0.10    -0.62  -0.10  -0.05
   8   1     0.02   0.06  -0.05    -0.09   0.21   0.02     0.00  -0.03   0.01
   9   1     0.15  -0.22   0.07    -0.10   0.17  -0.04    -0.01  -0.01  -0.01
  10   1    -0.14  -0.09   0.14    -0.05  -0.02  -0.18     0.02   0.00   0.01
  11   1     0.15   0.05  -0.20     0.09  -0.01   0.05    -0.01  -0.08   0.10
  12   1     0.25   0.01   0.04     0.09   0.01   0.10    -0.10   0.01  -0.05
  13   1     0.04   0.20   0.13     0.01  -0.30  -0.09     0.13   0.07   0.01
  14   1    -0.10  -0.07   0.22     0.15   0.05  -0.22     0.10   0.03   0.03
  15   1     0.06   0.04  -0.05     0.11   0.02   0.01     0.08   0.06  -0.04
  16   1    -0.06   0.06  -0.05    -0.10   0.01  -0.04     0.17   0.07  -0.02
  17   1    -0.16   0.02   0.03    -0.14  -0.02  -0.03     0.02  -0.07   0.07
                     10                     11                     12
                        a                      a                      a 
 Frequencies --   571.9167               715.2151               821.5447
 Red. masses --     8.6405                 4.0319                 3.5891
 Frc consts  --     0.0000                 0.0000                 0.0000
 IR Inten    --    21.3106                 1.6222                12.4897
 Raman Activ --     0.0000                 0.0000                 0.0000
 Depolar     --     0.0000                 0.0000                 0.0000
 Atom AN      X      Y      Z        X      Y      Z        X      Y      Z
   1   6    -0.01  -0.04   0.00     0.02  -0.08  -0.06    -0.11   0.00  -0.02
   2   6    -0.11   0.10  -0.19    -0.05  -0.02  -0.02    -0.33   0.02  -0.02
   3   6     0.33   0.31  -0.09    -0.03   0.20   0.21     0.06   0.06   0.12
   4   6     0.26  -0.32   0.26    -0.05   0.15   0.21     0.21  -0.16  -0.04
   5   6    -0.19  -0.08   0.03     0.05  -0.19  -0.26    -0.00   0.08   0.07
   6   6    -0.23   0.15  -0.16    -0.01  -0.02  -0.05    -0.06   0.02  -0.01
   7   8     0.10  -0.08   0.08    -0.00   0.01   0.02    -0.03  -0.03   0.01
   8   1     0.01  -0.08   0.04     0.03  -0.08  -0.04     0.16  -0.29  -0.28
   9   1    -0.01  -0.08  -0.02     0.04  -0.04  -0.00     0.14   0.23   0.17
  10   1     0.02   0.05   0.09     0.02   0.02   0.04     0.13   0.13   0.06
  11   1    -0.06  -0.10   0.17     0.01  -0.02  -0.07     0.06  -0.04  -0.46
  12   1    -0.25   0.06  -0.17     0.07  -0.05   0.03     0.27   0.17   0.25
  13   1     0.04   0.18  -0.03    -0.15  -0.22  -0.08     0.05  -0.12   0.02
  14   1     0.04   0.05   0.04     0.25   0.15  -0.16     0.07   0.07  -0.06
  15   1     0.04  -0.11   0.06     0.07  -0.31  -0.43     0.06   0.04   0.09
  16   1    -0.25  -0.10   0.02    -0.06   0.23   0.31     0.01  -0.08  -0.11
  17   1    -0.13   0.02  -0.04    -0.05   0.16   0.22    -0.02  -0.03  -0.04
                     13                     14                     15
                        a                      a                      a 
 Frequencies --   874.9994               904.1873               915.9561
 Red. masses --     6.2508                 6.9722                 6.6197
 Frc consts  --     0.0000                 0.0000                 0.0000
 IR Inten    --    15.3066                18.1894                 8.8776
 Raman Activ --     0.0000                 0.0000                 0.0000
 Depolar     --     0.0000                 0.0000                 0.0000
 Atom AN      X      Y      Z        X      Y      Z        X      Y      Z
   1   6    -0.05   0.17   0.18    -0.03   0.31  -0.02    -0.01   0.06   0.02
   2   6    -0.10  -0.04  -0.10    -0.14   0.14  -0.31    -0.01   0.01  -0.05
   3   6     0.08  -0.35  -0.32    -0.12  -0.37   0.23    -0.01  -0.09  -0.01
   4   6     0.03   0.17   0.30     0.24  -0.08   0.06     0.03  -0.01  -0.00
   5   6     0.04  -0.09  -0.16     0.04   0.09  -0.11    -0.05   0.20   0.24
   6   6    -0.00  -0.01  -0.00     0.04  -0.01   0.10     0.10  -0.36  -0.47
   7   8    -0.02  -0.01   0.00    -0.04  -0.02  -0.02    -0.03   0.10   0.13
   8   1     0.03   0.03  -0.06    -0.03  -0.02   0.14    -0.00   0.01   0.02
   9   1     0.02   0.24   0.12     0.01  -0.27  -0.08    -0.01  -0.01  -0.00
  10   1     0.04   0.02  -0.05    -0.06   0.26   0.33    -0.01   0.03   0.03
  11   1    -0.00   0.02  -0.13    -0.09   0.12  -0.01    -0.01   0.01   0.00
  12   1    -0.00   0.20   0.05    -0.03  -0.18  -0.14    -0.02   0.00  -0.02
  13   1     0.07   0.30   0.03    -0.05  -0.16   0.04    -0.02   0.02  -0.00
  14   1    -0.07  -0.32   0.28     0.02  -0.06  -0.01     0.01  -0.05   0.04
  15   1     0.07  -0.09  -0.12     0.22   0.07   0.03     0.04  -0.01  -0.03
  16   1    -0.05   0.16   0.21     0.02   0.07   0.02     0.04  -0.12  -0.17
  17   1    -0.01   0.02   0.03     0.03  -0.05  -0.05    -0.10   0.39   0.53
                     16                     17                     18
                        a                      a                      a 
 Frequencies --  1006.4106              1027.1359              1069.8281
 Red. masses --     2.1136                 6.8201                 4.1626
 Frc consts  --     0.0000                 0.0000                 0.0000
 IR Inten    --    19.2831                43.6599                10.0077
 Raman Activ --     0.0000                 0.0000                 0.0000
 Depolar     --     0.0000                 0.0000                 0.0000
 Atom AN      X      Y      Z        X      Y      Z        X      Y      Z
   1   6     0.03  -0.10  -0.05    -0.11   0.34   0.07     0.17  -0.03  -0.13
   2   6    -0.05   0.05   0.06     0.11  -0.25  -0.07    -0.29   0.04   0.15
   3   6    -0.04   0.03  -0.02     0.28   0.04  -0.01     0.12   0.03  -0.16
   4   6     0.10  -0.13  -0.10    -0.36   0.10  -0.21     0.03   0.13   0.09
   5   6     0.03  -0.06  -0.13    -0.02  -0.19   0.10     0.14  -0.09   0.09
   6   6     0.02  -0.07  -0.10    -0.06   0.04  -0.07    -0.13   0.06  -0.09
   7   8    -0.01   0.01   0.02     0.05   0.01   0.01    -0.03  -0.03   0.03
   8   1    -0.01   0.00  -0.01     0.04  -0.11   0.02    -0.07   0.13   0.15
   9   1     0.00  -0.01  -0.01     0.07  -0.05   0.05    -0.06  -0.24  -0.16
  10   1    -0.00  -0.05  -0.05     0.02   0.27   0.28    -0.09  -0.06   0.01
  11   1    -0.02   0.05  -0.01     0.09  -0.26  -0.02    -0.11   0.35  -0.18
  12   1     0.02   0.00   0.03     0.06  -0.16  -0.03     0.22  -0.21   0.14
  13   1     0.05  -0.01   0.02     0.19  -0.06   0.04     0.45  -0.08   0.16
  14   1    -0.14   0.08  -0.07     0.18  -0.06   0.07    -0.07  -0.01   0.02
  15   1    -0.05   0.35   0.49    -0.28   0.05   0.09    -0.14  -0.11  -0.05
  16   1    -0.09   0.39   0.53    -0.03   0.02   0.13    -0.07  -0.10  -0.01
  17   1    -0.04   0.13   0.18    -0.02   0.04   0.02    -0.08   0.00  -0.01
                     19                     20                     21
                        a                      a                      a 
 Frequencies --  1074.6657              1138.0972              1160.7711
 Red. masses --     5.3249                 7.4276                 8.2780
 Frc consts  --     0.0000                 0.0000                 0.0000
 IR Inten    --    23.3163                56.6187               109.0310
 Raman Activ --     0.0000                 0.0000                 0.0000
 Depolar     --     0.0000                 0.0000                 0.0000
 Atom AN      X      Y      Z        X      Y      Z        X      Y      Z
   1   6    -0.17  -0.08  -0.32    -0.03  -0.21  -0.19     0.05  -0.03  -0.04
   2   6     0.17   0.18   0.32    -0.01   0.46  -0.00    -0.08   0.08  -0.00
   3   6     0.00  -0.11  -0.16     0.20  -0.26   0.23     0.18   0.00   0.04
   4   6    -0.05   0.09   0.19    -0.22   0.05  -0.14    -0.12   0.01  -0.04
   5   6    -0.07   0.02  -0.05     0.05  -0.15   0.12    -0.47   0.11  -0.18
   6   6     0.06  -0.04   0.01    -0.12   0.08  -0.07     0.42  -0.25   0.26
   7   8     0.01   0.02   0.00     0.03  -0.01   0.01     0.05   0.09  -0.06
   8   1     0.08  -0.34  -0.14     0.02  -0.09  -0.09    -0.01   0.03   0.02
   9   1     0.10  -0.18  -0.02     0.00  -0.04  -0.04    -0.01  -0.03  -0.03
  10   1     0.05   0.20   0.21     0.02  -0.04  -0.05    -0.01  -0.03  -0.02
  11   1     0.09  -0.15   0.13    -0.04   0.14   0.12    -0.01   0.05  -0.07
  12   1    -0.02   0.02   0.04    -0.17   0.38  -0.02    -0.00   0.08   0.02
  13   1     0.16   0.05   0.06     0.10  -0.13   0.07     0.15  -0.05   0.05
  14   1    -0.46   0.11  -0.11     0.29  -0.16   0.14     0.12  -0.03   0.04
  15   1     0.08  -0.04  -0.10    -0.00   0.06  -0.01    -0.03   0.01  -0.00
  16   1     0.03   0.02  -0.03     0.14   0.02   0.04    -0.47  -0.09  -0.02
  17   1     0.03   0.01   0.02    -0.01   0.02  -0.02     0.21  -0.02   0.06
                     22                     23                     24
                        a                      a                      a 
 Frequencies --  1195.0624              1213.2105              1252.8348
 Red. masses --     4.3864                 4.9837                 3.1019
 Frc consts  --     0.0000                 0.0000                 0.0000
 IR Inten    --     8.5380                 7.3552                 1.6873
 Raman Activ --     0.0000                 0.0000                 0.0000
 Depolar     --     0.0000                 0.0000                 0.0000
 Atom AN      X      Y      Z        X      Y      Z        X      Y      Z
   1   6     0.02   0.04  -0.26    -0.14  -0.06   0.04     0.27   0.11  -0.07
   2   6    -0.02  -0.05   0.39     0.18   0.08  -0.07    -0.16  -0.11  -0.01
   3   6    -0.11   0.05  -0.15    -0.18  -0.12   0.08    -0.00  -0.07   0.11
   4   6     0.14  -0.07  -0.08     0.18   0.20  -0.10    -0.02   0.10  -0.05
   5   6     0.07   0.07  -0.04     0.37   0.04   0.04     0.15  -0.04   0.05
   6   6     0.02  -0.00   0.02     0.02   0.01  -0.01    -0.02   0.02  -0.02
   7   8    -0.03  -0.01  -0.01    -0.11  -0.03   0.00    -0.03  -0.02   0.01
   8   1    -0.00  -0.10   0.06     0.04  -0.09  -0.11    -0.06   0.19   0.21
   9   1     0.04  -0.24  -0.10     0.04   0.13   0.10    -0.06  -0.18  -0.15
  10   1    -0.04   0.11   0.16     0.06   0.02  -0.03    -0.10  -0.03   0.04
  11   1     0.00   0.07  -0.01    -0.00   0.07   0.09     0.13  -0.45  -0.17
  12   1     0.06   0.06   0.16    -0.08  -0.04  -0.11    -0.12   0.51   0.11
  13   1    -0.39   0.26  -0.18     0.02  -0.06   0.04    -0.07  -0.03  -0.01
  14   1     0.38  -0.23   0.21    -0.03   0.01  -0.04    -0.21   0.09  -0.09
  15   1    -0.14  -0.03   0.07    -0.27  -0.09   0.01     0.06   0.04  -0.03
  16   1    -0.11  -0.01   0.01    -0.59  -0.23   0.07    -0.18  -0.09   0.03
  17   1    -0.05  -0.03  -0.00    -0.23  -0.08   0.01    -0.08  -0.02  -0.00
                     25                     26                     27
                        a                      a                      a 
 Frequencies --  1282.2912              1332.7268              1348.5645
 Red. masses --     3.1129                 4.5412                 5.7858
 Frc consts  --     0.0000                 0.0000                 0.0000
 IR Inten    --     5.2663                 6.1387                 2.4163
 Raman Activ --     0.0000                 0.0000                 0.0000
 Depolar     --     0.0000                 0.0000                 0.0000
 Atom AN      X      Y      Z        X      Y      Z        X      Y      Z
   1   6     0.03   0.01  -0.00    -0.08   0.02  -0.08     0.05  -0.06   0.07
   2   6    -0.01  -0.00  -0.07     0.05  -0.38  -0.04    -0.22   0.34   0.03
   3   6     0.06  -0.10   0.11     0.35  -0.03   0.15     0.43  -0.19   0.10
   4   6     0.11  -0.13   0.13    -0.09   0.07  -0.06    -0.12   0.06  -0.07
   5   6    -0.06   0.25  -0.19     0.00  -0.05   0.04     0.04  -0.02   0.02
   6   6     0.04  -0.05   0.04    -0.01   0.01  -0.01     0.02  -0.01   0.01
   7   8     0.02   0.05  -0.03     0.01  -0.00   0.00     0.01   0.03  -0.02
   8   1    -0.01   0.03   0.02    -0.03  -0.01   0.04     0.02   0.02  -0.04
   9   1    -0.01  -0.01  -0.02     0.05   0.06   0.05    -0.06   0.00  -0.03
  10   1    -0.01  -0.00   0.00     0.01   0.11   0.13    -0.02  -0.10  -0.09
  11   1    -0.00  -0.03   0.00    -0.19   0.58   0.01     0.05  -0.18  -0.09
  12   1    -0.06   0.16  -0.00    -0.06   0.24   0.04     0.16  -0.41  -0.01
  13   1     0.02  -0.09   0.02    -0.26   0.09  -0.12    -0.41   0.14  -0.20
  14   1    -0.09   0.02  -0.02    -0.28   0.16  -0.12    -0.24   0.02   0.01
  15   1    -0.70  -0.35   0.11     0.01   0.03  -0.03    -0.08  -0.01  -0.01
  16   1     0.28   0.18  -0.07    -0.04  -0.03   0.01    -0.04  -0.02   0.01
  17   1    -0.07  -0.03   0.01     0.02   0.01  -0.00    -0.13  -0.05   0.01
                     28                     29                     30
                        a                      a                      a 
 Frequencies --  1380.6951              1413.3842              1420.4089
 Red. masses --     3.2711                 2.8438                 2.3614
 Frc consts  --     0.0000                 0.0000                 0.0000
 IR Inten    --    15.4966                19.9323                68.1802
 Raman Activ --     0.0000                 0.0000                 0.0000
 Depolar     --     0.0000                 0.0000                 0.0000
 Atom AN      X      Y      Z        X      Y      Z        X      Y      Z
   1   6     0.01  -0.02  -0.00    -0.04   0.30   0.19     0.00  -0.19  -0.14
   2   6    -0.02   0.06   0.01     0.05  -0.08  -0.00     0.01   0.03  -0.01
   3   6     0.00  -0.08   0.04     0.05   0.14  -0.03     0.03   0.22  -0.10
   4   6     0.12   0.10  -0.05    -0.01  -0.01   0.01    -0.01  -0.03   0.03
   5   6     0.05   0.04  -0.02     0.04   0.02  -0.01     0.06   0.05  -0.03
   6   6    -0.21   0.09  -0.11    -0.02  -0.00  -0.00    -0.02  -0.02   0.01
   7   8    -0.07  -0.22   0.15    -0.01  -0.01   0.01     0.00   0.00  -0.00
   8   1    -0.01   0.01   0.01     0.18  -0.35  -0.18    -0.12   0.22   0.14
   9   1     0.00   0.02   0.00    -0.02  -0.41  -0.11     0.05   0.24   0.09
  10   1     0.00  -0.00   0.00    -0.05  -0.23  -0.36     0.06   0.16   0.21
  11   1     0.02  -0.05  -0.03    -0.02   0.09  -0.03     0.01  -0.05   0.06
  12   1    -0.01  -0.04  -0.02    -0.07   0.07  -0.02     0.05  -0.01   0.02
  13   1    -0.07   0.04  -0.02    -0.08  -0.34  -0.11    -0.10  -0.54  -0.17
  14   1    -0.03   0.02  -0.03    -0.19  -0.13   0.26    -0.25  -0.25   0.44
  15   1    -0.17  -0.06   0.01     0.02   0.01   0.00     0.03   0.01   0.01
  16   1    -0.12  -0.04   0.00    -0.04  -0.00   0.01    -0.04  -0.01  -0.01
  17   1     0.81   0.32  -0.07     0.05   0.02  -0.00     0.03   0.01  -0.00
                     31                     32                     33
                        a                      a                      a 
 Frequencies --  1493.3877              1500.2395              1504.9038
 Red. masses --     1.8905                 1.5321                 1.5965
 Frc consts  --     0.0000                 0.0000                 0.0000
 IR Inten    --     0.4438                 2.8044                 1.2370
 Raman Activ --     0.0000                 0.0000                 0.0000
 Depolar     --     0.0000                 0.0000                 0.0000
 Atom AN      X      Y      Z        X      Y      Z        X      Y      Z
   1   6     0.01   0.03   0.03    -0.19  -0.05   0.07    -0.08   0.10  -0.17
   2   6    -0.09  -0.02  -0.26    -0.05  -0.01  -0.00    -0.04   0.05  -0.06
   3   6    -0.01  -0.02  -0.01     0.01  -0.01   0.01     0.01  -0.02   0.01
   4   6     0.01   0.01  -0.00     0.01   0.00  -0.00    -0.00   0.00  -0.00
   5   6     0.01   0.01  -0.00    -0.01  -0.00   0.00    -0.00  -0.00   0.00
   6   6     0.01   0.01  -0.00     0.00   0.00   0.00     0.00   0.00  -0.00
   7   8    -0.01  -0.01   0.01     0.00   0.00  -0.00    -0.00   0.00  -0.00
   8   1     0.04  -0.04  -0.08    -0.10   0.42  -0.11    -0.13  -0.24   0.60
   9   1    -0.08  -0.03  -0.06     0.26  -0.41   0.08     0.52   0.01   0.35
  10   1    -0.04  -0.01   0.00     0.64   0.21  -0.25    -0.06  -0.18  -0.26
  11   1    -0.16  -0.10   0.64    -0.01  -0.03   0.01    -0.01  -0.05   0.06
  12   1     0.55   0.15   0.36     0.03   0.03   0.04     0.07  -0.02   0.03
  13   1    -0.01   0.02   0.00    -0.01   0.03   0.00     0.01   0.02   0.01
  14   1    -0.01   0.01  -0.02     0.00   0.01  -0.02     0.01   0.01  -0.02
  15   1    -0.01  -0.00  -0.00    -0.01  -0.00  -0.00    -0.00  -0.00  -0.00
  16   1    -0.06  -0.02   0.00     0.01  -0.00  -0.00     0.01  -0.00  -0.01
  17   1     0.03   0.01  -0.00    -0.00  -0.00  -0.00    -0.01  -0.00  -0.00
                     34                     35                     36
                        a                      a                      a 
 Frequencies --  1627.2565              1677.2101              2758.7907
 Red. masses --    11.6452                12.9423                 1.6649
 Frc consts  --     0.0000                 0.0000                 0.0000
 IR Inten    --  1228.7991               222.9424               218.8142
 Raman Activ --     0.0000                 0.0000                 0.0000
 Depolar     --     0.0000                 0.0000                 0.0000
 Atom AN      X      Y      Z        X      Y      Z        X      Y      Z
   1   6    -0.00   0.00  -0.00    -0.00   0.00   0.00    -0.00  -0.00   0.00
   2   6    -0.01  -0.00   0.00     0.01   0.00  -0.00    -0.00  -0.00  -0.00
   3   6     0.05   0.00  -0.00    -0.07  -0.02   0.00    -0.00  -0.00   0.00
   4   6    -0.40  -0.33   0.16     0.33   0.26  -0.12     0.00  -0.00   0.00
   5   6     0.44   0.35  -0.16    -0.21  -0.22   0.12    -0.00   0.01  -0.01
   6   6    -0.35  -0.27   0.13    -0.47  -0.38   0.19    -0.09   0.17  -0.14
   7   8     0.19   0.19  -0.10     0.37   0.34  -0.17     0.01   0.02  -0.01
   8   1     0.00  -0.00   0.00     0.00  -0.01  -0.00     0.00   0.00  -0.00
   9   1     0.00  -0.01  -0.00    -0.00  -0.00  -0.00     0.00   0.00  -0.00
  10   1     0.00  -0.00  -0.00    -0.00  -0.00  -0.00     0.00  -0.00   0.00
  11   1    -0.00   0.01  -0.00     0.00  -0.01   0.01     0.00   0.00   0.00
  12   1     0.01  -0.01   0.01     0.00   0.00   0.00    -0.00  -0.00   0.00
  13   1     0.06   0.07   0.04    -0.04  -0.02  -0.02     0.00   0.00  -0.00
  14   1     0.06   0.02  -0.05    -0.04  -0.00   0.01    -0.00   0.00   0.00
  15   1     0.11  -0.00   0.02    -0.07   0.01  -0.02    -0.01  -0.00  -0.00
  16   1    -0.15   0.00  -0.03     0.03  -0.04   0.04    -0.01   0.01  -0.01
  17   1     0.10   0.01   0.01     0.03  -0.02   0.02     0.28  -0.72   0.58
                     37                     38                     39
                        a                      a                      a 
 Frequencies --  2931.5961              2963.3570              2979.7294
 Red. masses --     1.8904                 1.5763                 1.9295
 Frc consts  --     0.0000                 0.0000                 0.0000
 IR Inten    --    11.8695                11.7454                65.2382
 Raman Activ --     0.0000                 0.0000                 0.0000
 Depolar     --     0.0000                 0.0000                 0.0000
 Atom AN      X      Y      Z        X      Y      Z        X      Y      Z
   1   6    -0.00   0.00  -0.00     0.00  -0.00   0.00    -0.02  -0.01   0.01
   2   6    -0.01   0.00  -0.00    -0.06  -0.02   0.02     0.26   0.09  -0.05
   3   6    -0.02   0.17   0.22     0.11   0.12  -0.14     0.03   0.03  -0.03
   4   6     0.00   0.01   0.01     0.01  -0.00   0.00     0.00  -0.00   0.00
   5   6    -0.00  -0.00   0.00    -0.00  -0.00   0.00     0.00  -0.00   0.00
   6   6    -0.00  -0.00  -0.00    -0.00   0.00  -0.00    -0.00   0.00  -0.00
   7   8    -0.00   0.00   0.00     0.00  -0.00   0.00     0.00   0.00  -0.00
   8   1     0.00   0.00   0.00    -0.02  -0.01  -0.01     0.06   0.02   0.02
   9   1    -0.00  -0.00   0.00    -0.00  -0.00   0.01     0.04   0.02  -0.06
  10   1     0.00  -0.00   0.00    -0.00   0.00  -0.00    -0.00  -0.01   0.01
  11   1     0.04   0.01   0.01     0.16   0.05   0.05    -0.74  -0.22  -0.22
  12   1    -0.02  -0.01   0.03     0.07   0.04  -0.13    -0.21  -0.10   0.39
  13   1     0.18   0.09  -0.32    -0.38  -0.13   0.76    -0.09  -0.03   0.18
  14   1    -0.13  -0.72  -0.49    -0.04  -0.30  -0.24    -0.01  -0.09  -0.07
  15   1     0.00  -0.00  -0.00    -0.02   0.03  -0.02    -0.01   0.02  -0.01
  16   1    -0.00   0.00   0.00     0.00  -0.00   0.00    -0.00   0.00  -0.00
  17   1     0.00  -0.00   0.00     0.00  -0.00   0.00     0.00  -0.00   0.00
                     40                     41                     42
                        a                      a                      a 
 Frequencies --  2998.6896              3028.9458              3036.0871
 Red. masses --     1.5257                 1.9066                 1.8051
 Frc consts  --     0.0000                 0.0000                 0.0000
 IR Inten    --    49.5230                79.8965                31.3971
 Raman Activ --     0.0000                 0.0000                 0.0000
 Depolar     --     0.0000                 0.0000                 0.0000
 Atom AN      X      Y      Z        X      Y      Z        X      Y      Z
   1   6    -0.01   0.02  -0.03    -0.15  -0.12   0.21     0.03  -0.01   0.00
   2   6     0.01  -0.02   0.21    -0.03  -0.01   0.03     0.01  -0.00   0.00
   3   6    -0.00   0.00   0.02    -0.00  -0.00   0.00     0.00   0.01  -0.01
   4   6    -0.00  -0.00   0.00    -0.00   0.01  -0.01    -0.09   0.19  -0.16
   5   6    -0.00   0.00  -0.00    -0.00  -0.00   0.00    -0.00  -0.01   0.01
   6   6    -0.00   0.00  -0.00     0.00  -0.00   0.00    -0.00  -0.00   0.00
   7   8     0.00   0.00  -0.00    -0.00   0.00  -0.00     0.00   0.00  -0.00
   8   1     0.03   0.01   0.01     0.17   0.04   0.09    -0.04  -0.01  -0.01
   9   1    -0.05  -0.01   0.06     0.49   0.20  -0.71    -0.03  -0.02   0.05
  10   1     0.04  -0.07   0.04    -0.14   0.19  -0.11    -0.04   0.08  -0.05
  11   1    -0.46  -0.14  -0.10     0.02   0.00   0.01    -0.02  -0.00  -0.01
  12   1     0.44   0.21  -0.67     0.06   0.03  -0.10    -0.00  -0.00   0.00
  13   1     0.02   0.01  -0.04     0.01   0.00  -0.01    -0.02  -0.01   0.04
  14   1    -0.00  -0.02  -0.01    -0.00  -0.00  -0.00    -0.00  -0.01  -0.01
  15   1     0.00   0.00   0.00     0.02  -0.03   0.03     0.36  -0.68   0.56
  16   1     0.00  -0.01   0.01    -0.00   0.00  -0.00    -0.02   0.05  -0.04
  17   1     0.00  -0.00   0.00    -0.00   0.00  -0.00     0.00  -0.00   0.00
                     43                     44                     45
                        a                      a                      a 
 Frequencies --  3036.5048              3045.7844              3100.9826
 Red. masses --     1.9122                 1.3290                 1.8334
 Frc consts  --     0.0000                 0.0000                 0.0000
 IR Inten    --    88.9574                42.6143                26.4080
 Raman Activ --     0.0000                 0.0000                 0.0000
 Depolar     --     0.0000                 0.0000                 0.0000
 Atom AN      X      Y      Z        X      Y      Z        X      Y      Z
   1   6     0.23  -0.11   0.12     0.08   0.13   0.07    -0.00   0.00  -0.00
   2   6     0.02   0.00   0.02     0.01   0.01   0.00    -0.00  -0.00   0.00
   3   6    -0.00   0.00   0.00     0.00   0.00   0.00     0.00  -0.00   0.00
   4   6     0.01  -0.02   0.02    -0.00   0.01  -0.01     0.02  -0.01   0.01
   5   6     0.00  -0.00   0.00    -0.00   0.00  -0.00     0.07  -0.21   0.16
   6   6    -0.00   0.00  -0.00     0.00  -0.00   0.00    -0.00  -0.01   0.01
   7   8     0.00   0.00  -0.00     0.00   0.00   0.00     0.00   0.00  -0.00
   8   1    -0.48  -0.17  -0.14    -0.72  -0.20  -0.23    -0.00   0.00  -0.00
   9   1    -0.03  -0.04   0.11     0.20   0.09  -0.26    -0.00   0.00   0.00
  10   1    -0.32   0.60  -0.38     0.23  -0.36   0.25     0.01  -0.01   0.01
  11   1    -0.08  -0.02  -0.02    -0.02  -0.00  -0.00    -0.00  -0.00   0.00
  12   1     0.03   0.01  -0.04    -0.00  -0.00   0.01     0.01   0.01  -0.01
  13   1     0.01   0.00  -0.01     0.00   0.00  -0.00     0.00  -0.00  -0.00
  14   1    -0.00  -0.01  -0.00    -0.00  -0.00  -0.00     0.00   0.00   0.00
  15   1    -0.04   0.08  -0.07     0.01  -0.03   0.02    -0.02   0.05  -0.04
  16   1     0.00  -0.00  -0.00     0.00  -0.00   0.00    -0.29   0.71  -0.57
  17   1    -0.00  -0.00   0.00     0.00   0.00  -0.00    -0.00   0.01  -0.01
