! r2scan-3c def2/J RI DEFGRID2 scfconv6 printgap
%output
    printlevel normal
end
%cpcm
    smd true
    smdsolvent "water"
end
* xyz 0 1
C -2.2355608765 -1.5733967564 0.5067722467
C -2.3433646904 -0.2343083308 -0.2128500867
C -1.42480633 0.8433959243 0.3784357394
C -0.0007361126 0.7874955254 -0.1139978032
O 0.6282035366 1.7709242992 -0.4539051709
O 0.4992626028 -0.4388826454 -0.137946079
C 1.8574240654 -0.6153186576 -0.5721002769
C 2.8267289212 -0.4653436252 0.5903556878
H -2.9064073919 -2.2964107881 0.050145727
H -1.2218686393 -1.9575983696 0.4516585434
H -2.5095123198 -1.4636740021 1.5533208215
H -3.371119957 0.1243956617 -0.1396163816
H -2.112511162 -0.3649005443 -1.271605466
H -1.3989892848 0.7412883383 1.4656980889
H -1.7951016331 1.8411681362 0.1398384344
H 1.8872359361 -1.6239527207 -0.9855381328
H 2.0740756786 0.1215207615 -1.3514682252
H 3.8353246549 -0.6699167944 0.2464252693
H 2.7857424383 0.5493528049 0.9801403699
H 2.5697444285 -1.160935105 1.3846005469
*
