! pbe def2-sv(p) def2/J RI DEFGRID1 loosescf d4 GCP(DFT/SV(P)) printgap
%output
    printlevel normal
end
* xyz 0 1
C -3.2566984432 -1.1744223754 0.3179242839
C -1.7575728387 -0.8990283658 0.3113544285
C -1.4625275934 0.5086737016 -0.1981698334
C -0.0012350139 0.872243004 -0.2332158014
O 0.4106045446 1.9696330741 -0.5614375187
O 0.7956775735 -0.1211375263 0.1225025682
C 2.2143590132 0.1117127596 0.1138968445
C 2.9179232015 -1.2319161622 0.1244035187
H -3.453916766 -2.1782684063 0.6835956354
H -3.7727271926 -0.4661930962 0.9615573752
H -3.6657080767 -1.0871685602 -0.6856416333
H -1.2522437054 -1.6269214559 -0.3242523795
H -1.358621849 -1.0085844886 1.320602544
H -1.9630852115 1.2570159439 0.4210135081
H -1.8456013427 0.637051393 -1.213758459
H 2.4650338668 0.6998920021 -0.7750182058
H 2.4666001845 0.7039460232 0.9993759959
H 2.6533851365 -1.8003838787 -0.7623624375
H 3.9912152288 -1.074128791 0.1407489429
H 2.6242829224 -1.797134051 1.00373573
*
