      -----------------------------------------------------------      
     |                   =====================                   |     
     |                           x T B                           |     
     |                   =====================                   |     
     |                         S. Grimme                         |     
     |          Mulliken Center for Theoretical Chemistry        |     
     |                    University of Bonn                     |     
      -----------------------------------------------------------      

   * xtb version 6.7.1 (edcfbbe) compiled by 'albert@albert-system' on 2024-07-22

   xtb is free software: you can redistribute it and/or modify it under
   the terms of the GNU Lesser General Public License as published by
   the Free Software Foundation, either version 3 of the License, or
   (at your option) any later version.
   
   xtb is distributed in the hope that it will be useful,
   but WITHOUT ANY WARRANTY; without even the implied warranty of
   MERCHANTABILITY or FITNESS FOR A PARTICULAR PURPOSE.  See the
   GNU Lesser General Public License for more details.
   
   Cite this work as:
   * C. Bannwarth, E. Caldeweyher, S. Ehlert, A. Hansen, P. Pracht,
     J. Seibert, S. Spicher, S. Grimme, WIREs Comput. Mol. Sci., 2020, 11,
     e01493. DOI: 10.1002/wcms.1493
   
   for GFN2-xTB:
   * C. Bannwarth, S. Ehlert and S. Grimme., J. Chem. Theory Comput., 2019,
     15, 1652-1671. DOI: 10.1021/acs.jctc.8b01176
   for GFN1-xTB:
   * S. Grimme, C. Bannwarth, P. Shushkov, J. Chem. Theory Comput., 2017,
     13, 1989-2009. DOI: 10.1021/acs.jctc.7b00118
   for GFN0-xTB:
   * P. Pracht, E. Caldeweyher, S. Ehlert, S. Grimme, ChemRxiv, 2019, preprint.
     DOI: 10.26434/chemrxiv.8326202.v1
   for GFN-FF:
   * S. Spicher and S. Grimme, Angew. Chem. Int. Ed., 2020, 59, 15665-15673.
     DOI: 10.1002/anie.202004239
   
   for ALPB and GBSA implicit solvation:
   * S. Ehlert, M. Stahn, S. Spicher, S. Grimme, J. Chem. Theory Comput.,
     2021, 17, 4250-4261. DOI: 10.1021/acs.jctc.1c00471
   
   for ddCOSMO and CPCM-X implicit solvation:
   * M. Stahn, S. Ehlert, S. Grimme, J. Phys. Chem. A,
     2023, XX, XXXX-XXXX. DOI: 10.1021/acs.jpca.3c04382
   
   for DFT-D4:
   * E. Caldeweyher, C. Bannwarth and S. Grimme, J. Chem. Phys., 2017,
     147, 034112. DOI: 10.1063/1.4993215
   * E. Caldeweyher, S. Ehlert, A. Hansen, H. Neugebauer, S. Spicher,
     C. Bannwarth and S. Grimme, J. Chem. Phys., 2019, 150, 154122.
     DOI: 10.1063/1.5090222
   * E. Caldeweyher, J.-M. Mewes, S. Ehlert and S. Grimme, Phys. Chem. Chem. Phys.
     2020, 22, 8499-8512. DOI: 10.1039/D0CP00502A
   
   for sTDA-xTB:
   * S. Grimme and C. Bannwarth, J. Chem. Phys., 2016, 145, 054103.
     DOI: 10.1063/1.4959605
   
   in the mass-spec context:
   * V. Asgeirsson, C. Bauer and S. Grimme, Chem. Sci., 2017, 8, 4879.
     DOI: 10.1039/c7sc00601b
   * J. Koopman and S. Grimme, ACS Omega 2019, 4, 12, 15120-15133.
     DOI: 10.1021/acsomega.9b02011
   
   for metadynamics refer to:
   * S. Grimme, J. Chem. Theory Comput., 2019, 155, 2847-2862
     DOI: 10.1021/acs.jctc.9b00143
   
   for SPH calculations refer to:
   * S. Spicher and S. Grimme, J. Chem. Theory Comput., 2021, 17, 1701-1714
     DOI: 10.1021/acs.jctc.0c01306
   
   for ONIOM refer to:
   * C. Plett, A. Katbashev, S. Ehlert, S. Grimme, M. Bursch,
     Phys. Chem. Chem. Phys., 2023, 25, 17860-17868. DOI: 10.1039/D3CP02178E
   
   for DIPRO refer to:
   * J. Kohn, N. Gildemeister, S. Grimme, D. Fazzi, A. Hansen,
     J. Chem. Phys., 2023, just accepted.
   
   for PTB refer to:
   * S. Grimme, M. Mueller, A. Hansen, J. Chem. Phys., 2023, 158, 124111.
     DOI: 10.1063/5.0137838
   
   with help from (in alphabetical order)
   P. Atkinson, C. Bannwarth, F. Bohle, G. Brandenburg, E. Caldeweyher
   M. Checinski, S. Dohm, S. Ehlert, S. Ehrlich, I. Gerasimov, C. Hölzer
   A. Katbashev, J. Kohn, J. Koopman, C. Lavigne, S. Lehtola, F. März, M. Müller,
   F. Musil, H. Neugebauer, J. Pisarek, C. Plett, P. Pracht, F. Pultar,
   J. Seibert, P. Shushkov, S. Spicher, M. Stahn, M. Steiner, T. Strunk,
   J. Stückrath, T. Rose, and J. Unsleber
   
 * started run on 2025/04/11 at 14:05:00.646     
   ID    Z sym.   atoms
    1    6 C      1-4
    2    8 O      5, 7, 8
    3    7 N      6
    4    1 H      9-17

           -------------------------------------------------
          |                Calculation Setup                |
           -------------------------------------------------

          program call               : /software/projects/pawsey0265/mwang1/xtb/bin/xtb gas.coord --gfn2 --sp --chrg 0 --norestart --parallel 1
          hostname                   : nid002819
          coordinate file            : gas.coord
          omp threads                :                     1


           -------------------------------------------------
          |                 G F N 2 - x T B                 |
           -------------------------------------------------

        Reference                      10.1021/acs.jctc.8b01176
      * Hamiltonian:
        H0-scaling (s, p, d)           1.850000    2.230000    2.230000
        zeta-weighting                 0.500000
      * Dispersion:
        s8                             2.700000
        a1                             0.520000
        a2                             5.000000
        s9                             5.000000
      * Repulsion:
        kExp                           1.500000    1.000000
        rExp                           1.000000
      * Coulomb:
        alpha                          2.000000
        third order                    shell-resolved
        anisotropic                    true
        a3                             3.000000
        a5                             4.000000
        cn-shift                       1.200000
        cn-exp                         4.000000
        max-rad                        5.000000


          ...................................................
          :                      SETUP                      :
          :.................................................:
          :  # basis functions                  41          :
          :  # atomic orbitals                  41          :
          :  # shells                           25          :
          :  # electrons                        48          :
          :  max. iterations                   250          :
          :  Hamiltonian                  GFN2-xTB          :
          :  restarted?                      false          :
          :  GBSA solvation                  false          :
          :  PC potential                    false          :
          :  electronic temp.          300.0000000     K    :
          :  accuracy                    1.0000000          :
          :  -> integral cutoff          0.2500000E+02      :
          :  -> integral neglect         0.1000000E-07      :
          :  -> SCF convergence          0.1000000E-05 Eh   :
          :  -> wf. convergence          0.1000000E-03 e    :
          :  Broyden damping             0.4000000          :
          :  net charge                          0          :
          :  unpaired electrons                  0          :
          ...................................................

 iter      E             dE          RMSdq      gap      omega  full diag
   1    -28.2714558 -0.282715E+02  0.499E+00    6.63       0.0  T
   2    -28.4094835 -0.138028E+00  0.211E+00    4.80       1.0  T
   3    -28.4138573 -0.437385E-02  0.116E+00    4.55       1.0  T
   4    -28.4141857 -0.328401E-03  0.189E-01    4.01       1.0  T
   5    -28.4142848 -0.990898E-04  0.680E-02    4.02       1.0  T
   6    -28.4142928 -0.803883E-05  0.255E-02    4.07       1.0  T
   7    -28.4142938 -0.925876E-06  0.603E-03    4.09       4.0  T
   8    -28.4142938 -0.521094E-07  0.286E-03    4.09       8.5  T
   9    -28.4142938 -0.112640E-07  0.573E-04    4.09      42.3  T
  10    -28.4142938 -0.591896E-09  0.252E-04    4.09      96.4  T

   *** convergence criteria satisfied after 10 iterations ***

         #    Occupation            Energy/Eh            Energy/eV
      -------------------------------------------------------------
         1        2.0000           -0.8191718             -22.2908
       ...           ...                  ...                  ...
        18        2.0000           -0.4861964             -13.2301
        19        2.0000           -0.4766561             -12.9705
        20        2.0000           -0.4764737             -12.9655
        21        2.0000           -0.4716381             -12.8339
        22        2.0000           -0.4617483             -12.5648
        23        2.0000           -0.4589117             -12.4876
        24        2.0000           -0.4524192             -12.3110 (HOMO)
        25                         -0.3022526              -8.2247 (LUMO)
        26                         -0.0788454              -2.1455
        27                          0.0168968               0.4598
        28                          0.0671141               1.8263
        29                          0.0808066               2.1989
       ...                                ...                  ...
        41                          0.4768956              12.9770
      -------------------------------------------------------------
                  HL-Gap            0.1501667 Eh            4.0862 eV
             Fermi-level           -0.3773359 Eh          -10.2678 eV

 SCC (total)                   0 d,  0 h,  0 min,  0.045 sec
 SCC setup                      ...        0 min,  0.000 sec (  0.414%)
 Dispersion                     ...        0 min,  0.000 sec (  0.205%)
 classical contributions        ...        0 min,  0.000 sec (  0.071%)
 integral evaluation            ...        0 min,  0.001 sec (  3.182%)
 iterations                     ...        0 min,  0.039 sec ( 87.299%)
 molecular gradient             ...        0 min,  0.003 sec (  7.335%)
 printout                       ...        0 min,  0.001 sec (  1.447%)

         :::::::::::::::::::::::::::::::::::::::::::::::::::::
         ::                     SUMMARY                     ::
         :::::::::::::::::::::::::::::::::::::::::::::::::::::
         :: total energy             -28.167585950417 Eh    ::
         :: gradient norm              0.029239899452 Eh/a0 ::
         :: HOMO-LUMO gap              4.086242804347 eV    ::
         ::.................................................::
         :: SCC energy               -28.414251521274 Eh    ::
         :: -> isotropic ES            0.061173545371 Eh    ::
         :: -> anisotropic ES          0.020606358152 Eh    ::
         :: -> anisotropic XC         -0.001997840966 Eh    ::
         :: -> dispersion             -0.010238905254 Eh    ::
         :: repulsion energy           0.246665570857 Eh    ::
         :: add. restraining           0.000000000000 Eh    ::
         :: total charge              -0.000000000000 e     ::
         :::::::::::::::::::::::::::::::::::::::::::::::::::::

           -------------------------------------------------
          |                Property Printout                |
           -------------------------------------------------

    * Orbital Energies and Occupations

         #    Occupation            Energy/Eh            Energy/eV
      -------------------------------------------------------------
         1        2.0000           -0.8191718             -22.2908
       ...           ...                  ...                  ...
        12        2.0000           -0.5702403             -15.5170
        13        2.0000           -0.5515978             -15.0097
        14        2.0000           -0.5377277             -14.6323
        15        2.0000           -0.5145679             -14.0021
        16        2.0000           -0.5075054             -13.8099
        17        2.0000           -0.4935770             -13.4309
        18        2.0000           -0.4861964             -13.2301
        19        2.0000           -0.4766561             -12.9705
        20        2.0000           -0.4764737             -12.9655
        21        2.0000           -0.4716381             -12.8339
        22        2.0000           -0.4617483             -12.5648
        23        2.0000           -0.4589117             -12.4876
        24        2.0000           -0.4524192             -12.3110 (HOMO)
        25                         -0.3022526              -8.2247 (LUMO)
        26                         -0.0788454              -2.1455
        27                          0.0168968               0.4598
        28                          0.0671141               1.8263
        29                          0.0808066               2.1989
        30                          0.0845628               2.3011
        31                          0.1256629               3.4195
        32                          0.1516611               4.1269
        33                          0.1696702               4.6170
        34                          0.1852158               5.0400
        35                          0.2016456               5.4871
       ...                                ...                  ...
        41                          0.4768956              12.9770
      -------------------------------------------------------------
                  HL-Gap            0.1501667 Eh            4.0862 eV
             Fermi-level           -0.3773359 Eh          -10.2678 eV

     #   Z          covCN         q      C6AA      α(0)
     1   6 C        3.756    -0.116    22.773     6.804
     2   6 C        3.849    -0.011    20.731     6.476
     3   6 C        3.756    -0.116    22.772     6.804
     4   6 C        3.687     0.068    19.618     6.340
     5   8 O        1.770    -0.244    18.023     5.733
     6   7 N        2.776     0.723    11.771     5.096
     7   8 O        0.925    -0.400    21.657     6.241
     8   8 O        0.927    -0.374    21.134     6.165
     9   1 H        0.925     0.057     2.231     2.336
    10   1 H        0.925     0.042     2.425     2.435
    11   1 H        0.925     0.049     2.332     2.388
    12   1 H        0.924     0.046     2.364     2.405
    13   1 H        0.925     0.049     2.333     2.389
    14   1 H        0.925     0.042     2.425     2.435
    15   1 H        0.925     0.057     2.230     2.335
    16   1 H        0.924     0.063     2.162     2.299
    17   1 H        0.924     0.063     2.160     2.298

 Mol. C6AA /au·bohr⁶  :       2396.839140
 Mol. C8AA /au·bohr⁸  :      49850.862648
 Mol. α(0) /au        :         70.979914


Wiberg/Mayer (AO) data.
largest (>0.10) Wiberg bond orders for each atom

 ---------------------------------------------------------------------------
     #   Z sym  total        # sym  WBO       # sym  WBO       # sym  WBO
 ---------------------------------------------------------------------------
     1   6 C    3.993 --     2 C    1.009    10 H    0.986    11 H    0.985
                             9 H    0.985
     2   6 C    3.989 --     1 C    1.009     3 C    1.009     4 C    0.985
                            12 H    0.964
     3   6 C    3.993 --     2 C    1.009    14 H    0.986    13 H    0.985
                            15 H    0.985
     4   6 C    3.903 --     2 C    0.985    16 H    0.965    17 H    0.965
                             5 O    0.924
     5   8 O    2.255 --     6 N    0.999     4 C    0.924     7 O    0.155
                             8 O    0.146
     6   7 N    3.954 --     8 O    1.468     7 O    1.455     5 O    0.999
     7   8 O    1.939 --     6 N    1.455     8 O    0.312     5 O    0.155
     8   8 O    1.957 --     6 N    1.468     7 O    0.312     5 O    0.146
     9   1 H    0.997 --     1 C    0.985
    10   1 H    0.998 --     1 C    0.986
    11   1 H    0.998 --     1 C    0.985
    12   1 H    0.997 --     2 C    0.964
    13   1 H    0.998 --     3 C    0.985
    14   1 H    0.998 --     3 C    0.986
    15   1 H    0.997 --     3 C    0.985
    16   1 H    0.996 --     4 C    0.965
    17   1 H    0.996 --     4 C    0.965
 ---------------------------------------------------------------------------

Topologies differ in total number of bonds
Writing topology from bond orders to xtbtopo.mol

molecular dipole:
                 x           y           z       tot (Debye)
 q only:       -1.642      -0.397      -0.389
   full:       -1.602      -0.445      -0.502       4.414
molecular quadrupole (traceless):
                xx          xy          yy          xz          yz          zz
 q only:       -3.476      -0.939       2.991       0.059      -1.522       0.485
  q+dip:       -4.904      -1.517       4.820      -0.041      -2.897       0.083
   full:       -4.977      -1.492       4.906       0.064      -2.933       0.070


           -------------------------------------------------
          | TOTAL ENERGY              -28.167585950417 Eh   |
          | GRADIENT NORM               0.029239899452 Eh/α |
          | HOMO-LUMO GAP               4.086242804347 eV   |
           -------------------------------------------------

------------------------------------------------------------------------
 * finished run on 2025/04/11 at 14:05:00.711     
------------------------------------------------------------------------
 total:
 * wall-time:     0 d,  0 h,  0 min,  0.065 sec
 *  cpu-time:     0 d,  0 h,  0 min,  0.026 sec
 * ratio c/w:     0.400 speedup
 SCF:
 * wall-time:     0 d,  0 h,  0 min,  0.045 sec
 *  cpu-time:     0 d,  0 h,  0 min,  0.017 sec
 * ratio c/w:     0.376 speedup

