      -----------------------------------------------------------      
     |                   =====================                   |     
     |                           x T B                           |     
     |                   =====================                   |     
     |                         S. Grimme                         |     
     |          Mulliken Center for Theoretical Chemistry        |     
     |                    University of Bonn                     |     
      -----------------------------------------------------------      

   * xtb version 6.7.1 (edcfbbe) compiled by 'albert@albert-system' on 2024-07-22

   xtb is free software: you can redistribute it and/or modify it under
   the terms of the GNU Lesser General Public License as published by
   the Free Software Foundation, either version 3 of the License, or
   (at your option) any later version.
   
   xtb is distributed in the hope that it will be useful,
   but WITHOUT ANY WARRANTY; without even the implied warranty of
   MERCHANTABILITY or FITNESS FOR A PARTICULAR PURPOSE.  See the
   GNU Lesser General Public License for more details.
   
   Cite this work as:
   * C. Bannwarth, E. Caldeweyher, S. Ehlert, A. Hansen, P. Pracht,
     J. Seibert, S. Spicher, S. Grimme, WIREs Comput. Mol. Sci., 2020, 11,
     e01493. DOI: 10.1002/wcms.1493
   
   for GFN2-xTB:
   * C. Bannwarth, S. Ehlert and S. Grimme., J. Chem. Theory Comput., 2019,
     15, 1652-1671. DOI: 10.1021/acs.jctc.8b01176
   for GFN1-xTB:
   * S. Grimme, C. Bannwarth, P. Shushkov, J. Chem. Theory Comput., 2017,
     13, 1989-2009. DOI: 10.1021/acs.jctc.7b00118
   for GFN0-xTB:
   * P. Pracht, E. Caldeweyher, S. Ehlert, S. Grimme, ChemRxiv, 2019, preprint.
     DOI: 10.26434/chemrxiv.8326202.v1
   for GFN-FF:
   * S. Spicher and S. Grimme, Angew. Chem. Int. Ed., 2020, 59, 15665-15673.
     DOI: 10.1002/anie.202004239
   
   for ALPB and GBSA implicit solvation:
   * S. Ehlert, M. Stahn, S. Spicher, S. Grimme, J. Chem. Theory Comput.,
     2021, 17, 4250-4261. DOI: 10.1021/acs.jctc.1c00471
   
   for ddCOSMO and CPCM-X implicit solvation:
   * M. Stahn, S. Ehlert, S. Grimme, J. Phys. Chem. A,
     2023, XX, XXXX-XXXX. DOI: 10.1021/acs.jpca.3c04382
   
   for DFT-D4:
   * E. Caldeweyher, C. Bannwarth and S. Grimme, J. Chem. Phys., 2017,
     147, 034112. DOI: 10.1063/1.4993215
   * E. Caldeweyher, S. Ehlert, A. Hansen, H. Neugebauer, S. Spicher,
     C. Bannwarth and S. Grimme, J. Chem. Phys., 2019, 150, 154122.
     DOI: 10.1063/1.5090222
   * E. Caldeweyher, J.-M. Mewes, S. Ehlert and S. Grimme, Phys. Chem. Chem. Phys.
     2020, 22, 8499-8512. DOI: 10.1039/D0CP00502A
   
   for sTDA-xTB:
   * S. Grimme and C. Bannwarth, J. Chem. Phys., 2016, 145, 054103.
     DOI: 10.1063/1.4959605
   
   in the mass-spec context:
   * V. Asgeirsson, C. Bauer and S. Grimme, Chem. Sci., 2017, 8, 4879.
     DOI: 10.1039/c7sc00601b
   * J. Koopman and S. Grimme, ACS Omega 2019, 4, 12, 15120-15133.
     DOI: 10.1021/acsomega.9b02011
   
   for metadynamics refer to:
   * S. Grimme, J. Chem. Theory Comput., 2019, 155, 2847-2862
     DOI: 10.1021/acs.jctc.9b00143
   
   for SPH calculations refer to:
   * S. Spicher and S. Grimme, J. Chem. Theory Comput., 2021, 17, 1701-1714
     DOI: 10.1021/acs.jctc.0c01306
   
   for ONIOM refer to:
   * C. Plett, A. Katbashev, S. Ehlert, S. Grimme, M. Bursch,
     Phys. Chem. Chem. Phys., 2023, 25, 17860-17868. DOI: 10.1039/D3CP02178E
   
   for DIPRO refer to:
   * J. Kohn, N. Gildemeister, S. Grimme, D. Fazzi, A. Hansen,
     J. Chem. Phys., 2023, just accepted.
   
   for PTB refer to:
   * S. Grimme, M. Mueller, A. Hansen, J. Chem. Phys., 2023, 158, 124111.
     DOI: 10.1063/5.0137838
   
   with help from (in alphabetical order)
   P. Atkinson, C. Bannwarth, F. Bohle, G. Brandenburg, E. Caldeweyher
   M. Checinski, S. Dohm, S. Ehlert, S. Ehrlich, I. Gerasimov, C. Hölzer
   A. Katbashev, J. Kohn, J. Koopman, C. Lavigne, S. Lehtola, F. März, M. Müller,
   F. Musil, H. Neugebauer, J. Pisarek, C. Plett, P. Pracht, F. Pultar,
   J. Seibert, P. Shushkov, S. Spicher, M. Stahn, M. Steiner, T. Strunk,
   J. Stückrath, T. Rose, and J. Unsleber
   
 * started run on 2025/04/11 at 14:15:35.916     
   ID    Z sym.   atoms
    1    6 C      1-6
    2    8 O      7
    3    1 H      8-17

           -------------------------------------------------
          |                Calculation Setup                |
           -------------------------------------------------

          program call               : /software/projects/pawsey0265/mwang1/xtb/bin/xtb xtb_rrho.coord --gfn2 --bhess vtight --chrg 0 --enso --norestart -I rrho-xcontrol-inp --parallel 1 --alpb water
          hostname                   : nid001788
          coordinate file            : xtb_rrho.coord
          omp threads                :                     1


           -------------------------------------------------
          |                 G F N 2 - x T B                 |
           -------------------------------------------------

        Reference                      10.1021/acs.jctc.8b01176
      * Hamiltonian:
        H0-scaling (s, p, d)           1.850000    2.230000    2.230000
        zeta-weighting                 0.500000
      * Dispersion:
        s8                             2.700000
        a1                             0.520000
        a2                             5.000000
        s9                             5.000000
      * Repulsion:
        kExp                           1.500000    1.000000
        rExp                           1.000000
      * Coulomb:
        alpha                          2.000000
        third order                    shell-resolved
        anisotropic                    true
        a3                             3.000000
        a5                             4.000000
        cn-shift                       1.200000
        cn-exp                         4.000000
        max-rad                        5.000000

      * Solvation model:               ALPB
        Solvent                        water
        Parameter file                 internal GFN2-xTB/ALPB
        Dielectric constant                8.0200E+01
        Reference state                gsolv [1 M gas/solution]
        Free energy shift                  1.0808E-03 Eh       6.7819E-01 kcal/mol
        Temperature                        2.9815E+02 K
        Density                            1.0000E+00 kg/L
        Solvent mass                       1.8000E+01 g/mol
        Interaction kernel             P16
        Born radius scaling (c1)           1.4744E+00
        Born radii integrator          GBOBC
        Born offset                        0.0000E+00 a0       0.0000E+00 AA
        H-bond correction              true
        Ion screening                  false
        Surface tension                    1.0000E-05 Eh       1.5569E+01 dyn/cm
        Grid points                               974 per atom

          ...................................................
          :                      SETUP                      :
          :.................................................:
          :  # basis functions                  38          :
          :  # atomic orbitals                  38          :
          :  # shells                           24          :
          :  # electrons                        40          :
          :  max. iterations                   250          :
          :  Hamiltonian                  GFN2-xTB          :
          :  restarted?                      false          :
          :  GBSA solvation                   true          :
          :  PC potential                    false          :
          :  electronic temp.          300.0000000     K    :
          :  accuracy                    1.0000000          :
          :  -> integral cutoff          0.2500000E+02      :
          :  -> integral neglect         0.1000000E-07      :
          :  -> SCF convergence          0.1000000E-05 Eh   :
          :  -> wf. convergence          0.1000000E-03 e    :
          :  Broyden damping             0.4000000          :
          :  net charge                          0          :
          :  unpaired electrons                  0          :
          ...................................................

 iter      E             dE          RMSdq      gap      omega  full diag
   1    -22.2109561 -0.222110E+02  0.441E+00    3.51       0.0  T
   2    -22.2653273 -0.543712E-01  0.213E+00    2.78       1.0  T
   3    -22.2654867 -0.159431E-03  0.130E+00    3.08       1.0  T
   4    -22.2695216 -0.403483E-02  0.442E-01    2.87       1.0  T
   5    -22.2714186 -0.189707E-02  0.115E-01    2.92       1.0  T
   6    -22.2715453 -0.126654E-03  0.524E-02    2.93       1.0  T
   7    -22.2715481 -0.282491E-05  0.129E-02    2.93       1.9  T
   8    -22.2715489 -0.787480E-06  0.472E-03    2.93       5.1  T
   9    -22.2715490 -0.750734E-07  0.142E-03    2.93      17.0  T
  10    -22.2715490 -0.334467E-08  0.647E-04    2.93      37.5  T
  11    -22.2715490 -0.849788E-09  0.114E-04    2.93     212.1  T

   *** convergence criteria satisfied after 11 iterations ***

         #    Occupation            Energy/Eh            Energy/eV
      -------------------------------------------------------------
         1        2.0000           -0.7130296             -19.4025
       ...           ...                  ...                  ...
        14        2.0000           -0.4709315             -12.8147
        15        2.0000           -0.4530623             -12.3285
        16        2.0000           -0.4493113             -12.2264
        17        2.0000           -0.4427784             -12.0486
        18        2.0000           -0.4287340             -11.6664
        19        2.0000           -0.4182774             -11.3819
        20        2.0000           -0.4055300             -11.0350 (HOMO)
        21                         -0.2979021              -8.1063 (LUMO)
        22                         -0.1800440              -4.8992
        23                          0.0664382               1.8079
        24                          0.1009963               2.7482
        25                          0.1132124               3.0807
       ...                                ...                  ...
        38                          0.6208594              16.8944
      -------------------------------------------------------------
                  HL-Gap            0.1076280 Eh            2.9287 eV
             Fermi-level           -0.3517160 Eh           -9.5707 eV

 SCC (total)                   0 d,  0 h,  0 min,  0.029 sec
 SCC setup                      ...        0 min,  0.002 sec (  5.573%)
 Dispersion                     ...        0 min,  0.000 sec (  0.487%)
 classical contributions        ...        0 min,  0.000 sec (  0.147%)
 integral evaluation            ...        0 min,  0.002 sec (  6.366%)
 iterations                     ...        0 min,  0.022 sec ( 77.218%)
 molecular gradient             ...        0 min,  0.003 sec (  9.795%)
 printout                       ...        0 min,  0.000 sec (  0.326%)

         :::::::::::::::::::::::::::::::::::::::::::::::::::::
         ::                     SUMMARY                     ::
         :::::::::::::::::::::::::::::::::::::::::::::::::::::
         :: total energy             -21.968421717900 Eh    ::
         :: total w/o Gsasa/hb       -21.969041016117 Eh    ::
         :: gradient norm              0.028521026520 Eh/a0 ::
         :: HOMO-LUMO gap              2.928706071205 eV    ::
         ::.................................................::
         :: SCC energy               -22.271569518233 Eh    ::
         :: -> isotropic ES            0.038122842807 Eh    ::
         :: -> anisotropic ES          0.001723065433 Eh    ::
         :: -> anisotropic XC          0.012724150181 Eh    ::
         :: -> dispersion             -0.009266383876 Eh    ::
         :: -> Gsolv                  -0.008001073121 Eh    ::
         ::    -> Gelec               -0.008620371338 Eh    ::
         ::    -> Gsasa                0.001160602081 Eh    ::
         ::    -> Ghb                 -0.001622063563 Eh    ::
         ::    -> Gshift               0.001080759698 Eh    ::
         :: repulsion energy           0.303147800333 Eh    ::
         :: add. restraining           0.000000000000 Eh    ::
         :: total charge               0.000000000000 e     ::
         :::::::::::::::::::::::::::::::::::::::::::::::::::::

metadynamics with 1 initial structures loaded
           -------------------------------------------------
          |           Optimal kpush determination           |
           -------------------------------------------------
      ----------------------------------------------------------- 
     |                   =====================                   |
     |                        A N C O P T                        |
     |                   =====================                   |
     |               Approximate Normal Coordinate               |
     |                Rational Function Optimizer                |
      ----------------------------------------------------------- 
target rmsd / Å         0.100000
unbiased initial rmsd   0.029751
 
iter. min.        max.        rmsd       kpush
final kpush:  0.000000
           -------------------------------------------------
          |            Biased Numerical Hessian             |
           -------------------------------------------------
kpush                :   0.00000
alpha                :   1.00000
step length          :   0.00500
SCC accuracy         :   0.30000
Hessian scale factor :   1.00000
frozen atoms in %    :   0.00000    0
RMS gradient         :   0.00003
estimated CPU  time      0.01 min
estimated wall time      0.01 min

writing file <hessian>.

 projected vibrational frequencies (cm⁻¹)
eigval :       -0.00    -0.00    -0.00     0.00     0.00     0.00
eigval :       52.84    71.01    89.12   185.12   212.26   235.01
eigval :      279.36   373.71   430.31   709.36   744.24   787.56
eigval :      885.59   927.59   937.18   991.75  1008.34  1072.91
eigval :     1087.60  1107.82  1160.22  1210.80  1226.40  1261.87
eigval :     1279.13  1296.19  1347.39  1386.24  1411.78  1449.37
eigval :     1488.95  1496.73  1498.38  1600.88  1688.40  2775.72
eigval :     2950.03  2974.21  2988.95  2996.39  3032.20  3035.16
eigval :     3044.08  3051.52  3091.56
           -------------------------------------------------
          |                Property Printout                |
           -------------------------------------------------

    * Orbital Energies and Occupations

         #    Occupation            Energy/Eh            Energy/eV
      -------------------------------------------------------------
         1        2.0000           -0.7160837             -19.4856
       ...           ...                  ...                  ...
         8        2.0000           -0.5527465             -15.0410
         9        2.0000           -0.5353603             -14.5679
        10        2.0000           -0.5285431             -14.3824
        11        2.0000           -0.5090909             -13.8531
        12        2.0000           -0.5006270             -13.6228
        13        2.0000           -0.4885418             -13.2939
        14        2.0000           -0.4716778             -12.8350
        15        2.0000           -0.4525289             -12.3139
        16        2.0000           -0.4493679             -12.2279
        17        2.0000           -0.4424266             -12.0390
        18        2.0000           -0.4294828             -11.6868
        19        2.0000           -0.4185192             -11.3885
        20        2.0000           -0.4045601             -11.0086 (HOMO)
        21                         -0.2953518              -8.0369 (LUMO)
        22                         -0.1760480              -4.7905
        23                          0.0744021               2.0246
        24                          0.1106744               3.0116
        25                          0.1180097               3.2112
        26                          0.1350289               3.6743
        27                          0.1470936               4.0026
        28                          0.1644432               4.4747
        29                          0.1751380               4.7657
        30                          0.1963971               5.3442
        31                          0.2119448               5.7673
       ...                                ...                  ...
        38                          0.6492139              17.6660
      -------------------------------------------------------------
                  HL-Gap            0.1092083 Eh            2.9717 eV
             Fermi-level           -0.3499559 Eh           -9.5228 eV

     #   Z          covCN         q      C6AA      α(0)
     1   6 C        3.752    -0.116    22.788     6.807
     2   6 C        3.803    -0.054    21.547     6.609
     3   6 C        3.807    -0.071    21.856     6.655
     4   6 C        2.898     0.010    27.793     8.644
     5   6 C        2.890    -0.076    29.907     8.966
     6   6 C        2.767     0.214    23.474     7.935
     7   8 O        0.856    -0.429    22.273     6.327
     8   1 H        0.925     0.044     2.396     2.420
     9   1 H        0.925     0.044     2.396     2.421
    10   1 H        0.925     0.044     2.392     2.419
    11   1 H        0.924     0.039     2.468     2.457
    12   1 H        0.924     0.043     2.411     2.428
    13   1 H        0.924     0.083     1.946     2.181
    14   1 H        0.924     0.062     2.177     2.307
    15   1 H        0.925     0.073     2.049     2.239
    16   1 H        0.926     0.070     2.082     2.257
    17   1 H        0.922     0.021     2.721     2.580

 Mol. C6AA /au·bohr⁶  :       2444.769666
 Mol. C8AA /au·bohr⁸  :      54288.766159
 Mol. α(0) /au        :         75.651811


Wiberg/Mayer (AO) data.
largest (>0.10) Wiberg bond orders for each atom

 ---------------------------------------------------------------------------
     #   Z sym  total        # sym  WBO       # sym  WBO       # sym  WBO
 ---------------------------------------------------------------------------
     1   6 C    3.994 --     2 C    1.019     8 H    0.987    10 H    0.987
                             9 H    0.985
     2   6 C    3.995 --     1 C    1.019    11 H    0.979     3 C    0.978
                            12 H    0.978
     3   6 C    3.993 --     4 C    1.057     2 C    0.978    14 H    0.972
                            13 H    0.936
     4   6 C    3.968 --     5 C    1.772     3 C    1.057    15 H    0.959
     5   6 C    3.984 --     4 C    1.772     6 C    1.121    16 H    0.964
     6   6 C    3.914 --     7 O    1.786     5 C    1.121    17 H    0.938
     7   8 O    2.012 --     6 C    1.786
     8   1 H    0.998 --     1 C    0.987
     9   1 H    0.997 --     1 C    0.985
    10   1 H    0.998 --     1 C    0.987
    11   1 H    0.999 --     2 C    0.979
    12   1 H    0.998 --     2 C    0.978
    13   1 H    0.993 --     3 C    0.936
    14   1 H    0.996 --     3 C    0.972
    15   1 H    0.995 --     4 C    0.959
    16   1 H    0.995 --     5 C    0.964
    17   1 H    0.999 --     6 C    0.938
 ---------------------------------------------------------------------------

Topologies differ in total number of bonds
Writing topology from bond orders to xtbtopo.mol

molecular dipole:
                 x           y           z       tot (Debye)
 q only:        1.754       0.735       0.275
   full:        1.680       0.830       0.360       4.850
molecular quadrupole (traceless):
                xx          xy          yy          xz          yz          zz
 q only:       -6.766      -5.039       3.434      -3.900       0.413       3.331
  q+dip:       -7.787      -6.284       3.612      -5.418       1.809       4.174
   full:       -8.054      -6.409       3.662      -4.866       0.268       4.392

           -------------------------------------------------
          |                Geometry Summary                 |
           -------------------------------------------------

      molecular mass/u    :       98.1432278
   center of mass at/Å    :       -0.0000012       0.0005851      -0.0009580
  moments of inertia/u·Å² :        0.4938585E+02   0.5481444E+03   0.5725439E+03
rotational constants/cm⁻¹ :        0.3413454E+00   0.3075400E-01   0.2944339E-01

 * 14 selected distances

     #   Z          #   Z                                           value/Å
     1   6 C        2   6 C                                       1.5235202
     2   6 C        3   6 C                                       1.5351210 (max)
     3   6 C        4   6 C                                       1.4804833
     4   6 C        5   6 C                                       1.3401493
     6   6 C        7   8 O                                       1.2181665
     1   6 C        8   1 H                                       1.0873288
     1   6 C        9   1 H                                       1.0869201
     1   6 C       10   1 H                                       1.0873697
     2   6 C       11   1 H                                       1.0916352
     2   6 C       12   1 H                                       1.0913397
     3   6 C       13   1 H                                       1.0937162
     3   6 C       14   1 H                                       1.0906961
     4   6 C       15   1 H                                       1.0837439
     5   6 C       16   1 H                                       1.0793231 (min)

 * 3 distinct bonds (by element types)

   Z      Z             #   av. dist./Å        max./Å        min./Å
   1 H    6 C           9     1.0880081     1.0937162     1.0793231
   6 C    6 C           4     1.4698185     1.5351210     1.3401493
   6 C    8 O           1     1.2181665     1.2181665     1.2181665

           -------------------------------------------------
          |               Frequency Printout                |
           -------------------------------------------------
 projected vibrational frequencies (cm⁻¹)
eigval :       -0.00    -0.00    -0.00     0.00     0.00     0.00
eigval :       52.84    71.01    89.12   185.12   212.26   235.01
eigval :      279.36   373.71   430.31   709.36   744.24   787.56
eigval :      885.59   927.59   937.18   991.75  1008.34  1072.91
eigval :     1087.60  1107.82  1160.22  1210.80  1226.40  1261.87
eigval :     1279.13  1296.19  1347.39  1386.24  1411.78  1449.37
eigval :     1488.95  1496.73  1498.38  1600.88  1688.40  2775.72
eigval :     2950.03  2974.21  2988.95  2996.39  3032.20  3035.16
eigval :     3044.08  3051.52  3091.56
 reduced masses (amu)
   1: 11.54   2: 10.78   3: 12.16   4: 10.48   5: 10.55   6: 10.81   7:  8.59   8:  7.59
   9: 11.50  10:  9.92  11:  7.81  12:  2.33  13:  8.79  14:  9.25  15:  9.77  16: 10.43
  17:  5.41  18:  2.70  19:  3.79  20:  6.47  21:  6.08  22:  3.03  23:  5.39  24:  5.38
  25:  8.90  26:  7.26  27:  8.51  28:  4.95  29:  3.59  30:  2.66  31:  2.97  32:  4.22
  33:  4.98  34:  3.38  35:  3.15  36:  2.09  37:  1.88  38:  1.54  39:  1.59  40: 12.19
  41: 12.62  42:  1.67  43:  1.77  44:  1.96  45:  1.49  46:  1.70  47:  1.96  48:  1.88
  49:  1.31  50:  1.81  51:  1.84
 IR intensities (km·mol⁻¹)
   1:  0.09   2:  5.50   3:  1.35   4:  1.23   5:  0.47   6:  0.32   7:  3.58   8:  3.11
   9:  4.64  10:  7.29  11:  6.10  12:  0.39  13:  0.29  14:  0.23  15: 10.32  16: 42.22
  17:  2.99  18: 24.27  19: 28.86  20:  4.29  21:  2.44  22: 28.58  23: 69.88  24: 22.15
  25:  0.57  26: 16.79  27:  0.72  28:  3.95  29: 17.66  30:  1.39  31:  0.12  32: 12.48
  33:  9.39  34: 69.55  35:  1.72  36:  6.52  37:  1.73  38:  1.81  39:  1.28  40:948.05
  41:207.65  42:274.50  43:  8.84  44: 59.60  45: 31.51  46: 62.29  47: 77.70  48: 71.00
  49: 45.50  50: 27.10  51: 39.72
 Raman intensities (Ä⁴*amu⁻¹)
   1:  0.00   2:  0.00   3:  0.00   4:  0.00   5:  0.00   6:  0.00   7:  0.00   8:  0.00
   9:  0.00  10:  0.00  11:  0.00  12:  0.00  13:  0.00  14:  0.00  15:  0.00  16:  0.00
  17:  0.00  18:  0.00  19:  0.00  20:  0.00  21:  0.00  22:  0.00  23:  0.00  24:  0.00
  25:  0.00  26:  0.00  27:  0.00  28:  0.00  29:  0.00  30:  0.00  31:  0.00  32:  0.00
  33:  0.00  34:  0.00  35:  0.00  36:  0.00  37:  0.00  38:  0.00  39:  0.00  40:  0.00
  41:  0.00  42:  0.00  43:  0.00  44:  0.00  45:  0.00  46:  0.00  47:  0.00  48:  0.00
  49:  0.00  50:  0.00  51:  0.00
 output can be read by thermo (or use thermo option).
 writing <g98.out> molden fake output.
 recommended (thermochemical) frequency scaling factor: 1.0
           -------------------------------------------------
          |             Thermodynamic Functions             |
           -------------------------------------------------

Molecule has no symmetry elements
It seems to be the C1 point group
c1  symmetry found (for desy threshold:  0.10E+00) used in thermo

          ...................................................
          :                      SETUP                      :
          :.................................................:
          :  # frequencies                          45      :
          :  # imaginary freq.                       0      :
          :  linear?                             false      :
          :  only rotor calc.                    false      :
          :  symmetry                               c1      :
          :  rotational number                       1      :
          :  scaling factor                  1.0000000      :
          :  rotor cutoff                    0.0000000 cm⁻¹ :
          :  imag. cutoff                 -100.0000000 cm⁻¹ :
          :.................................................:

    mode    ω/cm⁻¹     T·S(HO)/kcal·mol⁻¹    T·S(FR)/kcal·mol⁻¹   T·S(vib)
   ------------------------------------------------------------------------
       1     52.84    -1.40372 (100.00%)    -1.03993 (  0.00%)    -1.40372
       2     71.01    -1.22988 (100.00%)    -0.95243 (  0.00%)    -1.22988
       3     89.12    -1.09697 (100.00%)    -0.88519 (  0.00%)    -1.09697
       4    185.12    -0.67862 (100.00%)    -0.66870 (  0.00%)    -0.67862
       5    212.26    -0.60351 (100.00%)    -0.62819 (  0.00%)    -0.60351
       6    235.01    -0.54870 (100.00%)    -0.59803 (  0.00%)    -0.54870
       7    279.36    -0.45842 (100.00%)    -0.54682 (  0.00%)    -0.45842
   ------------------------------------------------------------------------

   temp. (K)  partition function   enthalpy   heat capacity  entropy
                                   cal/mol     cal/K/mol   cal/K/mol   J/K/mol
 298.15  VIB   376.                 3641.766     23.146     23.997
         ROT  0.301E+06              888.752      2.981     28.048
         INT  0.113E+09             4530.518     26.126     52.045
         TR   0.941E+27             1481.254      4.968     39.644
         TOT                        6011.7722    31.0946    91.6896   383.6295

       T/K    H(0)-H(T)+PV         H(T)/Eh          T*S/Eh         G(T)/Eh
   ------------------------------------------------------------------------
    298.15    0.958037E-02    0.152948E+00    0.435647E-01    0.109384E+00
   ------------------------------------------------------------------------

         :::::::::::::::::::::::::::::::::::::::::::::::::::::
         ::                  THERMODYNAMIC                  ::
         :::::::::::::::::::::::::::::::::::::::::::::::::::::
         :: total free energy         -21.859801957049 Eh   ::
         ::.................................................::
         :: total energy              -21.969185583288 Eh   ::
         :: zero point energy           0.143367966816 Eh   ::
         :: G(RRHO) w/o ZPVE           -0.033984340578 Eh   ::
         :: G(RRHO) contrib.            0.109383626239 Eh   ::
         :::::::::::::::::::::::::::::::::::::::::::::::::::::

optimized geometry written to: xtbopt.coord


           -------------------------------------------------
          | TOTAL ENERGY              -21.969185583288 Eh   |
          | TOTAL ENTHALPY            -21.816237247648 Eh   |
          | TOTAL FREE ENERGY         -21.859801957049 Eh   |
          | GRADIENT NORM               0.000028871391 Eh/α |
          | HOMO-LUMO GAP               2.971710074036 eV   |
           -------------------------------------------------

------------------------------------------------------------------------
 * finished run on 2025/04/11 at 14:15:36.848     
------------------------------------------------------------------------
 total:
 * wall-time:     0 d,  0 h,  0 min,  0.929 sec
 *  cpu-time:     0 d,  0 h,  0 min,  0.900 sec
 * ratio c/w:     0.969 speedup
 SCF:
 * wall-time:     0 d,  0 h,  0 min,  0.030 sec
 *  cpu-time:     0 d,  0 h,  0 min,  0.018 sec
 * ratio c/w:     0.624 speedup
 analytical hessian:
 * wall-time:     0 d,  0 h,  0 min,  0.678 sec
 *  cpu-time:     0 d,  0 h,  0 min,  0.677 sec
 * ratio c/w:     0.998 speedup

