! r2scan-3c def2/J RI DEFGRID2 scfconv6 printgap
%output
    printlevel normal
end
%cpcm
    smd true
    smdsolvent "water"
end
* xyz 0 1
C -1.7293569211 -1.3495781237 0.3578869767
C -2.3770841529 -0.0202818545 -0.0099386579
C -1.4357109365 0.9285282026 -0.7514203237
C -0.2752231333 1.4309457876 0.1142297732
C 0.8122062513 0.4145215043 0.3401512563
O 1.3487045923 0.2059733291 1.4109989279
O 1.1703782778 -0.2052256878 -0.7781562643
C 2.2161452147 -1.1733573814 -0.689583921
H -0.919467206 -1.2049868481 1.0703769928
H -2.4604560011 -2.0128280968 0.8139767957
H -1.3282674652 -1.8360425187 -0.528757746
H -3.2401818654 -0.2149896675 -0.6496878244
H -2.7396330602 0.4674422857 0.8974308044
H -2.009324951 1.7960334807 -1.0805769882
H -1.0327709867 0.4321906202 -1.6348485316
H -0.6303404362 1.7660101486 1.0893987812
H 0.2008979427 2.2760891044 -0.3882066121
H 1.8857138192 -2.0246231102 -0.0926321687
H 3.0964359673 -0.7325876844 -0.2199038516
H 2.4258801257 -1.4737257625 -1.7113139033
*
