      -----------------------------------------------------------      
     |                   =====================                   |     
     |                           x T B                           |     
     |                   =====================                   |     
     |                         S. Grimme                         |     
     |          Mulliken Center for Theoretical Chemistry        |     
     |                    University of Bonn                     |     
      -----------------------------------------------------------      

   * xtb version 6.7.1 (edcfbbe) compiled by 'albert@albert-system' on 2024-07-22

   xtb is free software: you can redistribute it and/or modify it under
   the terms of the GNU Lesser General Public License as published by
   the Free Software Foundation, either version 3 of the License, or
   (at your option) any later version.
   
   xtb is distributed in the hope that it will be useful,
   but WITHOUT ANY WARRANTY; without even the implied warranty of
   MERCHANTABILITY or FITNESS FOR A PARTICULAR PURPOSE.  See the
   GNU Lesser General Public License for more details.
   
   Cite this work as:
   * C. Bannwarth, E. Caldeweyher, S. Ehlert, A. Hansen, P. Pracht,
     J. Seibert, S. Spicher, S. Grimme, WIREs Comput. Mol. Sci., 2020, 11,
     e01493. DOI: 10.1002/wcms.1493
   
   for GFN2-xTB:
   * C. Bannwarth, S. Ehlert and S. Grimme., J. Chem. Theory Comput., 2019,
     15, 1652-1671. DOI: 10.1021/acs.jctc.8b01176
   for GFN1-xTB:
   * S. Grimme, C. Bannwarth, P. Shushkov, J. Chem. Theory Comput., 2017,
     13, 1989-2009. DOI: 10.1021/acs.jctc.7b00118
   for GFN0-xTB:
   * P. Pracht, E. Caldeweyher, S. Ehlert, S. Grimme, ChemRxiv, 2019, preprint.
     DOI: 10.26434/chemrxiv.8326202.v1
   for GFN-FF:
   * S. Spicher and S. Grimme, Angew. Chem. Int. Ed., 2020, 59, 15665-15673.
     DOI: 10.1002/anie.202004239
   
   for ALPB and GBSA implicit solvation:
   * S. Ehlert, M. Stahn, S. Spicher, S. Grimme, J. Chem. Theory Comput.,
     2021, 17, 4250-4261. DOI: 10.1021/acs.jctc.1c00471
   
   for ddCOSMO and CPCM-X implicit solvation:
   * M. Stahn, S. Ehlert, S. Grimme, J. Phys. Chem. A,
     2023, XX, XXXX-XXXX. DOI: 10.1021/acs.jpca.3c04382
   
   for DFT-D4:
   * E. Caldeweyher, C. Bannwarth and S. Grimme, J. Chem. Phys., 2017,
     147, 034112. DOI: 10.1063/1.4993215
   * E. Caldeweyher, S. Ehlert, A. Hansen, H. Neugebauer, S. Spicher,
     C. Bannwarth and S. Grimme, J. Chem. Phys., 2019, 150, 154122.
     DOI: 10.1063/1.5090222
   * E. Caldeweyher, J.-M. Mewes, S. Ehlert and S. Grimme, Phys. Chem. Chem. Phys.
     2020, 22, 8499-8512. DOI: 10.1039/D0CP00502A
   
   for sTDA-xTB:
   * S. Grimme and C. Bannwarth, J. Chem. Phys., 2016, 145, 054103.
     DOI: 10.1063/1.4959605
   
   in the mass-spec context:
   * V. Asgeirsson, C. Bauer and S. Grimme, Chem. Sci., 2017, 8, 4879.
     DOI: 10.1039/c7sc00601b
   * J. Koopman and S. Grimme, ACS Omega 2019, 4, 12, 15120-15133.
     DOI: 10.1021/acsomega.9b02011
   
   for metadynamics refer to:
   * S. Grimme, J. Chem. Theory Comput., 2019, 155, 2847-2862
     DOI: 10.1021/acs.jctc.9b00143
   
   for SPH calculations refer to:
   * S. Spicher and S. Grimme, J. Chem. Theory Comput., 2021, 17, 1701-1714
     DOI: 10.1021/acs.jctc.0c01306
   
   for ONIOM refer to:
   * C. Plett, A. Katbashev, S. Ehlert, S. Grimme, M. Bursch,
     Phys. Chem. Chem. Phys., 2023, 25, 17860-17868. DOI: 10.1039/D3CP02178E
   
   for DIPRO refer to:
   * J. Kohn, N. Gildemeister, S. Grimme, D. Fazzi, A. Hansen,
     J. Chem. Phys., 2023, just accepted.
   
   for PTB refer to:
   * S. Grimme, M. Mueller, A. Hansen, J. Chem. Phys., 2023, 158, 124111.
     DOI: 10.1063/5.0137838
   
   with help from (in alphabetical order)
   P. Atkinson, C. Bannwarth, F. Bohle, G. Brandenburg, E. Caldeweyher
   M. Checinski, S. Dohm, S. Ehlert, S. Ehrlich, I. Gerasimov, C. Hölzer
   A. Katbashev, J. Kohn, J. Koopman, C. Lavigne, S. Lehtola, F. März, M. Müller,
   F. Musil, H. Neugebauer, J. Pisarek, C. Plett, P. Pracht, F. Pultar,
   J. Seibert, P. Shushkov, S. Spicher, M. Stahn, M. Steiner, T. Strunk,
   J. Stückrath, T. Rose, and J. Unsleber
   
 * started run on 2025/04/11 at 16:25:38.369     
   ID    Z sym.   atoms
    1    6 C      1-5
    2    8 O      6, 7
    3    1 H      8-17

           -------------------------------------------------
          |                Calculation Setup                |
           -------------------------------------------------

          program call               : /srv/scratch/z5358697/.xtb/bin/xtb xtb_rrho.coord --gfn2 --ohess vtight --chrg 0 --enso --norestart -I rrho-xcontrol-inp --parallel 1 --alpb water
          hostname                   : k018
          coordinate file            : xtb_rrho.coord
          omp threads                :                     1


           -------------------------------------------------
          |                 G F N 2 - x T B                 |
           -------------------------------------------------

        Reference                      10.1021/acs.jctc.8b01176
      * Hamiltonian:
        H0-scaling (s, p, d)           1.850000    2.230000    2.230000
        zeta-weighting                 0.500000
      * Dispersion:
        s8                             2.700000
        a1                             0.520000
        a2                             5.000000
        s9                             5.000000
      * Repulsion:
        kExp                           1.500000    1.000000
        rExp                           1.000000
      * Coulomb:
        alpha                          2.000000
        third order                    shell-resolved
        anisotropic                    true
        a3                             3.000000
        a5                             4.000000
        cn-shift                       1.200000
        cn-exp                         4.000000
        max-rad                        5.000000

      * Solvation model:               ALPB
        Solvent                        water
        Parameter file                 internal GFN2-xTB/ALPB
        Dielectric constant                8.0200E+01
        Reference state                gsolv [1 M gas/solution]
        Free energy shift                  1.0808E-03 Eh       6.7819E-01 kcal/mol
        Temperature                        2.9815E+02 K
        Density                            1.0000E+00 kg/L
        Solvent mass                       1.8000E+01 g/mol
        Interaction kernel             P16
        Born radius scaling (c1)           1.4744E+00
        Born radii integrator          GBOBC
        Born offset                        0.0000E+00 a0       0.0000E+00 AA
        H-bond correction              true
        Ion screening                  false
        Surface tension                    1.0000E-05 Eh       1.5569E+01 dyn/cm
        Grid points                               974 per atom

          ...................................................
          :                      SETUP                      :
          :.................................................:
          :  # basis functions                  38          :
          :  # atomic orbitals                  38          :
          :  # shells                           24          :
          :  # electrons                        42          :
          :  max. iterations                   250          :
          :  Hamiltonian                  GFN2-xTB          :
          :  restarted?                      false          :
          :  GBSA solvation                   true          :
          :  PC potential                    false          :
          :  electronic temp.          300.0000000     K    :
          :  accuracy                    1.0000000          :
          :  -> integral cutoff          0.2500000E+02      :
          :  -> integral neglect         0.1000000E-07      :
          :  -> SCF convergence          0.1000000E-05 Eh   :
          :  -> wf. convergence          0.1000000E-03 e    :
          :  Broyden damping             0.4000000          :
          :  net charge                          0          :
          :  unpaired electrons                  0          :
          ...................................................

 iter      E             dE          RMSdq      gap      omega  full diag
   1    -24.1687109 -0.241687E+02  0.391E+00    5.39       0.0  T
   2    -24.2210309 -0.523200E-01  0.194E+00    4.65       1.0  T
   3    -24.2229665 -0.193554E-02  0.103E+00    4.98       1.0  T
   4    -24.2244068 -0.144034E-02  0.166E-01    4.73       1.0  T
   5    -24.2245705 -0.163651E-03  0.767E-02    4.76       1.0  T
   6    -24.2245725 -0.208599E-05  0.212E-02    4.76       1.1  T
   7    -24.2245737 -0.112609E-05  0.510E-03    4.76       4.8  T
   8    -24.2245737 -0.229902E-07  0.275E-03    4.76       8.8  T
   9    -24.2245737 -0.904747E-08  0.388E-04    4.76      62.5  T
  10    -24.2245737 -0.730747E-09  0.137E-04    4.76     177.1  T

   *** convergence criteria satisfied after 10 iterations ***

         #    Occupation            Energy/Eh            Energy/eV
      -------------------------------------------------------------
         1        2.0000           -0.7439940             -20.2451
       ...           ...                  ...                  ...
        15        2.0000           -0.4797864             -13.0557
        16        2.0000           -0.4722960             -12.8518
        17        2.0000           -0.4494030             -12.2289
        18        2.0000           -0.4453596             -12.1189
        19        2.0000           -0.4399494             -11.9716
        20        2.0000           -0.4250057             -11.5650
        21        2.0000           -0.4233634             -11.5203 (HOMO)
        22                         -0.2484238              -6.7600 (LUMO)
        23                          0.0499582               1.3594
        24                          0.0987868               2.6881
        25                          0.1087971               2.9605
        26                          0.1169328               3.1819
       ...                                ...                  ...
        38                          0.5778922              15.7252
      -------------------------------------------------------------
                  HL-Gap            0.1749395 Eh            4.7603 eV
             Fermi-level           -0.3358936 Eh           -9.1401 eV

 SCC (total)                   0 d,  0 h,  0 min,  0.027 sec
 SCC setup                      ...        0 min,  0.001 sec (  3.906%)
 Dispersion                     ...        0 min,  0.000 sec (  0.320%)
 classical contributions        ...        0 min,  0.000 sec (  0.069%)
 integral evaluation            ...        0 min,  0.001 sec (  4.714%)
 iterations                     ...        0 min,  0.021 sec ( 76.756%)
 molecular gradient             ...        0 min,  0.004 sec ( 13.577%)
 printout                       ...        0 min,  0.000 sec (  0.601%)

         :::::::::::::::::::::::::::::::::::::::::::::::::::::
         ::                     SUMMARY                     ::
         :::::::::::::::::::::::::::::::::::::::::::::::::::::
         :: total energy             -23.962583681693 Eh    ::
         :: total w/o Gsasa/hb       -23.957146095775 Eh    ::
         :: gradient norm              0.036040452012 Eh/a0 ::
         :: HOMO-LUMO gap              4.760347087582 eV    ::
         ::.................................................::
         :: SCC energy               -24.224575588454 Eh    ::
         :: -> isotropic ES            0.064847473246 Eh    ::
         :: -> anisotropic ES          0.002548935854 Eh    ::
         :: -> anisotropic XC          0.006502363472 Eh    ::
         :: -> dispersion             -0.009109108162 Eh    ::
         :: -> Gsolv                  -0.014840284782 Eh    ::
         ::    -> Gelec               -0.009402698865 Eh    ::
         ::    -> Gsasa                0.002693327315 Eh    ::
         ::    -> Ghb                 -0.009211672930 Eh    ::
         ::    -> Gshift               0.001080759698 Eh    ::
         :: repulsion energy           0.261991906762 Eh    ::
         :: add. restraining           0.000000000000 Eh    ::
         :: total charge               0.000000000000 e     ::
         :::::::::::::::::::::::::::::::::::::::::::::::::::::

      ----------------------------------------------------------- 
     |                   =====================                   |
     |                        A N C O P T                        |
     |                   =====================                   |
     |               Approximate Normal Coordinate               |
     |                Rational Function Optimizer                |
      ----------------------------------------------------------- 
      ----------------------------------------------------------- 
     |                   =====================                   |
     |                        A N C O P T                        |
     |                   =====================                   |
     |               Approximate Normal Coordinate               |
     |                Rational Function Optimizer                |
      ----------------------------------------------------------- 

          ...................................................
          :                      SETUP                      :
          :.................................................:
          :   optimization level         verytight          :
          :   max. optcycles                   340          :
          :   ANC micro-cycles                  20          :
          :   degrees of freedom                45          :
          :.................................................:
          :   RF solver                   davidson          :
          :   write xtbopt.log                true          :
          :   linear?                        false          :
          :   energy convergence         0.1000000E-06 Eh   :
          :   grad. convergence          0.2000000E-03 Eh/α :
          :   maxmium RF displ.          1.0000000          :
          :   Hlow (freq-cutoff)         0.1000000E-01      :
          :   Hmax (freq-cutoff)         5.0000000          :
          :   S6 in model hess.         20.0000000          :
          ...................................................

generating ANC from exact Hessian ...
Using Lindh-Hessian (1995)
 Shifting diagonal of input Hessian by   7.598350969775899E-003
 Lowest  eigenvalues of input Hessian
    0.000000    0.000000    0.000000    0.000000    0.000000    0.000000
    0.010000    0.010560    0.011349    0.016581    0.017939    0.022812
    0.024196    0.045617    0.047902    0.050508    0.056477    0.058321
 Highest eigenvalues
    1.175804    1.207752    1.238665    1.278602    1.718214    2.268638
 

........................................................................
.............................. CYCLE    1 ..............................
........................................................................

 iter      E             dE          RMSdq      gap      omega  full diag
   1    -24.2245737 -0.242246E+02  0.372E-05    4.76       0.0  T
   2    -24.2245737 -0.360245E-11  0.246E-05    4.76     986.1  T
   3    -24.2245737 -0.898837E-12  0.131E-05    4.76    1851.5  T
     SCC iter.                  ...        0 min,  0.001 sec
     gradient                   ...        0 min,  0.004 sec
 * total energy  :   -23.9625837 Eh     change       -0.6340883E-10 Eh
   gradient norm :     0.0360404 Eh/α   predicted     0.0000000E+00 (-100.00%)
   displ. norm   :     0.0867418 α      lambda       -0.1652690E-02
   maximum displ.:     0.0403004 α      in ANC's #6, #12, #17, ...

........................................................................
.............................. CYCLE    2 ..............................
........................................................................

 iter      E             dE          RMSdq      gap      omega  full diag
   1    -24.2340050 -0.242340E+02  0.111E-01    4.93       0.0  T
   2    -24.2340354 -0.304334E-04  0.644E-02    4.90       1.0  T
   3    -24.2340374 -0.190859E-05  0.302E-02    4.91       1.0  T
   4    -24.2340394 -0.206420E-05  0.456E-03    4.90       5.3  T
   5    -24.2340395 -0.421156E-07  0.234E-03    4.90      10.4  T
   6    -24.2340395 -0.656118E-08  0.614E-04    4.90      39.5  T
   7    -24.2340395 -0.855866E-09  0.208E-04    4.90     116.7  T
     SCC iter.                  ...        0 min,  0.003 sec
     gradient                   ...        0 min,  0.004 sec
 * total energy  :   -23.9636914 Eh     change       -0.1107691E-02 Eh
   gradient norm :     0.0167934 Eh/α   predicted    -0.8325620E-03 ( -24.84%)
   displ. norm   :     0.0666938 α      lambda       -0.5377339E-03
   maximum displ.:     0.0261317 α      in ANC's #10, #22, #2, ...

........................................................................
.............................. CYCLE    3 ..............................
........................................................................

 iter      E             dE          RMSdq      gap      omega  full diag
   1    -24.2383293 -0.242383E+02  0.725E-02    4.98       0.0  T
   2    -24.2383518 -0.224935E-04  0.392E-02    4.96       1.0  T
   3    -24.2383534 -0.158365E-05  0.206E-02    4.97       1.2  T
   4    -24.2383538 -0.445828E-06  0.525E-03    4.96       4.6  T
   5    -24.2383539 -0.821441E-07  0.157E-03    4.96      15.5  T
   6    -24.2383539 -0.329600E-08  0.272E-04    4.96      89.2  T
   7    -24.2383539 -0.201194E-09  0.136E-04    4.96     178.1  T
     SCC iter.                  ...        0 min,  0.003 sec
     gradient                   ...        0 min,  0.004 sec
 * total energy  :   -23.9639890 Eh     change       -0.2975860E-03 Eh
   gradient norm :     0.0065866 Eh/α   predicted    -0.2700607E-03 (  -9.25%)
   displ. norm   :     0.0335948 α      lambda       -0.9624642E-04
   maximum displ.:     0.0200477 α      in ANC's #22, #9, #2, ...

........................................................................
.............................. CYCLE    4 ..............................
........................................................................

 iter      E             dE          RMSdq      gap      omega  full diag
   1    -24.2378716 -0.242379E+02  0.255E-02    4.96       0.0  T
   2    -24.2378736 -0.205585E-05  0.139E-02    4.96       1.7  T
   3    -24.2378737 -0.848349E-07  0.671E-03    4.96       3.6  T
   4    -24.2378737 -0.324450E-07  0.169E-03    4.96      14.4  T
   5    -24.2378737 -0.151470E-07  0.467E-04    4.96      52.0  T
   6    -24.2378737 -0.132811E-09  0.186E-04    4.96     130.2  T
     SCC iter.                  ...        0 min,  0.002 sec
     gradient                   ...        0 min,  0.004 sec
 * total energy  :   -23.9640466 Eh     change       -0.5763964E-04 Eh
   gradient norm :     0.0032739 Eh/α   predicted    -0.4817624E-04 ( -16.42%)
   displ. norm   :     0.0301929 α      lambda       -0.4088114E-04
   maximum displ.:     0.0174997 α      in ANC's #2, #22, #10, ...

........................................................................
.............................. CYCLE    5 ..............................
........................................................................

 iter      E             dE          RMSdq      gap      omega  full diag
   1    -24.2369688 -0.242370E+02  0.159E-02    4.95       0.0  T
   2    -24.2369690 -0.203074E-06  0.924E-03    4.95       2.6  T
   3    -24.2369690 -0.181930E-07  0.185E-03    4.95      13.1  T
   4    -24.2369690 -0.339764E-08  0.473E-04    4.95      51.3  T
   5    -24.2369690 -0.256939E-09  0.268E-04    4.95      90.4  T
     SCC iter.                  ...        0 min,  0.002 sec
     gradient                   ...        0 min,  0.004 sec
 * total energy  :   -23.9640697 Eh     change       -0.2311149E-04 Eh
   gradient norm :     0.0018325 Eh/α   predicted    -0.2045846E-04 ( -11.48%)
   displ. norm   :     0.0167965 α      lambda       -0.4804288E-05
   maximum displ.:     0.0135821 α      in ANC's #2, #22, #5, ...

........................................................................
.............................. CYCLE    6 ..............................
........................................................................

 iter      E             dE          RMSdq      gap      omega  full diag
   1    -24.2368475 -0.242368E+02  0.943E-03    4.95       0.0  T
   2    -24.2368477 -0.216945E-06  0.495E-03    4.95       4.9  T
   3    -24.2368477 -0.838569E-08  0.192E-03    4.95      12.6  T
   4    -24.2368477 -0.253108E-08  0.486E-04    4.95      49.9  T
   5    -24.2368477 -0.140889E-08  0.194E-04    4.95     124.8  T
     SCC iter.                  ...        0 min,  0.002 sec
     gradient                   ...        0 min,  0.004 sec
 * total energy  :   -23.9640730 Eh     change       -0.3302279E-05 Eh
   gradient norm :     0.0006416 Eh/α   predicted    -0.2404303E-05 ( -27.19%)
   displ. norm   :     0.0076542 α      lambda       -0.7546091E-06
   maximum displ.:     0.0060300 α      in ANC's #2, #4, #5, ...

........................................................................
.............................. CYCLE    7 ..............................
........................................................................

 iter      E             dE          RMSdq      gap      omega  full diag
   1    -24.2370806 -0.242371E+02  0.353E-03    4.95       0.0  T
   2    -24.2370807 -0.150576E-07  0.202E-03    4.95      12.0  T
   3    -24.2370807 -0.148770E-09  0.606E-04    4.95      40.1  T
   4    -24.2370807 -0.110999E-08  0.136E-04    4.95     178.7  T
     SCC iter.                  ...        0 min,  0.002 sec
     gradient                   ...        0 min,  0.004 sec
 * total energy  :   -23.9640737 Eh     change       -0.7346917E-06 Eh
   gradient norm :     0.0002473 Eh/α   predicted    -0.3766813E-06 ( -48.73%)
   displ. norm   :     0.0110395 α      lambda       -0.4695808E-06
   maximum displ.:     0.0085368 α      in ANC's #2, #3, #4, ...

........................................................................
.............................. CYCLE    8 ..............................
........................................................................

 iter      E             dE          RMSdq      gap      omega  full diag
   1    -24.2371529 -0.242372E+02  0.468E-03    4.95       0.0  T
   2    -24.2371529 -0.300234E-08  0.275E-03    4.95       8.8  T
   3    -24.2371529 -0.113272E-08  0.214E-04    4.95     113.5  T
   4    -24.2371529 -0.108926E-09  0.118E-04    4.95     205.7  T
     SCC iter.                  ...        0 min,  0.002 sec
     gradient                   ...        0 min,  0.004 sec
 * total energy  :   -23.9640744 Eh     change       -0.6089974E-06 Eh
   gradient norm :     0.0003181 Eh/α   predicted    -0.2332488E-06 ( -61.70%)
   displ. norm   :     0.0247579 α      lambda       -0.8882086E-06
   maximum displ.:     0.0176275 α      in ANC's #2, #3, #4, ...

........................................................................
.............................. CYCLE    9 ..............................
........................................................................

 iter      E             dE          RMSdq      gap      omega  full diag
   1    -24.2371434 -0.242371E+02  0.111E-02    4.95       0.0  T
   2    -24.2371434 -0.961435E-08  0.655E-03    4.95       3.7  T
   3    -24.2371434 -0.636004E-08  0.419E-04    4.95      57.9  T
   4    -24.2371434 -0.148503E-09  0.226E-04    4.95     107.5  T
     SCC iter.                  ...        0 min,  0.002 sec
     gradient                   ...        0 min,  0.004 sec
 * total energy  :   -23.9640755 Eh     change       -0.1161961E-05 Eh
   gradient norm :     0.0003531 Eh/α   predicted    -0.4455709E-06 ( -61.65%)
   displ. norm   :     0.0439412 α      lambda       -0.1316981E-05
   maximum displ.:     0.0307073 α      in ANC's #2, #4, #3, ...

........................................................................
.............................. CYCLE   10 ..............................
........................................................................

 iter      E             dE          RMSdq      gap      omega  full diag
   1    -24.2370876 -0.242371E+02  0.205E-02    4.95       0.0  T
   2    -24.2370876 -0.335059E-07  0.121E-02    4.95       2.0  T
   3    -24.2370876 -0.210541E-07  0.750E-04    4.95      32.3  T
   4    -24.2370876 -0.426731E-09  0.341E-04    4.95      71.1  T
     SCC iter.                  ...        0 min,  0.002 sec
     gradient                   ...        0 min,  0.004 sec
 * total energy  :   -23.9640772 Eh     change       -0.1691969E-05 Eh
   gradient norm :     0.0002914 Eh/α   predicted    -0.6604452E-06 ( -60.97%)
   displ. norm   :     0.0581838 α      lambda       -0.1407418E-05
   maximum displ.:     0.0401698 α      in ANC's #2, #4, #3, ...

........................................................................
.............................. CYCLE   11 ..............................
........................................................................

 iter      E             dE          RMSdq      gap      omega  full diag
   1    -24.2369585 -0.242370E+02  0.274E-02    4.95       0.0  T
   2    -24.2369585 -0.657050E-07  0.161E-02    4.95       1.5  T
   3    -24.2369586 -0.387838E-07  0.105E-03    4.95      23.1  T
   4    -24.2369586 -0.118887E-08  0.605E-04    4.95      40.1  T
   5    -24.2369586 -0.465523E-09  0.138E-04    4.95     175.4  T
     SCC iter.                  ...        0 min,  0.002 sec
     gradient                   ...        0 min,  0.004 sec
 * total energy  :   -23.9640788 Eh     change       -0.1621136E-05 Eh
   gradient norm :     0.0004423 Eh/α   predicted    -0.7061666E-06 ( -56.44%)
   displ. norm   :     0.0584558 α      lambda       -0.1220487E-05
   maximum displ.:     0.0397789 α      in ANC's #2, #4, #1, ...

........................................................................
.............................. CYCLE   12 ..............................
........................................................................

 iter      E             dE          RMSdq      gap      omega  full diag
   1    -24.2368825 -0.242369E+02  0.273E-02    4.95       0.0  T
   2    -24.2368826 -0.677856E-07  0.160E-02    4.95       1.5  T
   3    -24.2368826 -0.402460E-07  0.105E-03    4.95      23.0  T
   4    -24.2368826 -0.102874E-08  0.591E-04    4.95      41.1  T
   5    -24.2368826 -0.392056E-09  0.133E-04    4.95     182.6  T
     SCC iter.                  ...        0 min,  0.002 sec
     gradient                   ...        0 min,  0.004 sec
 * total energy  :   -23.9640802 Eh     change       -0.1351586E-05 Eh
   gradient norm :     0.0006102 Eh/α   predicted    -0.6122097E-06 ( -54.70%)
   displ. norm   :     0.0537223 α      lambda       -0.1462622E-05
   maximum displ.:     0.0343739 α      in ANC's #2, #4, #1, ...

........................................................................
.............................. CYCLE   13 ..............................
........................................................................

 iter      E             dE          RMSdq      gap      omega  full diag
   1    -24.2368876 -0.242369E+02  0.243E-02    4.95       0.0  T
   2    -24.2368877 -0.614749E-07  0.143E-02    4.95       1.7  T
   3    -24.2368877 -0.312679E-07  0.105E-03    4.95      23.0  T
   4    -24.2368877 -0.328383E-08  0.641E-04    4.95      37.9  T
   5    -24.2368877 -0.442178E-09  0.165E-04    4.95     147.1  T
     SCC iter.                  ...        0 min,  0.002 sec
     gradient                   ...        0 min,  0.004 sec
 * total energy  :   -23.9640820 Eh     change       -0.1862510E-05 Eh
   gradient norm :     0.0005455 Eh/α   predicted    -0.7326009E-06 ( -60.67%)
   displ. norm   :     0.0723013 α      lambda       -0.2750098E-05
   maximum displ.:     0.0400503 α      in ANC's #4, #2, #1, ...

........................................................................
.............................. CYCLE   14 ..............................
........................................................................

 iter      E             dE          RMSdq      gap      omega  full diag
   1    -24.2369965 -0.242370E+02  0.313E-02    4.95       0.0  T
   2    -24.2369966 -0.101527E-06  0.184E-02    4.95       1.3  T
   3    -24.2369967 -0.517359E-07  0.142E-03    4.95      17.1  T
   4    -24.2369967 -0.710117E-08  0.855E-04    4.95      28.4  T
   5    -24.2369967 -0.685738E-09  0.139E-04    4.95     174.3  T
     SCC iter.                  ...        0 min,  0.002 sec
     gradient                   ...        0 min,  0.004 sec
 * total energy  :   -23.9640856 Eh     change       -0.3509213E-05 Eh
   gradient norm :     0.0003386 Eh/α   predicted    -0.1377503E-05 ( -60.75%)
   displ. norm   :     0.1242315 α      lambda       -0.3812021E-05
   maximum displ.:     0.0721372 α      in ANC's #4, #1, #2, ...

........................................................................
.............................. CYCLE   15 ..............................
........................................................................

 iter      E             dE          RMSdq      gap      omega  full diag
   1    -24.2368253 -0.242368E+02  0.554E-02    4.94       0.0  T
   2    -24.2368256 -0.306684E-06  0.325E-02    4.94       1.0  T
   3    -24.2368258 -0.173104E-06  0.238E-03    4.94      10.2  T
   4    -24.2368258 -0.128757E-07  0.147E-03    4.94      16.5  T
   5    -24.2368258 -0.244870E-08  0.222E-04    4.94     109.0  T
   6    -24.2368258 -0.165262E-09  0.563E-05    4.94     431.1  T
     SCC iter.                  ...        0 min,  0.002 sec
     gradient                   ...        0 min,  0.004 sec
 * total energy  :   -23.9640900 Eh     change       -0.4404128E-05 Eh
   gradient norm :     0.0011778 Eh/α   predicted    -0.1920388E-05 ( -56.40%)
   displ. norm   :     0.1263132 α      lambda       -0.5504331E-05
   maximum displ.:     0.0794728 α      in ANC's #1, #4, #7, ...

........................................................................
.............................. CYCLE   16 ..............................
........................................................................

 iter      E             dE          RMSdq      gap      omega  full diag
   1    -24.2368622 -0.242369E+02  0.516E-02    4.94       0.0  T
   2    -24.2368625 -0.254943E-06  0.303E-02    4.94       1.0  T
   3    -24.2368626 -0.156493E-06  0.215E-03    4.94      11.3  T
   4    -24.2368626 -0.512735E-08  0.127E-03    4.94      19.2  T
   5    -24.2368626 -0.196768E-08  0.142E-04    4.94     170.8  T
   6    -24.2368626 -0.122199E-09  0.566E-05    4.94     428.8  T
     SCC iter.                  ...        0 min,  0.002 sec
     gradient                   ...        0 min,  0.004 sec
 * total energy  :   -23.9640959 Eh     change       -0.5958005E-05 Eh
   gradient norm :     0.0011384 Eh/α   predicted    -0.2769492E-05 ( -53.52%)
   displ. norm   :     0.1089232 α      lambda       -0.5416761E-05
   maximum displ.:     0.0733263 α      in ANC's #1, #4, #7, ...

........................................................................
.............................. CYCLE   17 ..............................
........................................................................

 iter      E             dE          RMSdq      gap      omega  full diag
   1    -24.2368961 -0.242369E+02  0.446E-02    4.93       0.0  T
   2    -24.2368963 -0.197749E-06  0.262E-02    4.93       1.0  T
   3    -24.2368965 -0.125468E-06  0.185E-03    4.93      13.1  T
   4    -24.2368965 -0.242284E-08  0.970E-04    4.93      25.0  T
   5    -24.2368965 -0.110598E-08  0.100E-04    4.93     242.2  T
     SCC iter.                  ...        0 min,  0.002 sec
     gradient                   ...        0 min,  0.004 sec
 * total energy  :   -23.9641027 Eh     change       -0.6785046E-05 Eh
   gradient norm :     0.0012507 Eh/α   predicted    -0.2721912E-05 ( -59.88%)
   displ. norm   :     0.2152398 α      lambda       -0.1404589E-04
   maximum displ.:     0.1535973 α      in ANC's #1, #4, #7, ...

........................................................................
.............................. CYCLE   18 ..............................
........................................................................

 iter      E             dE          RMSdq      gap      omega  full diag
   1    -24.2369071 -0.242369E+02  0.854E-02    4.93       0.0  T
   2    -24.2369078 -0.738385E-06  0.501E-02    4.93       1.0  T
   3    -24.2369083 -0.480427E-06  0.359E-03    4.93       6.7  T
   4    -24.2369083 -0.845069E-08  0.157E-03    4.93      15.4  T
   5    -24.2369083 -0.345682E-08  0.183E-04    4.93     132.3  T
   6    -24.2369083 -0.776481E-10  0.102E-04    4.93     237.0  T
     SCC iter.                  ...        0 min,  0.002 sec
     gradient                   ...        0 min,  0.004 sec
 * total energy  :   -23.9641164 Eh     change       -0.1370274E-04 Eh
   gradient norm :     0.0017700 Eh/α   predicted    -0.7168422E-05 ( -47.69%)
   displ. norm   :     0.1060421 α      lambda       -0.1345420E-04
   maximum displ.:     0.0745256 α      in ANC's #1, #4, #2, ...

........................................................................
.............................. CYCLE   19 ..............................
........................................................................

 iter      E             dE          RMSdq      gap      omega  full diag
   1    -24.2374640 -0.242375E+02  0.380E-02    4.95       0.0  T
   2    -24.2374647 -0.647883E-06  0.224E-02    4.94       1.1  T
   3    -24.2374646  0.375307E-07  0.476E-03    4.94       5.1  T
   4    -24.2374648 -0.176914E-06  0.117E-03    4.94      20.7  T
   5    -24.2374648 -0.153512E-08  0.569E-04    4.94      42.6  T
   6    -24.2374648 -0.253479E-09  0.592E-05    4.94     409.3  T
     SCC iter.                  ...        0 min,  0.002 sec
     gradient                   ...        0 min,  0.004 sec
 * total energy  :   -23.9641273 Eh     change       -0.1086977E-04 Eh
   gradient norm :     0.0015527 Eh/α   predicted    -0.6760997E-05 ( -37.80%)
   displ. norm   :     0.5837840 α      lambda       -0.4979421E-04
   maximum displ.:     0.4084437 α      in ANC's #1, #4, #7, ...

........................................................................
.............................. CYCLE   20 ..............................
........................................................................

 iter      E             dE          RMSdq      gap      omega  full diag
   1    -24.2320252 -0.242320E+02  0.253E-01    4.79       0.0  T
   2    -24.2320501 -0.248773E-04  0.150E-01    4.81       1.0  T
   3    -24.2320485  0.153946E-05  0.311E-02    4.80       1.0  T
   4    -24.2320573 -0.879895E-05  0.855E-03    4.81       2.8  T
   5    -24.2320574 -0.734036E-07  0.360E-03    4.81       6.7  T
   6    -24.2320574 -0.190653E-07  0.697E-04    4.81      34.8  T
   7    -24.2320574 -0.101203E-08  0.373E-04    4.81      65.0  T
     SCC iter.                  ...        0 min,  0.003 sec
     gradient                   ...        0 min,  0.004 sec
 * total energy  :   -23.9638759 Eh     change        0.2514044E-03 Eh
   gradient norm :     0.0212667 Eh/α   predicted    -0.2866679E-04 (-111.40%)
   displ. norm   :     0.3007113 α      lambda       -0.6024741E-03
   maximum displ.:     0.2100817 α      in ANC's #1, #4, #7, ...
 * RMSD in coord.:     0.2854607 α      energy gain  -0.1292188E-02 Eh

generating ANC from exact Hessian ...
Using Lindh-Hessian (1995)
 Shifting diagonal of input Hessian by   7.472878066238059E-003
 Lowest  eigenvalues of input Hessian
    0.000000    0.000000    0.000000    0.000000    0.000000    0.000000
    0.010000    0.010409    0.011345    0.016736    0.018297    0.023220
    0.024260    0.046602    0.048033    0.054835    0.057539    0.059768
 Highest eigenvalues
    1.193836    1.220470    1.249517    1.274596    1.809111    2.340601
 

........................................................................
.............................. CYCLE   21 ..............................
........................................................................

 iter      E             dE          RMSdq      gap      omega  full diag
   1    -24.2363653 -0.242364E+02  0.137E-01    4.93       0.0  T
   2    -24.2363792 -0.138651E-04  0.811E-02    4.91       1.0  T
   3    -24.2363784  0.756555E-06  0.239E-02    4.92       1.0  T
   4    -24.2363822 -0.375216E-05  0.488E-03    4.91       5.0  T
   5    -24.2363822 -0.243453E-07  0.218E-03    4.91      11.1  T
   6    -24.2363822 -0.743851E-08  0.483E-04    4.91      50.2  T
   7    -24.2363822 -0.474973E-09  0.243E-04    4.91      99.7  T
     SCC iter.                  ...        0 min,  0.003 sec
     gradient                   ...        0 min,  0.004 sec
 * total energy  :   -23.9641510 Eh     change       -0.2750984E-03 Eh
   gradient norm :     0.0035762 Eh/α   predicted     0.0000000E+00 (-100.00%)
   displ. norm   :     0.0159549 α      lambda       -0.1759501E-04
   maximum displ.:     0.0088778 α      in ANC's #3, #5, #7, ...

........................................................................
.............................. CYCLE   22 ..............................
........................................................................

 iter      E             dE          RMSdq      gap      omega  full diag
   1    -24.2371468 -0.242371E+02  0.120E-02    4.93       0.0  T
   2    -24.2371471 -0.280001E-06  0.728E-03    4.92       3.3  T
   3    -24.2371471 -0.118196E-07  0.315E-03    4.93       7.7  T
   4    -24.2371471 -0.307326E-07  0.503E-04    4.92      48.2  T
   5    -24.2371471 -0.266294E-09  0.308E-04    4.92      78.9  T
     SCC iter.                  ...        0 min,  0.002 sec
     gradient                   ...        0 min,  0.004 sec
 * total energy  :   -23.9641620 Eh     change       -0.1103747E-04 Eh
   gradient norm :     0.0009161 Eh/α   predicted    -0.8798456E-05 ( -20.29%)
   displ. norm   :     0.0289880 α      lambda       -0.5362202E-05
   maximum displ.:     0.0169342 α      in ANC's #3, #2, #5, ...

........................................................................
.............................. CYCLE   23 ..............................
........................................................................

 iter      E             dE          RMSdq      gap      omega  full diag
   1    -24.2375969 -0.242376E+02  0.155E-02    4.94       0.0  T
   2    -24.2375971 -0.178895E-06  0.913E-03    4.93       2.7  T
   3    -24.2375970  0.437895E-08  0.256E-03    4.93       9.5  T
   4    -24.2375971 -0.378944E-07  0.579E-04    4.93      41.9  T
   5    -24.2375971 -0.622613E-09  0.320E-04    4.93      75.8  T
     SCC iter.                  ...        0 min,  0.002 sec
     gradient                   ...        0 min,  0.004 sec
 * total energy  :   -23.9641660 Eh     change       -0.3968350E-05 Eh
   gradient norm :     0.0013968 Eh/α   predicted    -0.2682673E-05 ( -32.40%)
   displ. norm   :     0.0292890 α      lambda       -0.3550187E-05
   maximum displ.:     0.0181502 α      in ANC's #3, #2, #5, ...

........................................................................
.............................. CYCLE   24 ..............................
........................................................................

 iter      E             dE          RMSdq      gap      omega  full diag
   1    -24.2374329 -0.242374E+02  0.157E-02    4.93       0.0  T
   2    -24.2374330 -0.834029E-07  0.921E-03    4.93       2.6  T
   3    -24.2374330 -0.110262E-07  0.102E-03    4.93      23.7  T
   4    -24.2374330 -0.211050E-08  0.358E-04    4.93      67.7  T
   5    -24.2374330 -0.163787E-09  0.202E-04    4.93     120.3  T
     SCC iter.                  ...        0 min,  0.002 sec
     gradient                   ...        0 min,  0.004 sec
 * total energy  :   -23.9641698 Eh     change       -0.3812330E-05 Eh
   gradient norm :     0.0008746 Eh/α   predicted    -0.1775312E-05 ( -53.43%)
   displ. norm   :     0.0526507 α      lambda       -0.4675956E-05
   maximum displ.:     0.0303535 α      in ANC's #2, #3, #5, ...

........................................................................
.............................. CYCLE   25 ..............................
........................................................................

 iter      E             dE          RMSdq      gap      omega  full diag
   1    -24.2370123 -0.242370E+02  0.247E-02    4.92       0.0  T
   2    -24.2370124 -0.132652E-06  0.146E-02    4.92       1.7  T
   3    -24.2370124 -0.171096E-07  0.174E-03    4.92      13.9  T
   4    -24.2370124 -0.236393E-07  0.706E-04    4.92      34.3  T
   5    -24.2370124 -0.591697E-09  0.351E-04    4.92      69.1  T
     SCC iter.                  ...        0 min,  0.002 sec
     gradient                   ...        0 min,  0.004 sec
 * total energy  :   -23.9641743 Eh     change       -0.4488873E-05 Eh
   gradient norm :     0.0011619 Eh/α   predicted    -0.2341417E-05 ( -47.84%)
   displ. norm   :     0.0394044 α      lambda       -0.2272883E-05
   maximum displ.:     0.0249481 α      in ANC's #2, #3, #4, ...

........................................................................
.............................. CYCLE   26 ..............................
........................................................................

 iter      E             dE          RMSdq      gap      omega  full diag
   1    -24.2370242 -0.242370E+02  0.176E-02    4.92       0.0  T
   2    -24.2370242 -0.395270E-07  0.103E-02    4.92       2.3  T
   3    -24.2370242 -0.168301E-07  0.771E-04    4.92      31.4  T
   4    -24.2370243 -0.141946E-08  0.448E-04    4.92      54.2  T
     SCC iter.                  ...        0 min,  0.002 sec
     gradient                   ...        0 min,  0.004 sec
 * total energy  :   -23.9641771 Eh     change       -0.2849814E-05 Eh
   gradient norm :     0.0010130 Eh/α   predicted    -0.1137487E-05 ( -60.09%)
   displ. norm   :     0.0565941 α      lambda       -0.3393920E-05
   maximum displ.:     0.0365363 α      in ANC's #2, #4, #1, ...

........................................................................
.............................. CYCLE   27 ..............................
........................................................................

 iter      E             dE          RMSdq      gap      omega  full diag
   1    -24.2371510 -0.242372E+02  0.243E-02    4.92       0.0  T
   2    -24.2371511 -0.131975E-06  0.142E-02    4.92       1.7  T
   3    -24.2371511 -0.353063E-07  0.125E-03    4.92      19.4  T
   4    -24.2371511 -0.313120E-08  0.605E-04    4.92      40.1  T
   5    -24.2371511 -0.373419E-09  0.296E-04    4.92      81.9  T
     SCC iter.                  ...        0 min,  0.002 sec
     gradient                   ...        0 min,  0.004 sec
 * total energy  :   -23.9641812 Eh     change       -0.4028070E-05 Eh
   gradient norm :     0.0005213 Eh/α   predicted    -0.1698857E-05 ( -57.82%)
   displ. norm   :     0.0649155 α      lambda       -0.3051900E-05
   maximum displ.:     0.0419064 α      in ANC's #2, #4, #1, ...

........................................................................
.............................. CYCLE   28 ..............................
........................................................................

 iter      E             dE          RMSdq      gap      omega  full diag
   1    -24.2372344 -0.242372E+02  0.283E-02    4.92       0.0  T
   2    -24.2372345 -0.107368E-06  0.166E-02    4.92       1.5  T
   3    -24.2372345 -0.484270E-07  0.121E-03    4.92      20.0  T
   4    -24.2372345 -0.170142E-08  0.633E-04    4.92      38.3  T
   5    -24.2372345 -0.258403E-09  0.174E-04    4.92     139.0  T
     SCC iter.                  ...        0 min,  0.002 sec
     gradient                   ...        0 min,  0.004 sec
 * total energy  :   -23.9641849 Eh     change       -0.3698581E-05 Eh
   gradient norm :     0.0006938 Eh/α   predicted    -0.1529051E-05 ( -58.66%)
   displ. norm   :     0.0976812 α      lambda       -0.3897881E-05
   maximum displ.:     0.0620802 α      in ANC's #2, #4, #1, ...

........................................................................
.............................. CYCLE   29 ..............................
........................................................................

 iter      E             dE          RMSdq      gap      omega  full diag
   1    -24.2371551 -0.242372E+02  0.430E-02    4.92       0.0  T
   2    -24.2371553 -0.183590E-06  0.253E-02    4.92       1.0  T
   3    -24.2371554 -0.113592E-06  0.181E-03    4.92      13.4  T
   4    -24.2371554 -0.311545E-08  0.101E-03    4.92      23.9  T
   5    -24.2371554 -0.186881E-08  0.181E-04    4.92     134.0  T
   6    -24.2371554 -0.105725E-09  0.405E-05    4.92     599.2  T
     SCC iter.                  ...        0 min,  0.002 sec
     gradient                   ...        0 min,  0.004 sec
 * total energy  :   -23.9641893 Eh     change       -0.4417148E-05 Eh
   gradient norm :     0.0010394 Eh/α   predicted    -0.1956912E-05 ( -55.70%)
   displ. norm   :     0.1062164 α      lambda       -0.4348894E-05
   maximum displ.:     0.0636038 α      in ANC's #2, #1, #4, ...

........................................................................
.............................. CYCLE   30 ..............................
........................................................................

 iter      E             dE          RMSdq      gap      omega  full diag
   1    -24.2371615 -0.242372E+02  0.466E-02    4.92       0.0  T
   2    -24.2371617 -0.201330E-06  0.273E-02    4.92       1.0  T
   3    -24.2371618 -0.132242E-06  0.190E-03    4.92      12.7  T
   4    -24.2371618 -0.195519E-08  0.813E-04    4.92      29.8  T
   5    -24.2371618 -0.140474E-08  0.938E-05    4.92     258.5  T
     SCC iter.                  ...        0 min,  0.002 sec
     gradient                   ...        0 min,  0.004 sec
 * total energy  :   -23.9641939 Eh     change       -0.4623975E-05 Eh
   gradient norm :     0.0011086 Eh/α   predicted    -0.2184534E-05 ( -52.76%)
   displ. norm   :     0.0799351 α      lambda       -0.3506066E-05
   maximum displ.:     0.0426287 α      in ANC's #1, #2, #4, ...

........................................................................
.............................. CYCLE   31 ..............................
........................................................................

 iter      E             dE          RMSdq      gap      omega  full diag
   1    -24.2372523 -0.242373E+02  0.360E-02    4.92       0.0  T
   2    -24.2372525 -0.187850E-06  0.211E-02    4.92       1.2  T
   3    -24.2372526 -0.733740E-07  0.180E-03    4.92      13.5  T
   4    -24.2372526 -0.126633E-07  0.102E-03    4.92      23.7  T
   5    -24.2372526 -0.144225E-08  0.429E-04    4.92      56.6  T
   6    -24.2372526 -0.260037E-09  0.394E-05    4.92     615.1  T
     SCC iter.                  ...        0 min,  0.002 sec
     gradient                   ...        0 min,  0.004 sec
 * total energy  :   -23.9641975 Eh     change       -0.3598329E-05 Eh
   gradient norm :     0.0005688 Eh/α   predicted    -0.1759290E-05 ( -51.11%)
   displ. norm   :     0.0562177 α      lambda       -0.1972940E-05
   maximum displ.:     0.0296590 α      in ANC's #1, #4, #7, ...

........................................................................
.............................. CYCLE   32 ..............................
........................................................................

 iter      E             dE          RMSdq      gap      omega  full diag
   1    -24.2371818 -0.242372E+02  0.289E-02    4.91       0.0  T
   2    -24.2371820 -0.143899E-06  0.169E-02    4.91       1.4  T
   3    -24.2371820 -0.552509E-07  0.136E-03    4.91      17.8  T
   4    -24.2371820 -0.274844E-08  0.700E-04    4.91      34.6  T
   5    -24.2371820 -0.339696E-09  0.240E-04    4.91     101.2  T
     SCC iter.                  ...        0 min,  0.002 sec
     gradient                   ...        0 min,  0.004 sec
 * total energy  :   -23.9641996 Eh     change       -0.2069906E-05 Eh
   gradient norm :     0.0008561 Eh/α   predicted    -0.9867390E-06 ( -52.33%)
   displ. norm   :     0.0547667 α      lambda       -0.3310503E-05
   maximum displ.:     0.0311743 α      in ANC's #1, #4, #7, ...

........................................................................
.............................. CYCLE   33 ..............................
........................................................................

 iter      E             dE          RMSdq      gap      omega  full diag
   1    -24.2375490 -0.242375E+02  0.283E-02    4.92       0.0  T
   2    -24.2375494 -0.361321E-06  0.166E-02    4.92       1.5  T
   3    -24.2375494 -0.232367E-08  0.314E-03    4.92       7.7  T
   4    -24.2375494 -0.727453E-07  0.944E-04    4.92      25.7  T
   5    -24.2375495 -0.165611E-08  0.482E-04    4.92      50.3  T
     SCC iter.                  ...        0 min,  0.002 sec
     gradient                   ...        0 min,  0.004 sec
 * total energy  :   -23.9642008 Eh     change       -0.1244804E-05 Eh
   gradient norm :     0.0014570 Eh/α   predicted    -0.1658683E-05 (  33.25%)
   displ. norm   :     0.0491030 α      lambda       -0.3054306E-05
   maximum displ.:     0.0285930 α      in ANC's #4, #7, #1, ...

........................................................................
.............................. CYCLE   34 ..............................
........................................................................

 iter      E             dE          RMSdq      gap      omega  full diag
   1    -24.2371680 -0.242372E+02  0.285E-02    4.91       0.0  T
   2    -24.2371682 -0.173837E-06  0.167E-02    4.91       1.5  T
   3    -24.2371682 -0.133289E-07  0.243E-03    4.91      10.0  T
   4    -24.2371682 -0.542611E-07  0.889E-04    4.91      27.3  T
   5    -24.2371682 -0.670308E-09  0.124E-04    4.91     195.4  T
     SCC iter.                  ...        0 min,  0.002 sec
     gradient                   ...        0 min,  0.004 sec
 * total energy  :   -23.9642035 Eh     change       -0.2730359E-05 Eh
   gradient norm :     0.0013117 Eh/α   predicted    -0.1530118E-05 ( -43.96%)
   displ. norm   :     0.0137895 α      lambda       -0.1402128E-05
   maximum displ.:     0.0068217 α      in ANC's #2, #5, #4, ...

........................................................................
.............................. CYCLE   35 ..............................
........................................................................

 iter      E             dE          RMSdq      gap      omega  full diag
   1    -24.2371457 -0.242371E+02  0.702E-03    4.91       0.0  T
   2    -24.2371457 -0.766159E-07  0.394E-03    4.91       6.2  T
   3    -24.2371457 -0.306149E-08  0.122E-03    4.91      19.9  T
   4    -24.2371458 -0.128053E-08  0.264E-04    4.91      91.9  T
   5    -24.2371458 -0.496055E-09  0.113E-04    4.91     214.4  T
     SCC iter.                  ...        0 min,  0.002 sec
     gradient                   ...        0 min,  0.004 sec
 * total energy  :   -23.9642052 Eh     change       -0.1679580E-05 Eh
   gradient norm :     0.0008068 Eh/α   predicted    -0.7017970E-06 ( -58.22%)
   displ. norm   :     0.0397304 α      lambda       -0.2025416E-05
   maximum displ.:     0.0194093 α      in ANC's #1, #4, #2, ...

........................................................................
.............................. CYCLE   36 ..............................
........................................................................

 iter      E             dE          RMSdq      gap      omega  full diag
   1    -24.2372093 -0.242372E+02  0.208E-02    4.91       0.0  T
   2    -24.2372094 -0.106250E-06  0.122E-02    4.91       2.0  T
   3    -24.2372094 -0.212703E-07  0.111E-03    4.91      21.8  T
   4    -24.2372094 -0.300958E-08  0.500E-04    4.91      48.5  T
   5    -24.2372094 -0.441389E-09  0.275E-04    4.91      88.1  T
     SCC iter.                  ...        0 min,  0.002 sec
     gradient                   ...        0 min,  0.004 sec
 * total energy  :   -23.9642073 Eh     change       -0.2036876E-05 Eh
   gradient norm :     0.0005265 Eh/α   predicted    -0.1011640E-05 ( -50.33%)
   displ. norm   :     0.0240565 α      lambda       -0.7567368E-06
   maximum displ.:     0.0126397 α      in ANC's #1, #2, #7, ...

........................................................................
.............................. CYCLE   37 ..............................
........................................................................

 iter      E             dE          RMSdq      gap      omega  full diag
   1    -24.2372988 -0.242373E+02  0.110E-02    4.91       0.0  T
   2    -24.2372988 -0.182557E-07  0.651E-03    4.91       3.7  T
   3    -24.2372988 -0.519743E-08  0.554E-04    4.91      43.8  T
   4    -24.2372988 -0.145011E-08  0.292E-04    4.91      83.0  T
     SCC iter.                  ...        0 min,  0.002 sec
     gradient                   ...        0 min,  0.004 sec
 * total energy  :   -23.9642081 Eh     change       -0.8352611E-06 Eh
   gradient norm :     0.0003532 Eh/α   predicted    -0.3771421E-06 ( -54.85%)
   displ. norm   :     0.0475119 α      lambda       -0.6256932E-06
   maximum displ.:     0.0289241 α      in ANC's #1, #4, #7, ...

........................................................................
.............................. CYCLE   38 ..............................
........................................................................

 iter      E             dE          RMSdq      gap      omega  full diag
   1    -24.2372471 -0.242372E+02  0.242E-02    4.91       0.0  T
   2    -24.2372472 -0.650589E-07  0.142E-02    4.91       1.7  T
   3    -24.2372472 -0.354362E-07  0.107E-03    4.91      22.7  T
   4    -24.2372472 -0.197766E-08  0.634E-04    4.91      38.3  T
   5    -24.2372472 -0.538595E-09  0.185E-04    4.91     131.4  T
     SCC iter.                  ...        0 min,  0.002 sec
     gradient                   ...        0 min,  0.004 sec
 * total energy  :   -23.9642086 Eh     change       -0.5579608E-06 Eh
   gradient norm :     0.0003411 Eh/α   predicted    -0.3138118E-06 ( -43.76%)
   displ. norm   :     0.0114589 α      lambda       -0.3192355E-06
   maximum displ.:     0.0070980 α      in ANC's #2, #3, #1, ...

........................................................................
.............................. CYCLE   39 ..............................
........................................................................

 iter      E             dE          RMSdq      gap      omega  full diag
   1    -24.2373694 -0.242374E+02  0.335E-03    4.91       0.0  T
   2    -24.2373694 -0.154663E-07  0.202E-03    4.91      12.0  T
   3    -24.2373694  0.122213E-09  0.770E-04    4.91      31.5  T
   4    -24.2373694 -0.222366E-08  0.107E-04    4.91     226.4  T
     SCC iter.                  ...        0 min,  0.002 sec
     gradient                   ...        0 min,  0.004 sec
 * total energy  :   -23.9642088 Eh     change       -0.1959055E-06 Eh
   gradient norm :     0.0002862 Eh/α   predicted    -0.1596028E-06 ( -18.53%)
   displ. norm   :     0.0094778 α      lambda       -0.6786580E-07
   maximum displ.:     0.0064762 α      in ANC's #1, #4, #7, ...

........................................................................
.............................. CYCLE   40 ..............................
........................................................................

 iter      E             dE          RMSdq      gap      omega  full diag
   1    -24.2373402 -0.242373E+02  0.425E-03    4.91       0.0  T
   2    -24.2373402 -0.248605E-08  0.249E-03    4.91       9.7  T
   3    -24.2373402 -0.903956E-09  0.246E-04    4.91      98.6  T
   4    -24.2373402 -0.374449E-09  0.129E-04    4.91     188.2  T
     SCC iter.                  ...        0 min,  0.002 sec
     gradient                   ...        0 min,  0.004 sec
 * total energy  :   -23.9642089 Eh     change       -0.5823025E-07 Eh
   gradient norm :     0.0001275 Eh/α   predicted    -0.3346106E-07 ( -42.54%)
   displ. norm   :     0.0016305 α      lambda       -0.1568248E-07
   maximum displ.:     0.0012769 α      in ANC's #3, #1, #4, ...

   *** GEOMETRY OPTIMIZATION CONVERGED AFTER 40 ITERATIONS ***

------------------------------------------------------------------------
 total energy gain   :        -0.0016252 Eh       -1.0198 kcal/mol
 total RMSD          :         0.4475683 a0        0.2368 Å
 total power (kW/mol):        -0.1066752 (step)  -12.3604 (real)
------------------------------------------------------------------------

 ANCopt (total)                0 d,  0 h,  0 min,  0.345 sec
 optimizer setup                ...        0 min,  0.000 sec (  0.083%)
 model hessian                  ...        0 min,  0.007 sec (  2.138%)
 ANC generation                 ...        0 min,  0.001 sec (  0.230%)
 coordinate transformation      ...        0 min,  0.000 sec (  0.070%)
 single point calculation       ...        0 min,  0.319 sec ( 92.541%)
 optimization log               ...        0 min,  0.010 sec (  2.864%)
 hessian update                 ...        0 min,  0.000 sec (  0.081%)
 rational function              ...        0 min,  0.005 sec (  1.438%)

================
 final structure:
================
$coord
       -6.33876709218826        0.40955938564328       -0.60070175033286      C
       -4.07994637172655        0.45098519861127        1.18575195575572      C
       -1.60510716960222        0.02685699616775       -0.23514922403318      C
        0.67362476669411        0.07597983293670        1.56261246320320      C
        3.04556508285641       -0.37724682791394        0.06895429830570      C
        4.07789884356532       -2.41081094445751       -0.16922000057196      O
        3.88670212091985        1.69536492027855       -1.04831223605290      O
       -6.46124861654874       -1.40113153000112       -1.56505959297138      H
       -8.08325976762990        0.71045405932775        0.44050455483287      H
       -6.16372784343761        1.88682438083685       -2.01833653247962      H
       -4.30660509100825       -1.01919202266634        2.61477067075787      H
       -4.00468049146894        2.26936844664209        2.15619826029860      H
       -1.66468240834599       -1.79786209402646       -1.19872235478361      H
       -1.36805639791443        1.49680485557314       -1.66342253259091      H
        0.48282444779090       -1.40512784966346        2.97979935178664      H
        0.79493105531146        1.91997939159124        2.47014105124868      H
        5.38799991338963        1.39767530675059       -2.08042327998543      H
$end
 
 Bond Distances (Angstroems)
 ---------------------------
C1-C2=1.5241         C1-H8=1.0875         C1-H9=1.0868         C1-H10=1.0874        C2-C1=1.5241         C2-C3=1.5267         
C2-H11=1.0916        C2-H12=1.0914        C3-C2=1.5267         C3-C4=1.5362         C3-H13=1.0924        C3-H14=1.0918        
C4-C3=1.5362         C4-C5=1.5026         C4-H15=1.0895        C4-H16=1.0895        C5-C4=1.5026         C5-O6=1.2134         
C5-O7=1.3231         O6-C5=1.2134         O7-C5=1.3231         O7-H17=0.9769        H8-C1=1.0875         H9-C1=1.0868         
H10-C1=1.0874        H11-C2=1.0916        H12-C2=1.0914        H13-C3=1.0924        H14-C3=1.0918        H15-C4=1.0895        
H16-C4=1.0895        H17-O7=0.9769        
 C  H  Rav=1.0898 sigma=0.0020  Rmin=1.0868  Rmax=1.0924     9
 C  C  Rav=1.5224 sigma=0.0123  Rmin=1.5026  Rmax=1.5362     4
 O  H  Rav=0.9769 sigma=0.0000  Rmin=0.9769  Rmax=0.9769     1
 O  C  Rav=1.2683 sigma=0.0549  Rmin=1.2134  Rmax=1.3231     2
 
 selected bond angles (degree)
 --------------------
H8-C1-C2=110.52                H9-C1-C2=110.46                H9-C1-H8=108.44                H10-C1-C2=110.53               
H10-C1-H8=108.35               H10-C1-H9=108.47               C3-C2-C1=111.42                H11-C2-C1=109.47               
H11-C2-C3=109.31               H12-C2-C1=109.46               H12-C2-C3=109.27               H12-C2-H11=107.84              
C4-C3-C2=111.46                H13-C3-C2=109.58               H13-C3-C4=109.07               H14-C3-C2=109.56               
H14-C3-C4=109.05               H14-C3-H13=108.06              C5-C4-C3=109.10                H15-C4-C3=109.96               
H15-C4-C5=108.95               H16-C4-C3=109.54               H16-C4-C5=109.00               H16-C4-H15=110.27              
O6-C5-C4=124.91                O7-C5-C4=112.57                O7-C5-O6=122.50                H17-O7-C5=112.94               
 
 selected dihedral angles (degree)
 ---------------------------------
C3-C2-C1-H8= 59.88            C3-C2-C1-H9=179.89            C3-C2-C1-H10=299.95           H11-C2-C1-H8=298.86           
H11-C2-C1-H9= 58.87           H11-C2-C1-H10=178.93          H12-C2-C1-H8=180.85           H12-C2-C1-H9=300.86           
H12-C2-C1-H10= 60.92          C4-C3-C2-C1=179.83            C4-C3-C2-H11=300.95           C4-C3-C2-H12= 58.75           
H13-C3-C2-C1=300.65           H13-C3-C2-H11= 61.77          H13-C3-C2-H12=179.57          H14-C3-C2-C1= 59.04           
H14-C3-C2-H11=180.16          H14-C3-C2-H12=297.96          C5-C4-C3-C2=179.41            C5-C4-C3-H13= 58.29           
C5-C4-C3-H14=300.49           H15-C4-C3-C2= 59.98           H15-C4-C3-H13=298.86          H15-C4-C3-H14=181.06          
H16-C4-C3-C2=298.65           H16-C4-C3-H13=177.53          H16-C4-C3-H14= 59.74          O6-C5-C4-C3=263.57            
O6-C5-C4-H15= 23.63           O6-C5-C4-H16=143.99           O7-C5-C4-C3= 81.82            O7-C5-C4-H15=201.87           
O7-C5-C4-H16=322.24           H17-O7-C5-C4=182.44           H17-O7-C5-O6=  0.73           
           -------------------------------------------------
          |                Final Singlepoint                |
           -------------------------------------------------

          ...................................................
          :                      SETUP                      :
          :.................................................:
          :  # basis functions                  38          :
          :  # atomic orbitals                  38          :
          :  # shells                           24          :
          :  # electrons                        42          :
          :  max. iterations                   250          :
          :  Hamiltonian                  GFN2-xTB          :
          :  restarted?                      false          :
          :  GBSA solvation                   true          :
          :  PC potential                    false          :
          :  electronic temp.          300.0000000     K    :
          :  accuracy                    1.0000000          :
          :  -> integral cutoff          0.2500000E+02      :
          :  -> integral neglect         0.1000000E-07      :
          :  -> SCF convergence          0.1000000E-05 Eh   :
          :  -> wf. convergence          0.1000000E-03 e    :
          :  Broyden damping             0.4000000          :
          :  net charge                          0          :
          :  unpaired electrons                  0          :
          ...................................................

 iter      E             dE          RMSdq      gap      omega  full diag
   1    -24.2373402 -0.242373E+02  0.257E-05    4.91       0.0  T
   2    -24.2373402 -0.131806E-11  0.160E-05    4.91    1513.3  T
   3    -24.2373402 -0.259348E-12  0.684E-06    4.91    3546.4  T

   *** convergence criteria satisfied after 3 iterations ***

         #    Occupation            Energy/Eh            Energy/eV
      -------------------------------------------------------------
         1        2.0000           -0.7466121             -20.3163
       ...           ...                  ...                  ...
        15        2.0000           -0.4797909             -13.0558
        16        2.0000           -0.4716031             -12.8330
        17        2.0000           -0.4492986             -12.2260
        18        2.0000           -0.4459654             -12.1353
        19        2.0000           -0.4397418             -11.9660
        20        2.0000           -0.4247290             -11.5575
        21        2.0000           -0.4205970             -11.4450 (HOMO)
        22                         -0.2400520              -6.5321 (LUMO)
        23                          0.0587373               1.5983
        24                          0.0903135               2.4576
        25                          0.1107678               3.0141
        26                          0.1248294               3.3968
       ...                                ...                  ...
        38                          0.6094983              16.5853
      -------------------------------------------------------------
                  HL-Gap            0.1805450 Eh            4.9129 eV
             Fermi-level           -0.3303245 Eh           -8.9886 eV

 SCC (total)                   0 d,  0 h,  0 min,  0.007 sec
 SCC setup                      ...        0 min,  0.001 sec ( 13.397%)
 Dispersion                     ...        0 min,  0.000 sec (  0.717%)
 classical contributions        ...        0 min,  0.000 sec (  0.216%)
 integral evaluation            ...        0 min,  0.001 sec ( 16.213%)
 iterations                     ...        0 min,  0.001 sec ( 17.489%)
 molecular gradient             ...        0 min,  0.004 sec ( 49.809%)
 printout                       ...        0 min,  0.000 sec (  1.951%)

         :::::::::::::::::::::::::::::::::::::::::::::::::::::
         ::                     SUMMARY                     ::
         :::::::::::::::::::::::::::::::::::::::::::::::::::::
         :: total energy             -23.964208899878 Eh    ::
         :: total w/o Gsasa/hb       -23.958234600271 Eh    ::
         :: gradient norm              0.000127499875 Eh/a0 ::
         :: HOMO-LUMO gap              4.912879952705 eV    ::
         ::.................................................::
         :: SCC energy               -24.237335601778 Eh    ::
         :: -> isotropic ES            0.066272147992 Eh    ::
         :: -> anisotropic ES          0.002005123337 Eh    ::
         :: -> anisotropic XC          0.005871407708 Eh    ::
         :: -> dispersion             -0.009179492981 Eh    ::
         :: -> Gsolv                  -0.016176798860 Eh    ::
         ::    -> Gelec               -0.010202499252 Eh    ::
         ::    -> Gsasa                0.002573783094 Eh    ::
         ::    -> Ghb                 -0.009628842400 Eh    ::
         ::    -> Gshift               0.001080759698 Eh    ::
         :: repulsion energy           0.273126701900 Eh    ::
         :: add. restraining           0.000000000000 Eh    ::
         :: total charge              -0.000000000000 e     ::
         :::::::::::::::::::::::::::::::::::::::::::::::::::::

           ------------------------------------------------- 
          |                Numerical Hessian                |
           ------------------------------------------------- 
step length          :   0.00500
SCC accuracy         :   0.30000
Hessian scale factor :   1.00000
frozen atoms in %    :   0.00000    0
RMS gradient         :   0.00013
estimated CPU  time      0.01 min
estimated wall time      0.01 min

writing file <hessian>.

 projected vibrational frequencies (cm⁻¹)
eigval :       -0.00    -0.00    -0.00     0.00     0.00     0.00
eigval :       20.56    78.49   107.35   125.46   232.44   276.50
eigval :      381.64   406.45   571.84   604.21   710.74   778.15
eigval :      833.13   916.32   941.90   944.89  1051.76  1057.87
eigval :     1097.69  1119.09  1127.03  1202.46  1236.94  1249.43
eigval :     1263.35  1278.27  1313.31  1359.92  1411.77  1440.20
eigval :     1484.86  1491.31  1497.84  1501.16  1708.25  2965.86
eigval :     2976.19  2984.24  2988.01  3005.19  3013.23  3029.43
eigval :     3033.78  3043.21  3339.76
           -------------------------------------------------
          |                Property Printout                |
           -------------------------------------------------

    * Orbital Energies and Occupations

         #    Occupation            Energy/Eh            Energy/eV
      -------------------------------------------------------------
         1        2.0000           -0.7466121             -20.3163
       ...           ...                  ...                  ...
         9        2.0000           -0.5557688             -15.1232
        10        2.0000           -0.5528960             -15.0451
        11        2.0000           -0.5202219             -14.1560
        12        2.0000           -0.5006343             -13.6230
        13        2.0000           -0.4952737             -13.4771
        14        2.0000           -0.4846779             -13.1888
        15        2.0000           -0.4797909             -13.0558
        16        2.0000           -0.4716031             -12.8330
        17        2.0000           -0.4492986             -12.2260
        18        2.0000           -0.4459654             -12.1353
        19        2.0000           -0.4397418             -11.9660
        20        2.0000           -0.4247290             -11.5575
        21        2.0000           -0.4205970             -11.4450 (HOMO)
        22                         -0.2400519              -6.5321 (LUMO)
        23                          0.0587373               1.5983
        24                          0.0903135               2.4576
        25                          0.1107678               3.0141
        26                          0.1248295               3.3968
        27                          0.1470017               4.0001
        28                          0.1566349               4.2623
        29                          0.1792900               4.8787
        30                          0.1871901               5.0937
        31                          0.1958986               5.3307
        32                          0.2048838               5.5752
       ...                                ...                  ...
        38                          0.6094983              16.5853
      -------------------------------------------------------------
                  HL-Gap            0.1805451 Eh            4.9129 eV
             Fermi-level           -0.3303245 Eh           -8.9886 eV

     #   Z          covCN         q      C6AA      α(0)
     1   6 C        3.753    -0.115    22.760     6.803
     2   6 C        3.801    -0.061    21.666     6.627
     3   6 C        3.806    -0.055    21.555     6.609
     4   6 C        3.804    -0.099    22.379     6.735
     5   6 C        2.692     0.372    20.695     7.445
     6   8 O        0.856    -0.495    23.684     6.525
     7   8 O        1.659    -0.413    21.099     6.201
     8   1 H        0.925     0.039     2.465     2.455
     9   1 H        0.925     0.044     2.393     2.419
    10   1 H        0.925     0.041     2.435     2.440
    11   1 H        0.924     0.040     2.453     2.449
    12   1 H        0.924     0.043     2.412     2.429
    13   1 H        0.924     0.040     2.445     2.445
    14   1 H        0.924     0.049     2.327     2.386
    15   1 H        0.925     0.071     2.070     2.250
    16   1 H        0.925     0.082     1.957     2.188
    17   1 H        0.803     0.416     0.457     1.062

 Mol. C6AA /au·bohr⁶  :       2216.547846
 Mol. C8AA /au·bohr⁸  :      47346.896224
 Mol. α(0) /au        :         69.467944


Wiberg/Mayer (AO) data.
largest (>0.10) Wiberg bond orders for each atom

 ---------------------------------------------------------------------------
     #   Z sym  total        # sym  WBO       # sym  WBO       # sym  WBO
 ---------------------------------------------------------------------------
     1   6 C    3.994 --     2 C    1.018     8 H    0.988    10 H    0.987
                             9 H    0.986
     2   6 C    3.996 --     1 C    1.018     3 C    1.005    11 H    0.978
                            12 H    0.978
     3   6 C    3.991 --     2 C    1.005    13 H    0.978    14 H    0.977
                             4 C    0.973
     4   6 C    3.990 --     5 C    0.985     3 C    0.973    15 H    0.970
                            16 H    0.963
     5   6 C    3.903 --     6 O    1.698     7 O    1.182     4 C    0.985
     6   8 O    1.965 --     5 C    1.698     7 O    0.173
     7   8 O    2.188 --     5 C    1.182    17 H    0.802     6 O    0.173
     8   1 H    0.998 --     1 C    0.988
     9   1 H    0.997 --     1 C    0.986
    10   1 H    0.998 --     1 C    0.987
    11   1 H    0.998 --     2 C    0.978
    12   1 H    0.998 --     2 C    0.978
    13   1 H    0.998 --     3 C    0.978
    14   1 H    0.998 --     3 C    0.977
    15   1 H    0.995 --     4 C    0.970
    16   1 H    0.993 --     4 C    0.963
    17   1 H    0.827 --     7 O    0.802
 ---------------------------------------------------------------------------

Topologies differ in total number of bonds
Writing topology from bond orders to xtbtopo.mol

molecular dipole:
                 x           y           z       tot (Debye)
 q only:       -0.494       1.022      -0.109
   full:       -0.378       1.014      -0.161       2.781
molecular quadrupole (traceless):
                xx          xy          yy          xz          yz          zz
 q only:        2.498       7.139      -5.055      -3.658      -0.902       2.558
  q+dip:        2.032       7.879      -5.277      -4.489      -0.794       3.244
   full:        2.594       7.969      -6.099      -3.868      -0.672       3.505

           -------------------------------------------------
          |                Geometry Summary                 |
           -------------------------------------------------

      molecular mass/u    :      102.1318968
   center of mass at/Å    :        0.0108604      -0.0016414       0.0335308
  moments of inertia/u·Å² :        0.7487430E+02   0.4663367E+03   0.4868319E+03
rotational constants/cm⁻¹ :        0.2251458E+00   0.3614906E-01   0.3462721E-01

 * 15 selected distances

     #   Z          #   Z                                           value/Å
     1   6 C        2   6 C                                       1.5241227
     2   6 C        3   6 C                                       1.5267176
     3   6 C        4   6 C                                       1.5361624 (max)
     5   6 C        6   8 O                                       1.2134005
     5   6 C        7   8 O                                       1.3231035
     1   6 C        8   1 H                                       1.0875319
     1   6 C        9   1 H                                       1.0867996
     1   6 C       10   1 H                                       1.0874096
     2   6 C       11   1 H                                       1.0915543
     2   6 C       12   1 H                                       1.0914335
     3   6 C       13   1 H                                       1.0924175
     3   6 C       14   1 H                                       1.0918127
     4   6 C       15   1 H                                       1.0894503
     4   6 C       16   1 H                                       1.0894702
     7   8 O       17   1 H                                       0.9768686 (min)

 * 4 distinct bonds (by element types)

   Z      Z             #   av. dist./Å        max./Å        min./Å
   1 H    6 C           9     1.0897644     1.0924175     1.0867996
   6 C    6 C           3     1.5290009     1.5361624     1.5241227
   1 H    8 O           1     0.9768686     0.9768686     0.9768686
   6 C    8 O           2     1.2682520     1.3231035     1.2134005

           -------------------------------------------------
          |               Frequency Printout                |
           -------------------------------------------------
 projected vibrational frequencies (cm⁻¹)
eigval :       -0.00    -0.00    -0.00     0.00     0.00     0.00
eigval :       20.56    78.49   107.35   125.46   232.44   276.50
eigval :      381.64   406.45   571.84   604.21   710.74   778.15
eigval :      833.13   916.32   941.90   944.89  1051.76  1057.87
eigval :     1097.69  1119.09  1127.03  1202.46  1236.94  1249.43
eigval :     1263.35  1278.27  1313.31  1359.92  1411.77  1440.20
eigval :     1484.86  1491.31  1497.84  1501.16  1708.25  2965.86
eigval :     2976.19  2984.24  2988.01  3005.19  3013.23  3029.43
eigval :     3033.78  3043.21  3339.76
 reduced masses (amu)
   1: 12.54   2: 10.35   3: 12.07   4: 10.41   5: 14.02   6: 12.07   7: 12.68   8:  7.47
   9:  7.69  10: 10.70  11:  2.10  12: 10.40  13:  9.48  14: 10.28  15: 10.27  16:  4.70
  17: 10.96  18:  1.83  19:  2.94  20: 10.27  21:  6.05  22:  3.30  23:  5.68  24:  9.65
  25:  8.60  26:  6.84  27:  6.40  28:  5.54  29:  5.09  30:  6.48  31:  5.43  32:  1.83
  33:  4.24  34:  5.03  35:  3.18  36:  2.24  37:  1.97  38:  1.83  39:  1.53  40:  1.60
  41: 13.25  42:  1.92  43:  1.97  44:  1.51  45:  1.50  46:  1.59  47:  1.91  48:  1.95
  49:  1.86  50:  1.34  51:  1.85
 IR intensities (km·mol⁻¹)
   1:  0.80   2:  1.16   3:  0.05   4:  0.49   5:  0.30   6:  1.56   7:  3.64   8:  0.86
   9:  0.09  10:  0.05  11:  0.03  12:  0.53  13:  1.46  14:  5.27  15: 95.58  16:172.85
  17:113.39  18: 12.18  19:  2.97  20:  6.55  21:  4.08  22:  5.16  23:191.63  24:  8.23
  25:  7.19  26: 54.18  27: 90.96  28: 10.69  29: 63.93  30:146.54  31:126.50  32:  0.96
  33: 32.21  34:  0.89  35:  0.60  36:  8.28  37:  0.60  38:  0.76  39:  1.69  40:  0.73
  41:761.48  42:  3.05  43:109.25  44: 12.87  45: 76.95  46: 29.58  47: 44.95  48: 87.31
  49: 78.29  50: 43.33  51:184.18
 Raman intensities (Ä⁴*amu⁻¹)
   1:  0.00   2:  0.00   3:  0.00   4:  0.00   5:  0.00   6:  0.00   7:  0.00   8:  0.00
   9:  0.00  10:  0.00  11:  0.00  12:  0.00  13:  0.00  14:  0.00  15:  0.00  16:  0.00
  17:  0.00  18:  0.00  19:  0.00  20:  0.00  21:  0.00  22:  0.00  23:  0.00  24:  0.00
  25:  0.00  26:  0.00  27:  0.00  28:  0.00  29:  0.00  30:  0.00  31:  0.00  32:  0.00
  33:  0.00  34:  0.00  35:  0.00  36:  0.00  37:  0.00  38:  0.00  39:  0.00  40:  0.00
  41:  0.00  42:  0.00  43:  0.00  44:  0.00  45:  0.00  46:  0.00  47:  0.00  48:  0.00
  49:  0.00  50:  0.00  51:  0.00
 output can be read by thermo (or use thermo option).
 writing <g98.out> molden fake output.
 recommended (thermochemical) frequency scaling factor: 1.0
           -------------------------------------------------
          |             Thermodynamic Functions             |
           -------------------------------------------------

Molecule has no symmetry elements
It seems to be the C1 point group
c1  symmetry found (for desy threshold:  0.10E+00) used in thermo

          ...................................................
          :                      SETUP                      :
          :.................................................:
          :  # frequencies                          45      :
          :  # imaginary freq.                       0      :
          :  linear?                             false      :
          :  only rotor calc.                    false      :
          :  symmetry                               c1      :
          :  rotational number                       1      :
          :  scaling factor                  1.0000000      :
          :  rotor cutoff                    0.0000000 cm⁻¹ :
          :  imag. cutoff                 -100.0000000 cm⁻¹ :
          :.................................................:

    mode    ω/cm⁻¹     T·S(HO)/kcal·mol⁻¹    T·S(FR)/kcal·mol⁻¹   T·S(vib)
   ------------------------------------------------------------------------
       1     20.56    -1.96170 (100.00%)    -1.31914 (  0.00%)    -1.96170
       2     78.49    -1.17118 (100.00%)    -0.92276 (  0.00%)    -1.17118
       3    107.35    -0.98875 (100.00%)    -0.83006 (  0.00%)    -0.98875
       4    125.46    -0.89878 (100.00%)    -0.78391 (  0.00%)    -0.89878
       5    232.44    -0.55456 (100.00%)    -0.60128 (  0.00%)    -0.55456
       6    276.50    -0.46369 (100.00%)    -0.54987 (  0.00%)    -0.46369
   ------------------------------------------------------------------------

   temp. (K)  partition function   enthalpy   heat capacity  entropy
                                   cal/mol     cal/K/mol   cal/K/mol   J/K/mol
 298.15  VIB   671.                 3557.658     23.000     24.867
         ROT  0.315E+06              888.752      2.981     28.140
         INT  0.211E+09             4446.411     25.981     53.007
         TR   0.999E+27             1481.254      4.968     39.763
         TOT                        5927.6647    30.9495    92.7703   388.1509

       T/K    H(0)-H(T)+PV         H(T)/Eh          T*S/Eh         G(T)/Eh
   ------------------------------------------------------------------------
    298.15    0.944634E-02    0.153430E+00    0.440782E-01    0.109352E+00
   ------------------------------------------------------------------------

         :::::::::::::::::::::::::::::::::::::::::::::::::::::
         ::                  THERMODYNAMIC                  ::
         :::::::::::::::::::::::::::::::::::::::::::::::::::::
         :: total free energy         -23.854857241362 Eh   ::
         ::.................................................::
         :: total energy              -23.964208899837 Eh   ::
         :: zero point energy           0.143983484026 Eh   ::
         :: G(RRHO) w/o ZPVE           -0.034631825551 Eh   ::
         :: G(RRHO) contrib.            0.109351658475 Eh   ::
         :::::::::::::::::::::::::::::::::::::::::::::::::::::

optimized geometry written to: xtbopt.coord


           -------------------------------------------------
          | TOTAL ENERGY              -23.964208899837 Eh   |
          | TOTAL ENTHALPY            -23.810779080794 Eh   |
          | TOTAL FREE ENERGY         -23.854857241362 Eh   |
          | GRADIENT NORM               0.000127521793 Eh/α |
          | HOMO-LUMO GAP               4.912880899984 eV   |
           -------------------------------------------------

------------------------------------------------------------------------
 * finished run on 2025/04/11 at 16:25:39.643     
------------------------------------------------------------------------
 total:
 * wall-time:     0 d,  0 h,  0 min,  1.274 sec
 *  cpu-time:     0 d,  0 h,  0 min,  1.174 sec
 * ratio c/w:     0.922 speedup
 SCF:
 * wall-time:     0 d,  0 h,  0 min,  0.028 sec
 *  cpu-time:     0 d,  0 h,  0 min,  0.012 sec
 * ratio c/w:     0.435 speedup
 ANC optimizer:
 * wall-time:     0 d,  0 h,  0 min,  0.365 sec
 *  cpu-time:     0 d,  0 h,  0 min,  0.347 sec
 * ratio c/w:     0.951 speedup
 analytical hessian:
 * wall-time:     0 d,  0 h,  0 min,  0.815 sec
 *  cpu-time:     0 d,  0 h,  0 min,  0.803 sec
 * ratio c/w:     0.985 speedup

