! pbe def2-sv(p) def2/J RI DEFGRID1 loosescf d4 GCP(DFT/SV(P)) printgap
%output
    printlevel normal
end
* xyz 0 1
C -4.5167348169 -1.1095836516 -0.4480442609
C -3.7828062676 -2.2725643901 -0.259605827
C -2.4225331674 -2.202206633 -0.0228540735
C -1.770573862 -0.9717922843 0.0262392643
C -2.5118902837 0.1993419973 -0.1657395614
C -3.8835023516 0.1177942876 -0.3999123976
C -1.8610922649 1.514482001 -0.1237190409
O -2.5029231253 2.5537964672 -0.2654646225
C -0.4031657187 1.5285010352 0.0884207391
C 0.2182957363 2.7651853943 0.0693472207
C 1.5950470153 2.8637965461 0.2511406865
C 2.3450981463 1.7367690545 0.4536220163
C 1.7538412567 0.4498403222 0.4916563844
C 0.3411860119 0.3434640004 0.2979343371
C -0.3179883729 -0.9449186343 0.2908752419
O 0.2738556747 -2.0202055258 0.4908966539
N 2.4902760845 -0.6422212709 0.7368494659
C 3.9283140673 -0.7077822217 0.7880182089
C 4.5711981325 -0.6620556552 -0.6114214046
O 4.2149751043 -1.7605279429 -1.4172314961
H -5.5783516694 -1.1614139701 -0.6314775831
H -4.2721813398 -3.2331684632 -0.2965293173
H -1.834676925 -3.0953451818 0.1287941859
H -4.4290297372 1.0389716391 -0.5423187944
H -0.3898802378 3.6418236114 -0.0923552068
H 2.0687164962 3.8326653 0.2297467208
H 3.4090965003 1.8299014463 0.5899966952
H 1.9823211306 -1.5214095097 0.6615137882
H 4.1896465233 -1.6482925893 1.2757746391
H 4.327392654 0.111961964 1.388224146
H 5.6609214369 -0.597622458 -0.5022680792
H 4.2182877165 0.2176018323 -1.1544310082
H 4.5654776012 -2.5734556108 -1.0271168491
*
