 Entering Gaussian System
 *********************************************
 Gaussian 98:
 frequency output generated by the xtb code
 *********************************************
                         Standard orientation:
 --------------------------------------------------------------------
  Center     Atomic     Atomic              Coordinates (Angstroms)
  Number     Number      Type              X           Y           Z
 --------------------------------------------------------------------
    1          6             0       -3.821812   -0.453358    0.148010
    2          8             0       -2.765326    0.489816    0.209136
    3          6             0       -1.483036    0.034688    0.129263
    4          6             0       -1.108126   -1.281030   -0.008838
    5          6             0        0.248110   -1.626133   -0.080363
    6          6             0        1.202426   -0.612662   -0.008560
    7          6             0        0.849294    0.735715    0.132316
    8          6             0       -0.512605    1.060897    0.201601
    9          8             0       -0.930439    2.337120    0.336403
   10          8             0        1.894044    1.597200    0.186627
   11          6             0        1.691820    2.996190    0.335345
   12         17             0        2.892006   -0.961880   -0.089619
   13          6             0        0.603948   -3.028427   -0.226327
   14          8             0       -0.196022   -3.942372   -0.292126
   15          1             0       -3.760779   -1.162543    0.975666
   16          1             0       -3.811073   -0.991059   -0.801960
   17          1             0       -4.732374    0.134828    0.230493
   18          1             0       -1.822475   -2.085450   -0.066926
   19          1             0       -1.904828    2.353450    0.365368
   20          1             0        1.181668    3.224672    1.271030
   21          1             0        1.128959    3.405960   -0.503198
   22          1             0        2.696174    3.414048    0.348224
   23          1             0        1.684847   -3.232155   -0.276688
 --------------------------------------------------------------------
     1 basis functions        1 primitive gaussians
     1 alpha electrons        1 beta electrons
 
 Harmonic frequencies (cm**-1), IR intensities (km*mol⁻¹),
 Raman scattering activities (A**4/amu), Raman depolarization ratios,
 reduced masses (AMU), force constants (mDyne/A) and normal coordinates:
                      1                      2                      3
                        a                      a                      a 
 Frequencies --    32.7145                57.4926                95.2514
 Red. masses --    11.0792                17.6293                12.7937
 Frc consts  --     0.0000                 0.0000                 0.0000
 IR Inten    --     4.0740                 4.1514                 0.9969
 Raman Activ --     0.0000                 0.0000                 0.0000
 Depolar     --     0.0000                 0.0000                 0.0000
 Atom AN      X      Y      Z        X      Y      Z        X      Y      Z
   1   6     0.00  -0.01   0.08    -0.01   0.05  -0.50     0.01  -0.03   0.36
   2   8    -0.00   0.00  -0.04    -0.00   0.00  -0.05    -0.01   0.04  -0.37
   3   6    -0.00   0.00  -0.03     0.00  -0.00   0.04    -0.01   0.03  -0.27
   4   6     0.00  -0.00   0.05     0.00  -0.00   0.04    -0.01   0.03  -0.29
   5   6     0.00  -0.00   0.01     0.00  -0.00   0.04    -0.01   0.02  -0.19
   6   6    -0.00   0.01  -0.06    -0.00   0.00  -0.04    -0.00   0.01  -0.11
   7   6    -0.00   0.01  -0.11     0.00  -0.01   0.07     0.00  -0.00   0.05
   8   6    -0.00   0.01  -0.15     0.00  -0.01   0.15    -0.00   0.01  -0.06
   9   8    -0.01   0.04  -0.36     0.01  -0.03   0.35     0.00  -0.01   0.12
  10   8    -0.01   0.02  -0.21     0.00  -0.01   0.09     0.01  -0.04   0.45
  11   6     0.02  -0.07   0.65     0.00  -0.00   0.04    -0.00   0.00   0.01
  12  17    -0.01   0.02  -0.20    -0.01   0.05  -0.49    -0.00   0.01  -0.13
  13   6     0.00  -0.01   0.08     0.00  -0.02   0.17    -0.00   0.00  -0.01
  14   8     0.01  -0.02   0.23     0.01  -0.04   0.43     0.01  -0.04   0.37
  15   1     0.01   0.02   0.04    -0.09  -0.02  -0.17     0.12   0.05   0.15
  16   1    -0.01  -0.03   0.04     0.08   0.05  -0.17    -0.11  -0.08   0.14
  17   1     0.00  -0.00   0.02    -0.01   0.02  -0.20     0.01  -0.02   0.18
  18   1     0.00  -0.00   0.04     0.00  -0.00   0.02    -0.00   0.01  -0.10
  19   1    -0.00   0.01  -0.07     0.00  -0.01   0.08     0.00  -0.00   0.01
  20   1     0.02  -0.18   0.24     0.01   0.01   0.01    -0.06   0.07  -0.05
  21   1    -0.01   0.13   0.27    -0.01  -0.01   0.01     0.06  -0.06  -0.06
  22   1     0.01  -0.02   0.24    -0.00   0.00  -0.00     0.00  -0.00   0.04
  23   1     0.00  -0.00   0.01     0.00  -0.00   0.03    -0.00   0.00  -0.04
                      4                      5                      6
                        a                      a                      a 
 Frequencies --   111.8835               137.8457               154.1475
 Red. masses --    16.3678                11.7078                13.3420
 Frc consts  --     0.0000                 0.0000                 0.0000
 IR Inten    --     0.1648                22.4030                11.4467
 Raman Activ --     0.0000                 0.0000                 0.0000
 Depolar     --     0.0000                 0.0000                 0.0000
 Atom AN      X      Y      Z        X      Y      Z        X      Y      Z
   1   6    -0.00   0.00  -0.01    -0.00   0.01  -0.12     0.22  -0.44  -0.05
   2   8     0.00  -0.01   0.09     0.01  -0.04   0.42    -0.01  -0.19  -0.02
   3   6    -0.00   0.01  -0.09     0.00  -0.01   0.12     0.05   0.02   0.00
   4   6    -0.01   0.03  -0.30     0.00  -0.00   0.03     0.10   0.05   0.00
   5   6    -0.01   0.02  -0.23    -0.01   0.02  -0.20     0.08   0.06   0.00
   6   6    -0.00   0.02  -0.17    -0.00   0.01  -0.12     0.09   0.05   0.00
   7   6    -0.01   0.02  -0.21     0.00  -0.00   0.00     0.05   0.05   0.00
   8   6    -0.00  -0.00   0.01    -0.00   0.01  -0.06     0.03   0.03   0.00
   9   8     0.01  -0.04   0.43    -0.01   0.03  -0.31     0.01   0.04   0.01
  10   8    -0.01   0.05  -0.48     0.01  -0.02   0.26     0.03   0.10   0.01
  11   6     0.00  -0.01   0.04    -0.00   0.00  -0.03    -0.02   0.08   0.01
  12  17     0.01  -0.04   0.39     0.00  -0.01   0.12     0.14  -0.02  -0.01
  13   6    -0.00   0.01  -0.09    -0.01   0.04  -0.44    -0.22  -0.01   0.01
  14   8     0.01  -0.03   0.27     0.01  -0.03   0.35    -0.62   0.30   0.04
  15   1     0.03  -0.05  -0.05    -0.04  -0.08  -0.11     0.11  -0.12  -0.02
  16   1    -0.03   0.06  -0.04     0.04   0.10  -0.09     0.11  -0.12  -0.02
  17   1     0.00  -0.01   0.07    -0.00   0.00  -0.01     0.02  -0.19  -0.02
  18   1    -0.00   0.01  -0.11     0.00  -0.00   0.02     0.04   0.00  -0.00
  19   1     0.00  -0.02   0.15    -0.00   0.01  -0.08     0.00   0.01   0.00
  20   1     0.10  -0.08   0.08    -0.08   0.05  -0.06    -0.01   0.02   0.00
  21   1    -0.09   0.06   0.10     0.07  -0.03  -0.07    -0.01   0.02   0.00
  22   1    -0.00   0.01  -0.06     0.00  -0.01   0.06    -0.01   0.03   0.00
  23   1    -0.00   0.01  -0.07    -0.01   0.04  -0.39    -0.08  -0.10  -0.00
                      7                      8                      9
                        a                      a                      a 
 Frequencies --   180.0029               184.4387               199.9339
 Red. masses --     7.7883                16.1305                23.2375
 Frc consts  --     0.0000                 0.0000                 0.0000
 IR Inten    --     0.0045                 1.8906                 0.5411
 Raman Activ --     0.0000                 0.0000                 0.0000
 Depolar     --     0.0000                 0.0000                 0.0000
 Atom AN      X      Y      Z        X      Y      Z        X      Y      Z
   1   6     0.00  -0.00   0.04     0.02  -0.26  -0.03    -0.14   0.29   0.03
   2   8    -0.01   0.04  -0.42    -0.15  -0.10  -0.01     0.09   0.04   0.00
   3   6     0.00  -0.01   0.08    -0.08   0.05   0.01     0.02  -0.12  -0.01
   4   6     0.01  -0.03   0.31    -0.08   0.03   0.01     0.04  -0.11  -0.01
   5   6     0.01  -0.01   0.14    -0.09  -0.02   0.00     0.06  -0.12  -0.01
   6   6     0.00  -0.01   0.05    -0.13  -0.00   0.01     0.06  -0.11  -0.01
   7   6     0.00  -0.01   0.06    -0.10  -0.01   0.01     0.00  -0.13  -0.01
   8   6     0.00  -0.01   0.10    -0.08   0.07   0.01     0.02  -0.13  -0.01
   9   8     0.00  -0.01   0.12     0.06   0.13   0.01     0.00  -0.17  -0.02
  10   8    -0.01   0.02  -0.15     0.10  -0.26  -0.03    -0.02  -0.13  -0.01
  11   6    -0.00   0.00  -0.01     0.55  -0.18  -0.03    -0.09  -0.13  -0.01
  12  17     0.00  -0.01   0.05    -0.17   0.45   0.05     0.31   0.62   0.05
  13   6    -0.01   0.04  -0.40    -0.02   0.00  -0.00    -0.13  -0.17  -0.01
  14   8    -0.00  -0.01   0.10     0.08  -0.08  -0.01    -0.35  -0.03   0.01
  15   1    -0.10   0.22   0.21     0.04  -0.07  -0.01    -0.08   0.08   0.01
  16   1     0.11  -0.25   0.16     0.04  -0.07  -0.01    -0.08   0.08   0.01
  17   1    -0.01   0.03  -0.25    -0.02  -0.12  -0.01     0.00   0.15   0.01
  18   1     0.00  -0.01   0.11    -0.03   0.01   0.00     0.01  -0.03  -0.00
  19   1     0.00  -0.00   0.03     0.02   0.07   0.00    -0.00  -0.05  -0.00
  20   1     0.08  -0.02   0.05     0.19   0.00  -0.00    -0.03  -0.05  -0.00
  21   1    -0.08   0.01   0.06     0.18  -0.00  -0.00    -0.03  -0.05  -0.00
  22   1    -0.00   0.01  -0.09     0.20  -0.15  -0.02    -0.03  -0.02   0.00
  23   1    -0.01   0.04  -0.41     0.00   0.03  -0.00    -0.04  -0.09  -0.01
                     10                     11                     12
                        a                      a                      a 
 Frequencies --   221.3576               234.0614               284.4492
 Red. masses --     2.6162                 4.6397                13.0520
 Frc consts  --     0.0000                 0.0000                 0.0000
 IR Inten    --     0.0041                 0.1302                 0.3741
 Raman Activ --     0.0000                 0.0000                 0.0000
 Depolar     --     0.0000                 0.0000                 0.0000
 Atom AN      X      Y      Z        X      Y      Z        X      Y      Z
   1   6    -0.00   0.01  -0.02     0.00  -0.00   0.02    -0.38   0.11   0.02
   2   8    -0.00   0.01  -0.10     0.01  -0.03   0.27    -0.13  -0.19  -0.01
   3   6     0.00  -0.00  -0.01    -0.00   0.00  -0.03    -0.09  -0.16  -0.01
   4   6     0.00  -0.00  -0.00    -0.00   0.01  -0.15     0.06  -0.10  -0.01
   5   6     0.00  -0.01   0.07    -0.01   0.02  -0.21     0.12   0.11   0.01
   6   6     0.01  -0.01   0.16    -0.00   0.02  -0.17     0.11   0.11   0.01
   7   6     0.01  -0.02   0.17    -0.00   0.01  -0.07    -0.02   0.09   0.01
   8   6     0.00  -0.01   0.05    -0.00   0.01  -0.11    -0.10  -0.11  -0.01
   9   8    -0.01   0.01  -0.16    -0.01   0.01  -0.09    -0.28  -0.19  -0.01
  10   8     0.00  -0.01   0.09     0.01  -0.02   0.24     0.01   0.09   0.01
  11   6    -0.00   0.00  -0.01     0.00  -0.00   0.01     0.40   0.13   0.00
  12  17     0.00   0.01  -0.07     0.00  -0.00   0.04     0.19  -0.21  -0.03
  13   6    -0.00   0.01  -0.08     0.00  -0.01   0.14     0.09   0.13   0.01
  14   8    -0.00  -0.00   0.04    -0.00   0.00  -0.02    -0.07   0.30   0.03
  15   1     0.16  -0.16  -0.15    -0.24   0.21   0.20    -0.16   0.03   0.01
  16   1    -0.17   0.19  -0.11     0.25  -0.24   0.15    -0.16   0.03   0.01
  17   1     0.01  -0.03   0.28    -0.01   0.04  -0.40    -0.06   0.11   0.01
  18   1    -0.00   0.00  -0.05     0.00  -0.00   0.00     0.05  -0.06  -0.01
  19   1    -0.00  -0.00  -0.00     0.00  -0.01   0.04    -0.07  -0.08  -0.01
  20   1     0.40   0.03   0.21     0.25   0.04   0.13     0.14   0.08   0.00
  21   1    -0.39  -0.07   0.23    -0.24  -0.07   0.13     0.14   0.08   0.00
  22   1    -0.01   0.05  -0.47    -0.01   0.03  -0.30     0.15  -0.05  -0.01
  23   1    -0.00   0.01  -0.09     0.01  -0.02   0.19     0.02  -0.00  -0.00
                     13                     14                     15
                        a                      a                      a 
 Frequencies --   304.7127               312.3293               350.5067
 Red. masses --    10.9700                16.6038                15.8194
 Frc consts  --     0.0000                 0.0000                 0.0000
 IR Inten    --     0.5784                 9.4189                10.0858
 Raman Activ --     0.0000                 0.0000                 0.0000
 Depolar     --     0.0000                 0.0000                 0.0000
 Atom AN      X      Y      Z        X      Y      Z        X      Y      Z
   1   6     0.01   0.01  -0.03     0.30   0.11   0.00     0.01  -0.04  -0.00
   2   8     0.01   0.01  -0.08     0.35   0.07  -0.00    -0.13   0.12   0.02
   3   6     0.00   0.01  -0.09     0.22  -0.08  -0.01    -0.08   0.16   0.02
   4   6     0.01  -0.05   0.47     0.05  -0.10  -0.02    -0.02   0.18   0.02
   5   6     0.00  -0.01   0.09     0.04  -0.05  -0.01    -0.02   0.14   0.01
   6   6    -0.02   0.05  -0.45    -0.10   0.06   0.02     0.08  -0.02  -0.00
   7   6    -0.01   0.04  -0.39     0.04   0.12   0.02    -0.04  -0.07  -0.00
   8   6    -0.01   0.03  -0.33     0.05   0.06   0.01    -0.05   0.13   0.02
   9   8    -0.02  -0.02   0.19    -0.59  -0.14  -0.00    -0.38   0.09   0.02
  10   8     0.01  -0.03   0.26     0.19  -0.01  -0.01     0.14  -0.38  -0.04
  11   6     0.00  -0.01   0.04     0.11  -0.03  -0.01    -0.15  -0.43  -0.04
  12  17    -0.01  -0.01   0.11    -0.38   0.05   0.01     0.36  -0.09  -0.02
  13   6     0.00  -0.01   0.06     0.03  -0.06  -0.01     0.04   0.19   0.02
  14   8    -0.00   0.01  -0.09    -0.08   0.02   0.01     0.09   0.20   0.02
  15   1     0.07  -0.07  -0.08     0.08   0.03   0.00     0.03  -0.01  -0.00
  16   1    -0.07   0.09  -0.06     0.09   0.03   0.00     0.03  -0.01  -0.00
  17   1     0.01  -0.01   0.12     0.09   0.03  -0.00    -0.02  -0.05  -0.00
  18   1     0.01  -0.03   0.29     0.00  -0.02  -0.01     0.00   0.04   0.00
  19   1    -0.00  -0.02   0.15    -0.15  -0.18  -0.02    -0.10  -0.06  -0.00
  20   1     0.04   0.03   0.03     0.02  -0.02  -0.01    -0.07  -0.17  -0.02
  21   1    -0.04  -0.04   0.02     0.02  -0.02  -0.00    -0.07  -0.17  -0.01
  22   1    -0.00   0.01  -0.05     0.02   0.02   0.01    -0.08  -0.04  -0.00
  23   1     0.00  -0.00   0.00     0.00  -0.04  -0.01     0.01   0.07   0.01
                     16                     17                     18
                        a                      a                      a 
 Frequencies --   389.6600               398.7987               422.9907
 Red. masses --    17.6972                11.6589                13.0627
 Frc consts  --     0.0000                 0.0000                 0.0000
 IR Inten    --     0.5217                 2.4482                 5.7708
 Raman Activ --     0.0000                 0.0000                 0.0000
 Depolar     --     0.0000                 0.0000                 0.0000
 Atom AN      X      Y      Z        X      Y      Z        X      Y      Z
   1   6     0.03  -0.00  -0.00     0.00   0.00  -0.01    -0.32   0.00   0.01
   2   8    -0.05   0.09   0.01    -0.01   0.03  -0.27     0.04  -0.38  -0.04
   3   6    -0.01   0.14   0.01     0.01  -0.04   0.45     0.17   0.05  -0.00
   4   6     0.04   0.12   0.01     0.00  -0.01   0.13     0.30   0.07  -0.00
   5   6    -0.00  -0.13  -0.01    -0.01   0.04  -0.42     0.23  -0.11  -0.02
   6   6     0.03  -0.04  -0.00    -0.01   0.04  -0.43     0.01   0.06   0.01
   7   6    -0.08   0.04   0.01     0.00  -0.01   0.09    -0.02   0.08   0.01
   8   6    -0.09   0.19   0.02     0.01  -0.04   0.45     0.00   0.29   0.03
   9   8    -0.34   0.20   0.03    -0.01   0.01  -0.15     0.01   0.40   0.04
  10   8    -0.14   0.15   0.02    -0.00   0.00  -0.03     0.15  -0.08  -0.01
  11   6     0.15   0.20   0.02    -0.00   0.00  -0.01    -0.11  -0.13  -0.01
  12  17     0.41  -0.11  -0.02     0.00  -0.01   0.10    -0.22  -0.02   0.00
  13   6    -0.18  -0.29  -0.02     0.00  -0.01   0.07     0.11  -0.19  -0.02
  14   8    -0.02  -0.52  -0.05    -0.00  -0.00  -0.00    -0.08  -0.04  -0.00
  15   1     0.02   0.00  -0.00     0.06  -0.00  -0.01    -0.18  -0.00   0.01
  16   1     0.02   0.00  -0.00    -0.06   0.01  -0.01    -0.18  -0.00   0.00
  17   1    -0.01  -0.02  -0.00     0.00  -0.01   0.06    -0.01   0.13   0.01
  18   1    -0.02   0.06   0.01     0.00  -0.00   0.03     0.05   0.05   0.00
  19   1    -0.09  -0.01   0.00    -0.01   0.02  -0.17     0.00   0.10   0.00
  20   1     0.06   0.09   0.01     0.01  -0.00  -0.00    -0.05  -0.07  -0.00
  21   1     0.06   0.09   0.01    -0.01   0.00   0.00    -0.05  -0.07  -0.01
  22   1     0.07  -0.01  -0.00    -0.00   0.00  -0.01    -0.06   0.03   0.00
  23   1    -0.04  -0.06  -0.00     0.01  -0.02   0.22     0.02  -0.11  -0.01
                     19                     20                     21
                        a                      a                      a 
 Frequencies --   461.1637               471.8700               536.5907
 Red. masses --     2.5014                13.1694                10.9717
 Frc consts  --     0.0000                 0.0000                 0.0000
 IR Inten    --   222.7865                14.2097                 1.7536
 Raman Activ --     0.0000                 0.0000                 0.0000
 Depolar     --     0.0000                 0.0000                 0.0000
 Atom AN      X      Y      Z        X      Y      Z        X      Y      Z
   1   6    -0.01  -0.00  -0.01     0.23   0.12   0.01    -0.00  -0.00  -0.00
   2   8    -0.01   0.00  -0.08     0.18   0.10   0.00     0.00  -0.00   0.03
   3   6     0.00  -0.01   0.09     0.03  -0.07  -0.01    -0.01   0.02  -0.23
   4   6    -0.00   0.00  -0.02     0.17  -0.07  -0.01     0.01  -0.03   0.34
   5   6    -0.00   0.00  -0.04     0.18  -0.07  -0.01    -0.02   0.05  -0.57
   6   6     0.00  -0.00   0.01     0.01  -0.01  -0.00     0.01  -0.02   0.24
   7   6     0.01  -0.00   0.05    -0.35  -0.12   0.00     0.01  -0.04   0.46
   8   6     0.01  -0.01   0.08    -0.22   0.05   0.01    -0.01   0.03  -0.31
   9   8    -0.01   0.03  -0.28     0.06   0.18   0.01     0.00  -0.01   0.09
  10   8     0.01   0.00  -0.00    -0.59  -0.15   0.00    -0.00   0.01  -0.14
  11   6    -0.00   0.00  -0.01     0.04  -0.09  -0.01    -0.00   0.00  -0.02
  12  17    -0.00   0.00  -0.00     0.00  -0.09  -0.01    -0.00   0.00  -0.01
  13   6    -0.00  -0.00   0.00     0.22  -0.03  -0.01    -0.00   0.00  -0.04
  14   8     0.00  -0.00   0.00    -0.05   0.24   0.02     0.00  -0.00   0.03
  15   1     0.01   0.00  -0.00     0.08   0.03  -0.00     0.00  -0.01  -0.01
  16   1    -0.01  -0.00  -0.00     0.08   0.03   0.00    -0.00   0.01  -0.01
  17   1    -0.00   0.00   0.00     0.05   0.01  -0.00     0.00  -0.00   0.02
  18   1    -0.00   0.01  -0.05     0.06  -0.03  -0.00     0.01  -0.03   0.27
  19   1     0.03  -0.09   0.94     0.02   0.12   0.02     0.00  -0.00   0.04
  20   1    -0.04   0.01  -0.03     0.06   0.06   0.00    -0.01  -0.02  -0.01
  21   1     0.04  -0.00  -0.03     0.06   0.06   0.00     0.01   0.02  -0.01
  22   1     0.00  -0.00   0.05     0.08  -0.18  -0.02     0.00  -0.00   0.02
  23   1     0.00  -0.00   0.03     0.05  -0.06  -0.01     0.00  -0.02   0.17
                     22                     23                     24
                        a                      a                      a 
 Frequencies --   582.6186               592.0410               654.5978
 Red. masses --    12.1210                14.1441                12.0096
 Frc consts  --     0.0000                 0.0000                 0.0000
 IR Inten    --     1.1645                47.4991                 0.6121
 Raman Activ --     0.0000                 0.0000                 0.0000
 Depolar     --     0.0000                 0.0000                 0.0000
 Atom AN      X      Y      Z        X      Y      Z        X      Y      Z
   1   6    -0.00  -0.00   0.01     0.05   0.02  -0.00    -0.00   0.00  -0.01
   2   8     0.00  -0.01   0.15     0.39  -0.40  -0.05    -0.00   0.01  -0.08
   3   6    -0.01   0.05  -0.51     0.21  -0.12  -0.02     0.02  -0.05   0.51
   4   6     0.00  -0.00   0.01    -0.33  -0.21  -0.01    -0.01   0.02  -0.23
   5   6     0.01  -0.03   0.28    -0.33   0.06   0.02     0.01  -0.02   0.21
   6   6    -0.01   0.05  -0.53    -0.19  -0.03   0.00    -0.01   0.02  -0.26
   7   6     0.01  -0.05   0.50    -0.04   0.04   0.00     0.01  -0.04   0.43
   8   6     0.01  -0.02   0.24     0.00   0.12   0.01    -0.01   0.06  -0.59
   9   8    -0.00   0.01  -0.09     0.01   0.22   0.02     0.00  -0.01   0.11
  10   8    -0.00   0.01  -0.12    -0.07  -0.01   0.00    -0.00   0.01  -0.06
  11   6    -0.00   0.00  -0.02    -0.01   0.00   0.00    -0.00   0.00  -0.01
  12  17     0.00  -0.00   0.05     0.26  -0.03  -0.01    -0.00  -0.00   0.01
  13   6     0.00  -0.00   0.05    -0.18   0.23   0.03    -0.00  -0.00   0.02
  14   8    -0.00   0.00  -0.03     0.06   0.04   0.00     0.00   0.00  -0.01
  15   1    -0.02  -0.01   0.00    -0.08   0.00   0.01     0.01   0.01   0.00
  16   1     0.02   0.01   0.00    -0.08   0.00   0.00    -0.01  -0.01   0.00
  17   1    -0.00   0.00  -0.01     0.10   0.14   0.01     0.00  -0.00   0.01
  18   1     0.00  -0.00   0.05    -0.14  -0.02   0.00    -0.00   0.01  -0.08
  19   1     0.00  -0.00   0.01     0.00   0.07   0.01    -0.00  -0.00   0.00
  20   1    -0.01  -0.02  -0.00     0.00   0.01   0.00    -0.00  -0.00  -0.00
  21   1     0.01   0.02  -0.00     0.00   0.01   0.00     0.00   0.01  -0.00
  22   1     0.00  -0.00   0.01     0.00  -0.02  -0.00     0.00  -0.00   0.01
  23   1    -0.00   0.01  -0.08    -0.04   0.13   0.01    -0.00   0.00  -0.03
                     25                     26                     27
                        a                      a                      a 
 Frequencies --   671.7534               706.8627               835.4146
 Red. masses --    12.5384                11.6319                 3.4633
 Frc consts  --     0.0000                 0.0000                 0.0000
 IR Inten    --    30.4968                57.5510                27.8648
 Raman Activ --     0.0000                 0.0000                 0.0000
 Depolar     --     0.0000                 0.0000                 0.0000
 Atom AN      X      Y      Z        X      Y      Z        X      Y      Z
   1   6    -0.05  -0.03  -0.00    -0.10  -0.08  -0.00    -0.00  -0.00   0.00
   2   8     0.14  -0.21  -0.02    -0.06   0.00   0.00    -0.00   0.00  -0.04
   3   6     0.15   0.22   0.01     0.11   0.21   0.02     0.00  -0.01   0.08
   4   6     0.21   0.40   0.03    -0.15   0.12   0.02    -0.01   0.04  -0.44
   5   6     0.02   0.17   0.01    -0.18  -0.31  -0.02     0.00  -0.00   0.03
   6   6     0.22  -0.09  -0.01    -0.11  -0.42  -0.04     0.00  -0.01   0.06
   7   6     0.03  -0.20  -0.02     0.14  -0.28  -0.03    -0.00   0.00  -0.02
   8   6     0.18  -0.04  -0.01     0.23   0.10   0.00     0.00  -0.01   0.10
   9   8    -0.03  -0.24  -0.02    -0.12   0.04   0.01    -0.00   0.00  -0.03
  10   8    -0.34  -0.04   0.01    -0.06   0.05   0.01    -0.00   0.00  -0.00
  11   6     0.01  -0.03  -0.00     0.01   0.20   0.02    -0.00  -0.00  -0.00
  12  17    -0.18   0.04   0.01     0.01   0.04   0.00    -0.00   0.00  -0.00
  13   6    -0.29   0.22   0.03     0.37  -0.12  -0.02     0.00  -0.01   0.06
  14   8     0.09  -0.13  -0.01    -0.03   0.33   0.03    -0.00   0.00  -0.03
  15   1    -0.08  -0.01   0.00    -0.04  -0.02   0.00    -0.00  -0.01  -0.01
  16   1    -0.08  -0.01  -0.00    -0.04  -0.02  -0.00     0.00   0.01  -0.01
  17   1     0.05   0.09   0.01    -0.02  -0.01  -0.00     0.00  -0.00   0.03
  18   1     0.03   0.14   0.01    -0.15   0.13   0.02     0.02  -0.08   0.87
  19   1    -0.01  -0.17  -0.02    -0.03  -0.13  -0.01     0.00  -0.00   0.02
  20   1     0.04   0.06   0.01     0.02   0.08   0.01     0.00   0.00  -0.00
  21   1     0.04   0.06   0.00     0.02   0.08   0.01     0.00  -0.00  -0.00
  22   1     0.05  -0.13  -0.01     0.03  -0.00  -0.00     0.00  -0.00  -0.00
  23   1    -0.06   0.12   0.01     0.09  -0.06  -0.01    -0.00   0.01  -0.11
                     28                     29                     30
                        a                      a                      a 
 Frequencies --   853.8684               917.3110               919.6519
 Red. masses --    12.8274                 6.3884                11.0191
 Frc consts  --     0.0000                 0.0000                 0.0000
 IR Inten    --    46.8193                 1.7471               205.2798
 Raman Activ --     0.0000                 0.0000                 0.0000
 Depolar     --     0.0000                 0.0000                 0.0000
 Atom AN      X      Y      Z        X      Y      Z        X      Y      Z
   1   6     0.01  -0.03  -0.00     0.01   0.00  -0.00    -0.27  -0.14  -0.01
   2   8     0.06  -0.08  -0.01     0.00  -0.01  -0.00    -0.06   0.26   0.03
   3   6     0.08   0.19   0.02    -0.01  -0.00   0.02     0.27  -0.04  -0.01
   4   6    -0.00   0.27   0.03     0.01   0.00   0.05    -0.14  -0.30  -0.02
   5   6    -0.07  -0.05  -0.00    -0.01   0.02  -0.26     0.03   0.08  -0.00
   6   6    -0.46   0.34   0.05    -0.00  -0.01   0.02     0.04   0.17   0.02
   7   6    -0.11   0.32   0.03    -0.01  -0.01   0.02     0.23   0.18   0.01
   8   6    -0.00  -0.03  -0.00    -0.01  -0.00  -0.01     0.35   0.10  -0.00
   9   8     0.15  -0.41  -0.04     0.00  -0.00   0.00    -0.00   0.11   0.01
  10   8    -0.08   0.01   0.00     0.01  -0.00  -0.00    -0.32   0.11   0.02
  11   6    -0.01  -0.17  -0.02     0.00   0.01   0.00    -0.05  -0.31  -0.03
  12  17     0.18  -0.06  -0.01     0.00   0.00  -0.00    -0.01   0.00   0.00
  13   6     0.20  -0.20  -0.02     0.02  -0.06   0.61    -0.00  -0.03   0.01
  14   8    -0.06   0.01   0.00    -0.00   0.02  -0.17    -0.02  -0.05  -0.01
  15   1    -0.05  -0.01   0.00     0.00   0.00   0.00     0.02  -0.03  -0.00
  16   1    -0.05  -0.01  -0.00    -0.00  -0.00   0.00     0.02  -0.03  -0.00
  17   1     0.04   0.06   0.00     0.00   0.00  -0.00    -0.14  -0.14  -0.01
  18   1    -0.12   0.19   0.02    -0.00   0.01  -0.11    -0.01  -0.11  -0.01
  19   1     0.04  -0.07  -0.01     0.00   0.01   0.00    -0.01  -0.21  -0.02
  20   1     0.00  -0.03  -0.00    -0.00   0.00  -0.00     0.05   0.02   0.00
  21   1     0.00  -0.03  -0.00    -0.00  -0.00  -0.00     0.05   0.02   0.00
  22   1     0.00  -0.05  -0.01    -0.00   0.01   0.00     0.05  -0.24  -0.03
  23   1     0.04  -0.08  -0.01    -0.02   0.07  -0.71    -0.01  -0.04  -0.02
                     31                     32                     33
                        a                      a                      a 
 Frequencies --  1002.4695              1071.8050              1083.6402
 Red. masses --    11.6178                11.5739                11.1909
 Frc consts  --     0.0000                 0.0000                 0.0000
 IR Inten    --    98.9352                14.3575               133.2183
 Raman Activ --     0.0000                 0.0000                 0.0000
 Depolar     --     0.0000                 0.0000                 0.0000
 Atom AN      X      Y      Z        X      Y      Z        X      Y      Z
   1   6    -0.31  -0.13  -0.00    -0.19  -0.23  -0.02     0.26   0.20   0.01
   2   8     0.11   0.27   0.02     0.31   0.17   0.01    -0.38  -0.21  -0.01
   3   6     0.27  -0.07  -0.01     0.06   0.06   0.00    -0.02   0.02   0.00
   4   6     0.31  -0.07  -0.02    -0.32   0.00   0.01    -0.04  -0.09  -0.01
   5   6     0.04  -0.17  -0.02     0.02   0.28   0.03     0.06   0.13   0.01
   6   6    -0.37  -0.03   0.01     0.37   0.14   0.00    -0.11   0.15   0.02
   7   6    -0.15  -0.05  -0.00    -0.21  -0.01   0.01     0.04   0.05   0.00
   8   6    -0.02   0.12   0.01    -0.04  -0.02  -0.00     0.23   0.07   0.00
   9   8     0.05  -0.11  -0.01     0.02  -0.05  -0.01     0.07   0.11   0.01
  10   8     0.06  -0.28  -0.03    -0.02  -0.33  -0.03    -0.09  -0.46  -0.04
  11   6     0.00   0.31   0.03     0.07   0.27   0.03    -0.05   0.33   0.04
  12  17     0.08  -0.02  -0.00    -0.05   0.00   0.00     0.02  -0.01  -0.00
  13   6    -0.20   0.21   0.03     0.16  -0.18  -0.02     0.02  -0.04  -0.00
  14   8     0.06   0.04   0.00    -0.05  -0.07  -0.01    -0.01  -0.04  -0.00
  15   1     0.05  -0.02  -0.01    -0.06  -0.03   0.01     0.00   0.03  -0.01
  16   1     0.05  -0.02  -0.00    -0.06  -0.03  -0.01     0.00   0.03   0.01
  17   1    -0.17  -0.18  -0.01    -0.00   0.01   0.00     0.07   0.07   0.00
  18   1     0.10  -0.03  -0.01    -0.18   0.09   0.01     0.11  -0.13  -0.02
  19   1     0.01  -0.02  -0.00     0.01  -0.02  -0.00     0.00  -0.42  -0.04
  20   1    -0.03   0.01   0.00    -0.06  -0.06  -0.01    -0.02   0.04   0.01
  21   1    -0.03   0.01  -0.00    -0.06  -0.06   0.00    -0.02   0.04  -0.00
  22   1    -0.02   0.12   0.01    -0.05   0.21   0.02     0.00   0.03   0.00
  23   1    -0.04   0.14   0.02     0.02  -0.16  -0.02    -0.00  -0.05  -0.00
                     34                     35                     36
                        a                      a                      a 
 Frequencies --  1106.6920              1113.2313              1139.5293
 Red. masses --     3.6420                 3.6902                 8.8314
 Frc consts  --     0.0000                 0.0000                 0.0000
 IR Inten    --     2.2077                 1.9462               186.6378
 Raman Activ --     0.0000                 0.0000                 0.0000
 Depolar     --     0.0000                 0.0000                 0.0000
 Atom AN      X      Y      Z        X      Y      Z        X      Y      Z
   1   6    -0.00  -0.00  -0.00     0.01  -0.04   0.42     0.08   0.25   0.02
   2   8     0.00   0.00   0.00    -0.01   0.02  -0.22    -0.31  -0.16  -0.01
   3   6    -0.00   0.00  -0.00     0.00  -0.00   0.00     0.33  -0.02  -0.01
   4   6     0.00   0.00   0.00     0.00  -0.00   0.00    -0.06  -0.14  -0.01
   5   6    -0.00  -0.00   0.00     0.00  -0.00  -0.00     0.06  -0.12  -0.01
   6   6    -0.00  -0.00   0.00     0.00  -0.00  -0.00     0.23  -0.03  -0.01
   7   6     0.00   0.00  -0.01    -0.00  -0.00   0.00    -0.19   0.01   0.01
   8   6     0.00  -0.00   0.00    -0.00   0.00   0.00    -0.07   0.27   0.03
   9   8    -0.00   0.00  -0.00     0.00  -0.00   0.00     0.08  -0.19  -0.02
  10   8    -0.01   0.02  -0.21     0.00   0.00  -0.00    -0.09   0.14   0.02
  11   6     0.01  -0.04   0.42     0.00  -0.00   0.00     0.20  -0.09  -0.01
  12  17    -0.00   0.00   0.00     0.00  -0.00  -0.00    -0.02  -0.00   0.00
  13   6     0.00  -0.00  -0.00    -0.00   0.00   0.00    -0.06   0.09   0.01
  14   8     0.00   0.00   0.00     0.00   0.00  -0.00     0.02   0.02   0.00
  15   1     0.00   0.00   0.00    -0.42  -0.38  -0.20     0.11   0.03  -0.01
  16   1    -0.00  -0.00   0.00     0.41   0.42  -0.14     0.11   0.03   0.01
  17   1     0.00   0.00   0.00    -0.01   0.02  -0.23    -0.14  -0.17  -0.01
  18   1     0.00  -0.00  -0.00    -0.00   0.00  -0.02    -0.30   0.21   0.03
  19   1    -0.00   0.00  -0.01    -0.00   0.00  -0.00     0.02  -0.04  -0.00
  20   1    -0.10   0.58  -0.11    -0.00   0.00  -0.00    -0.07  -0.15  -0.03
  21   1     0.09  -0.55  -0.23     0.00  -0.00  -0.00    -0.07  -0.16   0.00
  22   1    -0.01   0.03  -0.24    -0.00   0.00   0.00    -0.08   0.29   0.03
  23   1     0.00  -0.00   0.00    -0.00   0.00   0.00    -0.01   0.02   0.00
                     37                     38                     39
                        a                      a                      a 
 Frequencies --  1141.7922              1151.8931              1178.1665
 Red. masses --     6.8842                 5.7625                 8.5103
 Frc consts  --     0.0000                 0.0000                 0.0000
 IR Inten    --   545.3593                21.5771               265.7861
 Raman Activ --     0.0000                 0.0000                 0.0000
 Depolar     --     0.0000                 0.0000                 0.0000
 Atom AN      X      Y      Z        X      Y      Z        X      Y      Z
   1   6    -0.14   0.05   0.01    -0.18   0.32   0.04     0.01  -0.09  -0.01
   2   8     0.27  -0.09  -0.02     0.17  -0.29  -0.03     0.04   0.07   0.01
   3   6    -0.28  -0.04   0.00    -0.06  -0.03  -0.00    -0.04  -0.03  -0.00
   4   6     0.02   0.16   0.02    -0.07   0.13   0.01    -0.09  -0.04  -0.00
   5   6    -0.05   0.05   0.01    -0.04   0.11   0.01     0.07  -0.02  -0.00
   6   6    -0.12  -0.11  -0.01     0.04   0.05   0.00     0.11  -0.07  -0.01
   7   6    -0.11   0.01   0.00     0.02   0.00  -0.00    -0.43  -0.09   0.00
   8   6     0.09  -0.11  -0.01    -0.02  -0.03  -0.00    -0.15   0.33   0.04
   9   8     0.08   0.21   0.02    -0.02  -0.01  -0.00     0.19  -0.09  -0.01
  10   8    -0.12   0.20   0.02     0.14  -0.11  -0.02     0.34   0.19   0.01
  11   6     0.25  -0.13  -0.02    -0.20   0.07   0.01    -0.19  -0.10  -0.00
  12  17     0.02  -0.00  -0.00    -0.01   0.00   0.00    -0.00  -0.01  -0.00
  13   6     0.03  -0.05  -0.01     0.07  -0.07  -0.01    -0.02   0.03   0.00
  14   8    -0.00   0.01   0.00    -0.02  -0.02  -0.00     0.01   0.00  -0.00
  15   1     0.13   0.01  -0.02     0.31   0.04  -0.05    -0.05  -0.01   0.01
  16   1     0.13   0.00   0.01     0.31   0.03   0.03    -0.05  -0.00  -0.01
  17   1    -0.12  -0.12  -0.01    -0.34  -0.39  -0.03     0.07   0.08   0.01
  18   1     0.21  -0.14  -0.02    -0.07   0.08   0.01     0.02  -0.05  -0.01
  19   1     0.00  -0.46  -0.04    -0.00   0.06   0.01     0.02  -0.49  -0.05
  20   1    -0.09  -0.18  -0.05     0.07   0.15   0.04     0.10   0.16   0.04
  21   1    -0.09  -0.18   0.01     0.07   0.15  -0.01     0.10   0.16  -0.01
  22   1    -0.09   0.33   0.04     0.07  -0.27  -0.03     0.05  -0.22  -0.02
  23   1     0.01   0.01   0.00     0.01  -0.05  -0.01    -0.01  -0.00   0.00
                     40                     41                     42
                        a                      a                      a 
 Frequencies --  1207.6452              1303.5990              1347.1279
 Red. masses --     6.1382                11.8409                 5.8362
 Frc consts  --     0.0000                 0.0000                 0.0000
 IR Inten    --    63.0293               983.5622                90.6438
 Raman Activ --     0.0000                 0.0000                 0.0000
 Depolar     --     0.0000                 0.0000                 0.0000
 Atom AN      X      Y      Z        X      Y      Z        X      Y      Z
   1   6    -0.03   0.07   0.01     0.04   0.02   0.00    -0.03   0.00   0.00
   2   8    -0.04  -0.09  -0.01    -0.13   0.04   0.01     0.02  -0.01  -0.00
   3   6     0.17   0.21   0.02     0.35   0.03  -0.01     0.07   0.10   0.01
   4   6    -0.13   0.01   0.00     0.27  -0.10  -0.02     0.04   0.00  -0.00
   5   6    -0.15   0.21   0.02    -0.33   0.40   0.05    -0.25  -0.24  -0.02
   6   6    -0.01  -0.07  -0.01    -0.11   0.18   0.02     0.30   0.06  -0.00
   7   6    -0.09  -0.12  -0.01     0.01  -0.42  -0.04     0.06   0.25   0.02
   8   6     0.05   0.32   0.03    -0.26  -0.26  -0.02    -0.18  -0.04   0.00
   9   8    -0.02  -0.30  -0.03    -0.00   0.17   0.02     0.04  -0.00  -0.00
  10   8    -0.01   0.07   0.01     0.10   0.14   0.01    -0.03  -0.10  -0.01
  11   6     0.04  -0.03  -0.00     0.02  -0.06  -0.01    -0.02   0.06   0.01
  12  17     0.00   0.00   0.00     0.02   0.00  -0.00    -0.03  -0.00   0.00
  13   6     0.11  -0.10  -0.01     0.10  -0.19  -0.02     0.12  -0.15  -0.02
  14   8    -0.04  -0.04  -0.00    -0.04  -0.02  -0.00    -0.17  -0.00   0.00
  15   1     0.03  -0.02  -0.03    -0.04   0.01   0.01     0.02  -0.01  -0.01
  16   1     0.04  -0.02   0.02    -0.04   0.01  -0.01     0.02  -0.01   0.01
  17   1    -0.02   0.00   0.00    -0.03  -0.05  -0.00     0.01   0.02   0.00
  18   1     0.49  -0.47  -0.06    -0.04   0.08   0.01     0.12  -0.10  -0.01
  19   1     0.01   0.30   0.03    -0.01  -0.15  -0.01     0.01  -0.10  -0.01
  20   1    -0.00  -0.02  -0.00     0.01   0.03  -0.01    -0.01  -0.05   0.01
  21   1    -0.00  -0.02  -0.00     0.01   0.03   0.01    -0.01  -0.05  -0.02
  22   1    -0.02   0.07   0.01    -0.01   0.04   0.00     0.03  -0.08  -0.01
  23   1     0.02  -0.07  -0.01     0.03   0.04   0.00     0.17   0.70   0.06
                     43                     44                     45
                        a                      a                      a 
 Frequencies --  1382.6651              1387.0233              1394.1878
 Red. masses --     7.2567                 3.2530                 5.7478
 Frc consts  --     0.0000                 0.0000                 0.0000
 IR Inten    --   278.8292                13.1777               152.3682
 Raman Activ --     0.0000                 0.0000                 0.0000
 Depolar     --     0.0000                 0.0000                 0.0000
 Atom AN      X      Y      Z        X      Y      Z        X      Y      Z
   1   6     0.21   0.10   0.00     0.06   0.04   0.00    -0.15  -0.14  -0.01
   2   8    -0.04   0.09   0.01     0.01   0.03   0.00    -0.15  -0.00   0.00
   3   6     0.06  -0.34  -0.03     0.10   0.02  -0.00     0.04  -0.26  -0.03
   4   6     0.00   0.18   0.02     0.04   0.04   0.00     0.02   0.07   0.01
   5   6     0.04   0.26   0.02    -0.15  -0.03   0.00     0.10   0.30   0.03
   6   6    -0.06  -0.30  -0.03     0.06  -0.10  -0.01    -0.12  -0.19  -0.01
   7   6    -0.22   0.21   0.03     0.02   0.12   0.01    -0.18   0.00   0.01
   8   6     0.25  -0.03  -0.01    -0.17  -0.04   0.00     0.23   0.03  -0.00
   9   8    -0.03   0.02   0.00     0.04   0.01   0.00    -0.03  -0.01   0.00
  10   8     0.03  -0.00  -0.00     0.01   0.08   0.01     0.03   0.09   0.01
  11   6    -0.02  -0.03  -0.00    -0.01   0.27   0.03    -0.00   0.11   0.01
  12  17     0.01  -0.00  -0.00    -0.00   0.01   0.00     0.01  -0.00  -0.00
  13   6     0.06  -0.13  -0.01    -0.04   0.05   0.01     0.05  -0.13  -0.01
  14   8    -0.05  -0.02  -0.00     0.08   0.04   0.00    -0.06  -0.03  -0.00
  15   1    -0.33  -0.10  -0.07    -0.11  -0.05  -0.03     0.30   0.15   0.11
  16   1    -0.33  -0.12   0.06    -0.11  -0.05   0.03     0.29   0.17  -0.10
  17   1    -0.18  -0.30  -0.02    -0.07  -0.11  -0.01     0.20   0.32   0.02
  18   1     0.00   0.06   0.01     0.07  -0.04  -0.01    -0.09   0.11   0.01
  19   1     0.00   0.10   0.01     0.01  -0.09  -0.01     0.00   0.11   0.01
  20   1     0.01   0.05  -0.00    -0.08  -0.43   0.07    -0.03  -0.18   0.03
  21   1     0.01   0.05   0.01    -0.09  -0.41  -0.15    -0.04  -0.18  -0.06
  22   1    -0.01   0.01   0.00     0.20  -0.45  -0.05     0.09  -0.19  -0.02
  23   1     0.06   0.21   0.02    -0.07  -0.29  -0.03     0.06   0.21   0.02
                     46                     47                     48
                        a                      a                      a 
 Frequencies --  1403.3648              1447.7947              1449.7589
 Red. masses --     8.8931                 1.5330                 1.5261
 Frc consts  --     0.0000                 0.0000                 0.0000
 IR Inten    --   397.1229                12.4494                 7.5344
 Raman Activ --     0.0000                 0.0000                 0.0000
 Depolar     --     0.0000                 0.0000                 0.0000
 Atom AN      X      Y      Z        X      Y      Z        X      Y      Z
   1   6    -0.07  -0.05  -0.00    -0.01   0.02  -0.21    -0.00   0.00  -0.00
   2   8    -0.13   0.03   0.01    -0.00   0.00  -0.03     0.00   0.00  -0.00
   3   6     0.27  -0.12  -0.02    -0.00   0.00  -0.00    -0.00  -0.00   0.00
   4   6     0.10   0.15   0.01     0.00  -0.00   0.00     0.00  -0.00  -0.00
   5   6    -0.32  -0.01   0.01    -0.00   0.00   0.00     0.00   0.00  -0.00
   6   6     0.16  -0.32  -0.04     0.00  -0.00  -0.00    -0.00  -0.00  -0.00
   7   6    -0.05   0.47   0.05     0.00  -0.00   0.00    -0.00  -0.00   0.00
   8   6    -0.14  -0.19  -0.01     0.00   0.00   0.00    -0.00   0.00   0.00
   9   8     0.03   0.06   0.00    -0.00  -0.00  -0.00     0.00  -0.00  -0.00
  10   8     0.00  -0.12  -0.01    -0.00   0.00  -0.00     0.00  -0.00   0.03
  11   6    -0.03  -0.10  -0.01    -0.00   0.00  -0.00     0.01  -0.02   0.21
  12  17    -0.01   0.01   0.00    -0.00   0.00  -0.00    -0.00  -0.00   0.00
  13   6    -0.03   0.01   0.00     0.00  -0.00  -0.00     0.00  -0.00   0.00
  14   8     0.11   0.07   0.00    -0.00  -0.00   0.00    -0.00  -0.00   0.00
  15   1     0.13   0.05   0.04    -0.44   0.11   0.11    -0.01   0.00   0.00
  16   1     0.12   0.06  -0.04     0.45  -0.12   0.06     0.01  -0.00   0.00
  17   1     0.09   0.14   0.01     0.02  -0.07   0.71     0.00  -0.00   0.02
  18   1     0.12  -0.03  -0.01    -0.00   0.00  -0.02    -0.00   0.00  -0.00
  19   1     0.01  -0.05  -0.01     0.00  -0.00   0.00     0.00  -0.00   0.01
  20   1     0.02   0.19  -0.03     0.01   0.01   0.00    -0.35  -0.30  -0.11
  21   1     0.03   0.18   0.07    -0.01  -0.01   0.00     0.34   0.32  -0.06
  22   1    -0.07   0.12   0.01     0.00  -0.00   0.02    -0.02   0.07  -0.71
  23   1    -0.08  -0.34  -0.03     0.00   0.00  -0.00     0.00   0.00  -0.00
                     49                     50                     51
                        a                      a                      a 
 Frequencies --  1457.4439              1462.6386              1467.0863
 Red. masses --     2.3981                 6.2246                 6.5367
 Frc consts  --     0.0000                 0.0000                 0.0000
 IR Inten    --    90.8414               346.9811               234.3499
 Raman Activ --     0.0000                 0.0000                 0.0000
 Depolar     --     0.0000                 0.0000                 0.0000
 Atom AN      X      Y      Z        X      Y      Z        X      Y      Z
   1   6     0.01  -0.02  -0.00     0.09  -0.15  -0.02     0.07  -0.10  -0.01
   2   8     0.02   0.01   0.00     0.08  -0.01  -0.00    -0.04  -0.08  -0.01
   3   6    -0.07  -0.11  -0.01    -0.21  -0.19  -0.01     0.18   0.26   0.02
   4   6     0.07   0.02  -0.00     0.16  -0.01  -0.00    -0.18   0.01   0.01
   5   6    -0.09   0.04   0.01    -0.18   0.09   0.01     0.18  -0.16  -0.02
   6   6     0.01  -0.01  -0.00     0.02  -0.03  -0.00     0.00   0.06   0.01
   7   6     0.14   0.01  -0.00     0.27   0.01  -0.01    -0.28   0.01   0.01
   8   6    -0.04   0.12   0.01    -0.13   0.37   0.04     0.13  -0.37  -0.04
   9   8     0.01  -0.03  -0.00     0.06  -0.13  -0.01    -0.06   0.12   0.01
  10   8    -0.09  -0.03  -0.00    -0.08  -0.06  -0.00     0.08   0.05   0.00
  11   6    -0.20   0.01   0.01     0.07  -0.00  -0.00    -0.05   0.00   0.00
  12  17    -0.00   0.00   0.00    -0.01   0.01   0.00     0.00  -0.01  -0.00
  13   6     0.04  -0.00  -0.00     0.07  -0.01  -0.00    -0.08   0.02   0.00
  14   8    -0.02  -0.01  -0.00    -0.03  -0.03  -0.00     0.04   0.04   0.00
  15   1    -0.01   0.03   0.03    -0.11   0.34   0.30    -0.08   0.34   0.29
  16   1    -0.01   0.04  -0.02    -0.13   0.39  -0.23    -0.10   0.39  -0.22
  17   1    -0.00  -0.01  -0.00    -0.10  -0.18  -0.02    -0.11  -0.18  -0.02
  18   1    -0.01   0.03   0.00    -0.01   0.05   0.01     0.09  -0.13  -0.01
  19   1    -0.00  -0.01  -0.00     0.01  -0.04  -0.00    -0.01   0.05   0.00
  20   1     0.50  -0.19   0.33    -0.13   0.06  -0.09     0.08  -0.04   0.06
  21   1     0.48  -0.11  -0.39    -0.13   0.04   0.11     0.08  -0.02  -0.07
  22   1    -0.13   0.27   0.03     0.02  -0.03  -0.00    -0.01   0.01   0.00
  23   1     0.00  -0.03  -0.00     0.01  -0.04  -0.00    -0.01   0.03   0.00
                     52                     53                     54
                        a                      a                      a 
 Frequencies --  1539.4494              1553.8934              1666.2423
 Red. masses --    11.7021                11.7430                13.3979
 Frc consts  --     0.0000                 0.0000                 0.0000
 IR Inten    --   198.7136               206.9072               748.9919
 Raman Activ --     0.0000                 0.0000                 0.0000
 Depolar     --     0.0000                 0.0000                 0.0000
 Atom AN      X      Y      Z        X      Y      Z        X      Y      Z
   1   6     0.01   0.00  -0.00     0.01  -0.02  -0.00     0.00   0.00   0.00
   2   8    -0.00   0.00   0.00    -0.09   0.06   0.01    -0.01  -0.00   0.00
   3   6    -0.23  -0.05   0.00     0.21  -0.53  -0.06     0.01   0.09   0.01
   4   6     0.32  -0.12  -0.02    -0.26   0.50   0.06     0.08  -0.07  -0.01
   5   6    -0.48  -0.18  -0.00    -0.04  -0.28  -0.03    -0.04   0.01   0.00
   6   6     0.22   0.29   0.02     0.06   0.36   0.03    -0.03  -0.09  -0.01
   7   6    -0.36  -0.06   0.00     0.06  -0.25  -0.03    -0.08   0.05   0.01
   8   6     0.50   0.03  -0.01    -0.01   0.02   0.00     0.04  -0.09  -0.01
   9   8    -0.06  -0.01   0.00    -0.01   0.08   0.01    -0.01   0.03   0.00
  10   8     0.05   0.02   0.00     0.00   0.02   0.00     0.02   0.02   0.00
  11   6    -0.00   0.01   0.00     0.02   0.00  -0.00    -0.00  -0.00  -0.00
  12  17     0.01  -0.01  -0.00     0.00  -0.01  -0.00     0.01  -0.00  -0.00
  13   6    -0.02  -0.02  -0.00     0.07   0.12   0.01     0.47   0.59   0.04
  14   8     0.05   0.07   0.00    -0.05  -0.05  -0.00    -0.40  -0.46  -0.03
  15   1    -0.00  -0.01  -0.01     0.00   0.00   0.01     0.00   0.00   0.00
  16   1    -0.00  -0.01   0.01     0.00   0.01  -0.01     0.00   0.00  -0.00
  17   1     0.01   0.01   0.00     0.02   0.02   0.00    -0.00  -0.00  -0.00
  18   1    -0.02   0.05   0.01     0.16  -0.06  -0.01    -0.02   0.02   0.00
  19   1    -0.00   0.12   0.01    -0.01  -0.00  -0.00    -0.00  -0.00   0.00
  20   1    -0.01  -0.01   0.00    -0.02  -0.01  -0.01    -0.00   0.00  -0.00
  21   1    -0.01  -0.01  -0.00    -0.02  -0.01   0.01    -0.00   0.00   0.00
  22   1     0.01  -0.02  -0.00     0.00   0.00  -0.00     0.00  -0.01  -0.00
  23   1    -0.03  -0.11  -0.01    -0.00  -0.05  -0.00     0.05  -0.07  -0.01
                     55                     56                     57
                        a                      a                      a 
 Frequencies --  2835.8676              2969.7467              2979.0594
 Red. masses --     1.6967                 1.9633                 1.4294
 Frc consts  --     0.0000                 0.0000                 0.0000
 IR Inten    --   149.4597                29.5342                33.1749
 Raman Activ --     0.0000                 0.0000                 0.0000
 Depolar     --     0.0000                 0.0000                 0.0000
 Atom AN      X      Y      Z        X      Y      Z        X      Y      Z
   1   6    -0.00   0.00   0.00    -0.01   0.03  -0.29    -0.02   0.19   0.02
   2   8    -0.00   0.00   0.00    -0.00   0.00  -0.01     0.01   0.01   0.00
   3   6     0.00  -0.00  -0.00     0.00  -0.00   0.00    -0.00   0.00   0.00
   4   6     0.00   0.00   0.00    -0.00  -0.00   0.00    -0.00  -0.00  -0.00
   5   6    -0.01   0.00   0.00    -0.00   0.00  -0.00    -0.00  -0.00  -0.00
   6   6    -0.00   0.00   0.00     0.00   0.00  -0.00    -0.00  -0.00  -0.00
   7   6    -0.00  -0.00  -0.00    -0.00  -0.00  -0.00    -0.00  -0.00   0.00
   8   6     0.00  -0.00  -0.00     0.00   0.00  -0.00     0.00  -0.00  -0.00
   9   8     0.00   0.00   0.00    -0.00  -0.00   0.00    -0.00   0.00   0.00
  10   8     0.00   0.00   0.00     0.00   0.00   0.00     0.00   0.00   0.00
  11   6     0.00  -0.00  -0.00    -0.00   0.00  -0.00    -0.00   0.00  -0.00
  12  17     0.00  -0.00  -0.00    -0.00  -0.00   0.00     0.00  -0.00  -0.00
  13   6    -0.24   0.06   0.01     0.00   0.00   0.00     0.00   0.00   0.00
  14   8    -0.02  -0.01  -0.00    -0.00  -0.00  -0.00    -0.00  -0.00  -0.00
  15   1     0.00   0.00  -0.00     0.05  -0.46   0.50     0.04  -0.43   0.54
  16   1     0.00  -0.00   0.00    -0.02   0.35   0.57     0.01  -0.32  -0.62
  17   1     0.00  -0.00  -0.00    -0.00   0.00  -0.04    -0.02   0.03   0.00
  18   1     0.00  -0.00  -0.00     0.00  -0.00   0.00     0.01   0.00   0.00
  19   1    -0.00  -0.00   0.00     0.00   0.00  -0.00     0.00  -0.00  -0.00
  20   1    -0.00  -0.00  -0.00    -0.00   0.00   0.00     0.00  -0.00  -0.00
  21   1    -0.00  -0.00   0.00     0.00  -0.00   0.00     0.00  -0.00   0.00
  22   1    -0.00  -0.00  -0.00    -0.00  -0.00  -0.00    -0.00  -0.00  -0.00
  23   1     0.95  -0.18  -0.04    -0.00   0.00  -0.00     0.00  -0.00  -0.00
                     58                     59                     60
                        a                      a                      a 
 Frequencies --  2990.4709              2996.6825              3031.7579
 Red. masses --     1.9680                 1.4347                 1.7262
 Frc consts  --     0.0000                 0.0000                 0.0000
 IR Inten    --    21.2690                30.2232                14.0136
 Raman Activ --     0.0000                 0.0000                 0.0000
 Depolar     --     0.0000                 0.0000                 0.0000
 Atom AN      X      Y      Z        X      Y      Z        X      Y      Z
   1   6     0.00  -0.00   0.00     0.00  -0.00  -0.00    -0.00   0.00   0.00
   2   8    -0.00  -0.00  -0.00     0.00  -0.00  -0.00     0.00  -0.00  -0.00
   3   6     0.00   0.00  -0.00    -0.00  -0.00   0.00    -0.00   0.00   0.00
   4   6     0.00   0.00   0.00    -0.00  -0.00  -0.00     0.00  -0.00  -0.00
   5   6    -0.00   0.00  -0.00    -0.00  -0.00  -0.00    -0.00   0.00   0.00
   6   6    -0.00  -0.00  -0.00    -0.00   0.00   0.00     0.00  -0.00  -0.00
   7   6     0.00  -0.00   0.00    -0.00  -0.00  -0.00    -0.00  -0.00  -0.00
   8   6    -0.00  -0.00  -0.00     0.00   0.00   0.00    -0.00  -0.00  -0.00
   9   8     0.00  -0.00   0.00    -0.00  -0.00  -0.00     0.00   0.00   0.00
  10   8    -0.00  -0.00  -0.01    -0.00   0.02   0.00     0.00   0.01   0.00
  11   6    -0.00   0.03  -0.29    -0.17   0.09   0.01     0.24   0.09   0.00
  12  17     0.00   0.00   0.00     0.00  -0.00  -0.00     0.00   0.00   0.00
  13   6    -0.00   0.00   0.00    -0.00  -0.00  -0.00     0.00  -0.00  -0.00
  14   8     0.00   0.00  -0.00     0.00   0.00   0.00     0.00   0.00   0.00
  15   1    -0.00   0.00  -0.00    -0.00   0.00  -0.00    -0.00   0.00  -0.00
  16   1     0.00  -0.00  -0.00    -0.00   0.00   0.00    -0.00   0.00   0.00
  17   1     0.00  -0.00   0.00    -0.00   0.00   0.00     0.00  -0.00  -0.00
  18   1    -0.00  -0.00  -0.00     0.00   0.00   0.00    -0.00  -0.00  -0.00
  19   1    -0.00  -0.00   0.00     0.01  -0.00  -0.00     0.00   0.00   0.00
  20   1    -0.35   0.14   0.58     0.30  -0.12  -0.59     0.03   0.01   0.01
  21   1     0.36  -0.24   0.49     0.35  -0.25   0.57     0.03   0.01  -0.01
  22   1    -0.00   0.00  -0.04    -0.03   0.00  -0.00    -0.89  -0.37  -0.01
  23   1     0.00  -0.00  -0.00    -0.00  -0.00  -0.00    -0.00   0.00   0.00
                     61                     62                     63
                        a                      a                      a 
 Frequencies --  3044.7492              3122.6177              3350.1740
 Red. masses --     1.7316                 1.8344                 1.8616
 Frc consts  --     0.0000                 0.0000                 0.0000
 IR Inten    --     7.0012                 1.1717               384.7571
 Raman Activ --     0.0000                 0.0000                 0.0000
 Depolar     --     0.0000                 0.0000                 0.0000
 Atom AN      X      Y      Z        X      Y      Z        X      Y      Z
   1   6     0.21  -0.14  -0.02     0.00  -0.00  -0.00     0.00  -0.00  -0.00
   2   8     0.01   0.00  -0.00    -0.00  -0.00  -0.00    -0.00  -0.00  -0.00
   3   6    -0.00  -0.00  -0.00    -0.01   0.00   0.00    -0.00   0.00   0.00
   4   6     0.00   0.00   0.00    -0.18  -0.21  -0.02     0.00  -0.00  -0.00
   5   6    -0.00   0.00   0.00    -0.00  -0.01  -0.00    -0.00   0.00   0.00
   6   6    -0.00   0.00   0.00     0.00   0.00   0.00     0.00  -0.00  -0.00
   7   6     0.00  -0.00  -0.00    -0.00  -0.00  -0.00    -0.00   0.00   0.00
   8   6    -0.00  -0.00  -0.00     0.00   0.00   0.00     0.01  -0.01  -0.00
   9   8    -0.00   0.00   0.00    -0.00  -0.00  -0.00     0.24   0.00  -0.01
  10   8     0.00   0.00   0.00     0.00   0.00   0.00    -0.00  -0.00  -0.00
  11   6     0.00   0.00  -0.00     0.00  -0.00  -0.00    -0.00   0.00   0.00
  12  17    -0.00   0.00   0.00     0.00  -0.00  -0.00    -0.00   0.00   0.00
  13   6    -0.00   0.00   0.00    -0.00  -0.00  -0.00    -0.00  -0.00  -0.00
  14   8     0.00  -0.00  -0.00     0.00   0.00   0.00     0.00   0.00   0.00
  15   1     0.02  -0.02  -0.01    -0.00   0.01  -0.00     0.00  -0.00   0.00
  16   1     0.02  -0.02   0.01    -0.00   0.00   0.01     0.00  -0.00  -0.00
  17   1    -0.81   0.53   0.07    -0.01   0.00   0.00     0.00   0.00   0.00
  18   1    -0.01  -0.00  -0.00     0.64   0.71   0.05     0.00   0.00   0.00
  19   1     0.00  -0.00  -0.00     0.00   0.00  -0.00    -0.97   0.04   0.03
  20   1    -0.00   0.00   0.00    -0.00   0.00   0.00     0.00  -0.00  -0.00
  21   1    -0.00   0.00  -0.00    -0.00   0.00  -0.00     0.00  -0.00   0.00
  22   1    -0.00  -0.00  -0.00    -0.00  -0.00  -0.00    -0.00  -0.00  -0.00
  23   1     0.00  -0.00  -0.00    -0.00   0.00   0.00    -0.00   0.00   0.00
