      -----------------------------------------------------------      
     |                   =====================                   |     
     |                           x T B                           |     
     |                   =====================                   |     
     |                         S. Grimme                         |     
     |          Mulliken Center for Theoretical Chemistry        |     
     |                    University of Bonn                     |     
      -----------------------------------------------------------      

   * xtb version 6.7.1 (edcfbbe) compiled by 'albert@albert-system' on 2024-07-22

   xtb is free software: you can redistribute it and/or modify it under
   the terms of the GNU Lesser General Public License as published by
   the Free Software Foundation, either version 3 of the License, or
   (at your option) any later version.
   
   xtb is distributed in the hope that it will be useful,
   but WITHOUT ANY WARRANTY; without even the implied warranty of
   MERCHANTABILITY or FITNESS FOR A PARTICULAR PURPOSE.  See the
   GNU Lesser General Public License for more details.
   
   Cite this work as:
   * C. Bannwarth, E. Caldeweyher, S. Ehlert, A. Hansen, P. Pracht,
     J. Seibert, S. Spicher, S. Grimme, WIREs Comput. Mol. Sci., 2020, 11,
     e01493. DOI: 10.1002/wcms.1493
   
   for GFN2-xTB:
   * C. Bannwarth, S. Ehlert and S. Grimme., J. Chem. Theory Comput., 2019,
     15, 1652-1671. DOI: 10.1021/acs.jctc.8b01176
   for GFN1-xTB:
   * S. Grimme, C. Bannwarth, P. Shushkov, J. Chem. Theory Comput., 2017,
     13, 1989-2009. DOI: 10.1021/acs.jctc.7b00118
   for GFN0-xTB:
   * P. Pracht, E. Caldeweyher, S. Ehlert, S. Grimme, ChemRxiv, 2019, preprint.
     DOI: 10.26434/chemrxiv.8326202.v1
   for GFN-FF:
   * S. Spicher and S. Grimme, Angew. Chem. Int. Ed., 2020, 59, 15665-15673.
     DOI: 10.1002/anie.202004239
   
   for ALPB and GBSA implicit solvation:
   * S. Ehlert, M. Stahn, S. Spicher, S. Grimme, J. Chem. Theory Comput.,
     2021, 17, 4250-4261. DOI: 10.1021/acs.jctc.1c00471
   
   for ddCOSMO and CPCM-X implicit solvation:
   * M. Stahn, S. Ehlert, S. Grimme, J. Phys. Chem. A,
     2023, XX, XXXX-XXXX. DOI: 10.1021/acs.jpca.3c04382
   
   for DFT-D4:
   * E. Caldeweyher, C. Bannwarth and S. Grimme, J. Chem. Phys., 2017,
     147, 034112. DOI: 10.1063/1.4993215
   * E. Caldeweyher, S. Ehlert, A. Hansen, H. Neugebauer, S. Spicher,
     C. Bannwarth and S. Grimme, J. Chem. Phys., 2019, 150, 154122.
     DOI: 10.1063/1.5090222
   * E. Caldeweyher, J.-M. Mewes, S. Ehlert and S. Grimme, Phys. Chem. Chem. Phys.
     2020, 22, 8499-8512. DOI: 10.1039/D0CP00502A
   
   for sTDA-xTB:
   * S. Grimme and C. Bannwarth, J. Chem. Phys., 2016, 145, 054103.
     DOI: 10.1063/1.4959605
   
   in the mass-spec context:
   * V. Asgeirsson, C. Bauer and S. Grimme, Chem. Sci., 2017, 8, 4879.
     DOI: 10.1039/c7sc00601b
   * J. Koopman and S. Grimme, ACS Omega 2019, 4, 12, 15120-15133.
     DOI: 10.1021/acsomega.9b02011
   
   for metadynamics refer to:
   * S. Grimme, J. Chem. Theory Comput., 2019, 155, 2847-2862
     DOI: 10.1021/acs.jctc.9b00143
   
   for SPH calculations refer to:
   * S. Spicher and S. Grimme, J. Chem. Theory Comput., 2021, 17, 1701-1714
     DOI: 10.1021/acs.jctc.0c01306
   
   for ONIOM refer to:
   * C. Plett, A. Katbashev, S. Ehlert, S. Grimme, M. Bursch,
     Phys. Chem. Chem. Phys., 2023, 25, 17860-17868. DOI: 10.1039/D3CP02178E
   
   for DIPRO refer to:
   * J. Kohn, N. Gildemeister, S. Grimme, D. Fazzi, A. Hansen,
     J. Chem. Phys., 2023, just accepted.
   
   for PTB refer to:
   * S. Grimme, M. Mueller, A. Hansen, J. Chem. Phys., 2023, 158, 124111.
     DOI: 10.1063/5.0137838
   
   with help from (in alphabetical order)
   P. Atkinson, C. Bannwarth, F. Bohle, G. Brandenburg, E. Caldeweyher
   M. Checinski, S. Dohm, S. Ehlert, S. Ehrlich, I. Gerasimov, C. Hölzer
   A. Katbashev, J. Kohn, J. Koopman, C. Lavigne, S. Lehtola, F. März, M. Müller,
   F. Musil, H. Neugebauer, J. Pisarek, C. Plett, P. Pracht, F. Pultar,
   J. Seibert, P. Shushkov, S. Spicher, M. Stahn, M. Steiner, T. Strunk,
   J. Stückrath, T. Rose, and J. Unsleber
   
 * started run on 2025/04/11 at 16:19:09.676     
   ID    Z sym.   atoms
    1    6 C      1, 3-8, 11, 13
    2    8 O      2, 9, 10, 14
    3   17 Cl     12
    4    1 H      15-23

           -------------------------------------------------
          |                Calculation Setup                |
           -------------------------------------------------

          program call               : /srv/scratch/z5358697/.xtb/bin/xtb xtb_rrho.coord --gfn2 --bhess vtight --chrg 0 --enso --norestart -I rrho-xcontrol-inp --parallel 1 --alpb water
          hostname                   : k071
          coordinate file            : xtb_rrho.coord
          omp threads                :                     1


           -------------------------------------------------
          |                 G F N 2 - x T B                 |
           -------------------------------------------------

        Reference                      10.1021/acs.jctc.8b01176
      * Hamiltonian:
        H0-scaling (s, p, d)           1.850000    2.230000    2.230000
        zeta-weighting                 0.500000
      * Dispersion:
        s8                             2.700000
        a1                             0.520000
        a2                             5.000000
        s9                             5.000000
      * Repulsion:
        kExp                           1.500000    1.000000
        rExp                           1.000000
      * Coulomb:
        alpha                          2.000000
        third order                    shell-resolved
        anisotropic                    true
        a3                             3.000000
        a5                             4.000000
        cn-shift                       1.200000
        cn-exp                         4.000000
        max-rad                        5.000000

      * Solvation model:               ALPB
        Solvent                        water
        Parameter file                 internal GFN2-xTB/ALPB
        Dielectric constant                8.0200E+01
        Reference state                gsolv [1 M gas/solution]
        Free energy shift                  1.0808E-03 Eh       6.7819E-01 kcal/mol
        Temperature                        2.9815E+02 K
        Density                            1.0000E+00 kg/L
        Solvent mass                       1.8000E+01 g/mol
        Interaction kernel             P16
        Born radius scaling (c1)           1.4744E+00
        Born radii integrator          GBOBC
        Born offset                        0.0000E+00 a0       0.0000E+00 AA
        H-bond correction              true
        Ion screening                  false
        Surface tension                    1.0000E-05 Eh       1.5569E+01 dyn/cm
        Grid points                               974 per atom

          ...................................................
          :                      SETUP                      :
          :.................................................:
          :  # basis functions                  71          :
          :  # atomic orbitals                  70          :
          :  # shells                           38          :
          :  # electrons                        76          :
          :  max. iterations                   250          :
          :  Hamiltonian                  GFN2-xTB          :
          :  restarted?                      false          :
          :  GBSA solvation                   true          :
          :  PC potential                    false          :
          :  electronic temp.          300.0000000     K    :
          :  accuracy                    1.0000000          :
          :  -> integral cutoff          0.2500000E+02      :
          :  -> integral neglect         0.1000000E-07      :
          :  -> SCF convergence          0.1000000E-05 Eh   :
          :  -> wf. convergence          0.1000000E-03 e    :
          :  Broyden damping             0.4000000          :
          :  net charge                          0          :
          :  unpaired electrons                  0          :
          ...................................................

 iter      E             dE          RMSdq      gap      omega  full diag
   1    -45.0313807 -0.450314E+02  0.549E+00    2.60       0.0  T
   2    -45.0892058 -0.578251E-01  0.272E+00    2.29       1.0  T
   3    -45.0888836  0.322207E-03  0.118E+00    2.52       1.0  T
   4    -45.0928234 -0.393985E-02  0.249E-01    2.36       1.0  T
   5    -45.0932881 -0.464706E-03  0.142E-01    2.40       1.0  T
   6    -45.0933424 -0.542510E-04  0.979E-02    2.39       1.0  T
   7    -45.0934189 -0.765181E-04  0.568E-02    2.38       1.0  T
   8    -45.0934413 -0.223893E-04  0.323E-02    2.38       1.0  T
   9    -45.0934513 -0.100250E-04  0.167E-02    2.38       1.3  T
  10    -45.0934544 -0.311861E-05  0.709E-03    2.38       2.9  T
  11    -45.0934547 -0.264188E-06  0.396E-03    2.38       5.3  T
  12    -45.0934548 -0.933732E-07  0.241E-03    2.38       8.7  T
  13    -45.0934548 -0.402746E-07  0.168E-03    2.38      12.4  T
  14    -45.0934549 -0.231373E-07  0.930E-04    2.38      22.4  T
  15    -45.0934549 -0.721231E-08  0.345E-04    2.38      60.4  T

   *** convergence criteria satisfied after 15 iterations ***

         #    Occupation            Energy/Eh            Energy/eV
      -------------------------------------------------------------
         1        2.0000           -1.0693167             -29.0976
       ...           ...                  ...                  ...
        32        2.0000           -0.4605286             -12.5316
        33        2.0000           -0.4437756             -12.0757
        34        2.0000           -0.4414410             -12.0122
        35        2.0000           -0.4321468             -11.7593
        36        2.0000           -0.4116140             -11.2006
        37        2.0000           -0.4026749             -10.9573
        38        2.0000           -0.3918364             -10.6624 (HOMO)
        39                         -0.3044320              -8.2840 (LUMO)
        40                         -0.2465764              -6.7097
        41                         -0.2110472              -5.7429
        42                         -0.1580723              -4.3014
        43                         -0.1160481              -3.1578
       ...                                ...                  ...
        70                          0.6342988              17.2601
      -------------------------------------------------------------
                  HL-Gap            0.0874044 Eh            2.3784 eV
             Fermi-level           -0.3481342 Eh           -9.4732 eV

 SCC (total)                   0 d,  0 h,  0 min,  0.035 sec
 SCC setup                      ...        0 min,  0.002 sec (  4.555%)
 Dispersion                     ...        0 min,  0.000 sec (  0.545%)
 classical contributions        ...        0 min,  0.000 sec (  0.087%)
 integral evaluation            ...        0 min,  0.005 sec ( 13.216%)
 iterations                     ...        0 min,  0.018 sec ( 51.075%)
 molecular gradient             ...        0 min,  0.010 sec ( 29.885%)
 printout                       ...        0 min,  0.000 sec (  0.583%)

         :::::::::::::::::::::::::::::::::::::::::::::::::::::
         ::                     SUMMARY                     ::
         :::::::::::::::::::::::::::::::::::::::::::::::::::::
         :: total energy             -44.656717323096 Eh    ::
         :: total w/o Gsasa/hb       -44.654299571971 Eh    ::
         :: gradient norm              0.040274499253 Eh/a0 ::
         :: HOMO-LUMO gap              2.378395513349 eV    ::
         ::.................................................::
         :: SCC energy               -45.093378120848 Eh    ::
         :: -> isotropic ES            0.094844469778 Eh    ::
         :: -> anisotropic ES          0.001352327863 Eh    ::
         :: -> anisotropic XC          0.002583284935 Eh    ::
         :: -> dispersion             -0.022365239645 Eh    ::
         :: -> Gsolv                  -0.020930426604 Eh    ::
         ::    -> Gelec               -0.018512675479 Eh    ::
         ::    -> Gsasa                0.003279887453 Eh    ::
         ::    -> Ghb                 -0.006778398276 Eh    ::
         ::    -> Gshift               0.001080759698 Eh    ::
         :: repulsion energy           0.436660797752 Eh    ::
         :: add. restraining           0.000000000000 Eh    ::
         :: total charge              -0.000000000000 e     ::
         :::::::::::::::::::::::::::::::::::::::::::::::::::::

metadynamics with 1 initial structures loaded
           -------------------------------------------------
          |           Optimal kpush determination           |
           -------------------------------------------------
      ----------------------------------------------------------- 
     |                   =====================                   |
     |                        A N C O P T                        |
     |                   =====================                   |
     |               Approximate Normal Coordinate               |
     |                Rational Function Optimizer                |
      ----------------------------------------------------------- 
target rmsd / Å         0.100000
unbiased initial rmsd   0.192634
 
iter. min.        max.        rmsd       kpush
      ----------------------------------------------------------- 
     |                   =====================                   |
     |                        A N C O P T                        |
     |                   =====================                   |
     |               Approximate Normal Coordinate               |
     |                Rational Function Optimizer                |
      ----------------------------------------------------------- 
 1    0.000000    1.045455    0.015172   -0.522727
      ----------------------------------------------------------- 
     |                   =====================                   |
     |                        A N C O P T                        |
     |                   =====================                   |
     |               Approximate Normal Coordinate               |
     |                Rational Function Optimizer                |
      ----------------------------------------------------------- 
 2    0.000000    0.522727    0.022381   -0.261364
      ----------------------------------------------------------- 
     |                   =====================                   |
     |                        A N C O P T                        |
     |                   =====================                   |
     |               Approximate Normal Coordinate               |
     |                Rational Function Optimizer                |
      ----------------------------------------------------------- 
 3    0.000000    0.261364    0.033604   -0.130682
      ----------------------------------------------------------- 
     |                   =====================                   |
     |                        A N C O P T                        |
     |                   =====================                   |
     |               Approximate Normal Coordinate               |
     |                Rational Function Optimizer                |
      ----------------------------------------------------------- 
 4    0.000000    0.130682    0.050465   -0.065341
      ----------------------------------------------------------- 
     |                   =====================                   |
     |                        A N C O P T                        |
     |                   =====================                   |
     |               Approximate Normal Coordinate               |
     |                Rational Function Optimizer                |
      ----------------------------------------------------------- 
 5    0.000000    0.065341    0.072309   -0.032670
      ----------------------------------------------------------- 
     |                   =====================                   |
     |                        A N C O P T                        |
     |                   =====================                   |
     |               Approximate Normal Coordinate               |
     |                Rational Function Optimizer                |
      ----------------------------------------------------------- 
 6    0.000000    0.032670    0.095672   -0.016335
      ----------------------------------------------------------- 
     |                   =====================                   |
     |                        A N C O P T                        |
     |                   =====================                   |
     |               Approximate Normal Coordinate               |
     |                Rational Function Optimizer                |
      ----------------------------------------------------------- 
 7    0.000000    0.016335    0.116947   -0.008168
      ----------------------------------------------------------- 
     |                   =====================                   |
     |                        A N C O P T                        |
     |                   =====================                   |
     |               Approximate Normal Coordinate               |
     |                Rational Function Optimizer                |
      ----------------------------------------------------------- 
 8    0.008168    0.016335    0.104960   -0.012251
      ----------------------------------------------------------- 
     |                   =====================                   |
     |                        A N C O P T                        |
     |                   =====================                   |
     |               Approximate Normal Coordinate               |
     |                Rational Function Optimizer                |
      ----------------------------------------------------------- 
 9    0.012251    0.016335    0.099971   -0.014293
final kpush: -0.014293
           -------------------------------------------------
          |            Biased Numerical Hessian             |
           -------------------------------------------------
kpush                :  -0.01429
alpha                :   1.00000
step length          :   0.00500
SCC accuracy         :   0.30000
Hessian scale factor :   1.00000
frozen atoms in %    :   0.00000    0
RMS gradient         :   0.00006
estimated CPU  time      0.04 min
estimated wall time      0.04 min

writing file <hessian>.

 projected vibrational frequencies (cm⁻¹)
eigval :       -0.00    -0.00     0.00     0.00     0.00     0.00
eigval :       62.52    72.94    87.50   103.71   138.70   168.77
eigval :      166.31   188.32   203.83   208.56   241.94   252.10
eigval :      276.87   325.68   343.85   358.58   386.94   425.34
eigval :      512.67   513.48   541.66   579.82   603.31   634.79
eigval :      670.03   724.60   813.75   862.73   909.00   927.38
eigval :     1004.04  1049.40  1074.39  1107.86  1107.70  1140.22
eigval :     1141.90  1147.71  1148.87  1218.84  1323.73  1339.55
eigval :     1380.99  1387.98  1394.12  1422.80  1441.97  1443.98
eigval :     1449.54  1459.58  1463.32  1525.68  1550.69  1661.38
eigval :     2776.41  2956.75  2965.30  2993.41  3000.01  3015.93
eigval :     3043.35  3119.95  3312.25
           -------------------------------------------------
          |                Property Printout                |
           -------------------------------------------------

    * Orbital Energies and Occupations

         #    Occupation            Energy/Eh            Energy/eV
      -------------------------------------------------------------
         1        2.0000           -1.0695818             -29.1048
       ...           ...                  ...                  ...
        26        2.0000           -0.5000277             -13.6064
        27        2.0000           -0.4968746             -13.5206
        28        2.0000           -0.4913723             -13.3709
        29        2.0000           -0.4767266             -12.9724
        30        2.0000           -0.4740135             -12.8986
        31        2.0000           -0.4661446             -12.6844
        32        2.0000           -0.4584677             -12.4755
        33        2.0000           -0.4503374             -12.2543
        34        2.0000           -0.4406639             -11.9911
        35        2.0000           -0.4331182             -11.7857
        36        2.0000           -0.4066431             -11.0653
        37        2.0000           -0.3964931             -10.7891
        38        2.0000           -0.3887608             -10.5787 (HOMO)
        39                         -0.3014177              -8.2020 (LUMO)
        40                         -0.2414770              -6.5709
        41                         -0.2063836              -5.6160
        42                         -0.1521487              -4.1402
        43                         -0.1111622              -3.0249
        44                         -0.0166807              -0.4539
        45                          0.0009233               0.0251
        46                          0.0068354               0.1860
        47                          0.0070592               0.1921
        48                          0.0179390               0.4881
        49                          0.0303518               0.8259
       ...                                ...                  ...
        70                          0.6504931              17.7008
      -------------------------------------------------------------
                  HL-Gap            0.0873430 Eh            2.3767 eV
             Fermi-level           -0.3450893 Eh           -9.3904 eV

     #   Z          covCN         q      C6AA      α(0)
     1   6 C        3.644     0.004    20.858     6.564
     2   8 O        1.705    -0.259    18.288     5.774
     3   6 C        2.857     0.129    25.172     8.223
     4   6 C        2.926    -0.079    29.973     8.978
     5   6 C        2.995    -0.036    28.893     8.817
     6   6 C        2.879     0.072    26.398     8.423
     7   6 C        2.880     0.100    25.783     8.324
     8   6 C        2.848     0.127    25.217     8.230
     9   8 O        1.659    -0.383    20.522     6.116
    10   8 O        1.704    -0.285    18.731     5.843
    11   6 C        3.636     0.010    20.791     6.560
    12  17 Cl       0.955    -0.159   104.122    15.611
    13   6 C        2.771     0.215    23.456     7.932
    14   8 O        0.857    -0.424    22.164     6.312
    15   1 H        0.924     0.067     2.118     2.276
    16   1 H        0.924     0.066     2.125     2.279
    17   1 H        0.925     0.098     1.804     2.100
    18   1 H        0.926     0.090     1.881     2.145
    19   1 H        0.803     0.400     0.485     1.094
    20   1 H        0.925     0.091     1.866     2.136
    21   1 H        0.925     0.066     2.130     2.282
    22   1 H        0.925     0.059     2.215     2.328
    23   1 H        0.922     0.032     2.561     2.503

 Mol. C6AA /au·bohr⁶  :       7247.165458
 Mol. C8AA /au·bohr⁸  :     184869.509131
 Mol. α(0) /au        :        130.852240


Wiberg/Mayer (AO) data.
largest (>0.10) Wiberg bond orders for each atom

 ---------------------------------------------------------------------------
     #   Z sym  total        # sym  WBO       # sym  WBO       # sym  WBO
 ---------------------------------------------------------------------------
     1   6 C    3.916 --    16 H    0.975    15 H    0.975    17 H    0.975
                             2 O    0.961
     2   8 O    2.247 --     3 C    1.094     1 C    0.961
     3   6 C    3.950 --     4 C    1.416     8 C    1.251     2 O    1.094
     4   6 C    3.981 --     3 C    1.416     5 C    1.319    18 H    0.955
     5   6 C    3.983 --     4 C    1.319     6 C    1.313    13 C    1.117
     6   6 C    3.914 --     7 C    1.366     5 C    1.313    12 Cl   0.983
     7   6 C    3.947 --     6 C    1.366     8 C    1.296    10 O    1.053
     8   6 C    3.957 --     7 C    1.296     3 C    1.251     9 O    1.150
     9   8 O    2.147 --     8 C    1.150    19 H    0.809
    10   8 O    2.183 --     7 C    1.053    11 C    0.949
    11   6 C    3.918 --    22 H    0.982    21 H    0.978    20 H    0.974
                            10 O    0.949
    12  17 Cl   1.140 --     6 C    0.983
    13   6 C    3.913 --    14 O    1.780     5 C    1.117    23 H    0.931
    14   8 O    2.006 --    13 C    1.780
    15   1 H    0.995 --     1 C    0.975
    16   1 H    0.995 --     1 C    0.975
    17   1 H    0.990 --     1 C    0.975
    18   1 H    0.992 --     4 C    0.955
    19   1 H    0.840 --     9 O    0.809
    20   1 H    0.991 --    11 C    0.974
    21   1 H    0.995 --    11 C    0.978
    22   1 H    0.996 --    11 C    0.982
    23   1 H    0.998 --    13 C    0.931
 ---------------------------------------------------------------------------

Topologies differ in total number of bonds
Writing topology from bond orders to xtbtopo.mol

molecular dipole:
                 x           y           z       tot (Debye)
 q only:       -1.945       1.766       0.434
   full:       -1.546       1.251       0.442       5.179
molecular quadrupole (traceless):
                xx          xy          yy          xz          yz          zz
 q only:        5.343      24.228      -3.522       2.002       1.946      -1.821
  q+dip:        3.607      24.766      -2.775       0.808       2.342      -0.832
   full:        3.727      25.108      -4.610       1.324       2.698       0.882

           -------------------------------------------------
          |                Geometry Summary                 |
           -------------------------------------------------

      molecular mass/u    :      216.6186471
   center of mass at/Å    :        0.0128854      -0.0040452      -0.0509237
  moments of inertia/u·Å² :        0.6300598E+03   0.9688197E+03   0.1572056E+04
rotational constants/cm⁻¹ :        0.2675561E-01   0.1740017E-01   0.1072330E-01

 * 21 selected distances

     #   Z          #   Z                                           value/Å
     1   6 C        2   8 O                                       1.4182206
     2   8 O        3   6 C                                       1.3518407
     3   6 C        4   6 C                                       1.3796652
     4   6 C        5   6 C                                       1.4027013
     5   6 C        6   6 C                                       1.4042933
     6   6 C        7   6 C                                       1.3920587
     3   6 C        8   6 C                                       1.4100169
     7   6 C        8   6 C                                       1.4065560
     8   6 C        9   8 O                                       1.3369316
     7   6 C       10   8 O                                       1.3685510
    10   8 O       11   6 C                                       1.4259343
     6   6 C       12  17 Cl                                      1.7315129 (max)
    13   6 C       14   8 O                                       1.2168586
     1   6 C       15   1 H                                       1.0922052
     1   6 C       16   1 H                                       1.0922126
     1   6 C       17   1 H                                       1.0869921
     4   6 C       18   1 H                                       1.0769921
     9   8 O       19   1 H                                       0.9772859 (min)
    11   6 C       20   1 H                                       1.0887917
    11   6 C       21   1 H                                       1.0896047
    11   6 C       22   1 H                                       1.0895801

 * 5 distinct bonds (by element types)

   Z      Z             #   av. dist./Å        max./Å        min./Å
   1 H    6 C           7     1.0880541     1.0922126     1.0769921
   6 C    6 C           6     1.3992152     1.4100169     1.3796652
   1 H    8 O           1     0.9772859     0.9772859     0.9772859
   6 C    8 O           6     1.3530561     1.4259343     1.2168586
   6 C   17 Cl          1     1.7315129     1.7315129     1.7315129

           -------------------------------------------------
          |               Frequency Printout                |
           -------------------------------------------------
 projected vibrational frequencies (cm⁻¹)
eigval :       -0.00    -0.00     0.00     0.00     0.00     0.00
eigval :       62.52    72.94    87.50   103.71   138.70   168.77
eigval :      166.31   188.32   203.83   208.56   241.94   252.10
eigval :      276.87   325.68   343.85   358.58   386.94   425.34
eigval :      512.67   513.48   541.66   579.82   603.31   634.79
eigval :      670.03   724.60   813.75   862.73   909.00   927.38
eigval :     1004.04  1049.40  1074.39  1107.86  1107.70  1140.22
eigval :     1141.90  1147.71  1148.87  1218.84  1323.73  1339.55
eigval :     1380.99  1387.98  1394.12  1422.80  1441.97  1443.98
eigval :     1449.54  1459.58  1463.32  1525.68  1550.69  1661.38
eigval :     2776.41  2956.75  2965.30  2993.41  3000.01  3015.93
eigval :     3043.35  3119.95  3312.25
 reduced masses (amu)
   1: 17.73   2: 14.24   3: 19.09   4: 15.24   5: 16.85   6: 14.18   7: 23.16   8: 11.71
   9: 11.22  10: 13.09  11: 12.84  12: 12.25  13: 10.39  14: 20.81  15: 12.49  16: 10.89
  17:  9.49  18:  9.66  19: 13.41  20: 16.14  21: 12.06  22: 12.29  23: 11.77  24: 14.86
  25: 13.41  26:  5.53  27:  9.28  28: 12.20  29: 13.03  30: 12.86  31: 11.99  32: 11.66
  33:  3.46  34: 12.09  35:  6.19  36: 11.81  37: 12.01  38: 12.19  39: 11.25  40:  3.68
  41:  3.67  42:  7.98  43:  5.46  44:  8.76  45:  6.51  46:  6.25  47: 10.74  48: 10.47
  49:  4.95  50:  4.47  51:  3.89  52:  8.76  53: 10.61  54:  1.80  55:  1.53  56:  1.67
  57:  1.54  58: 11.78  59: 11.55  60: 13.39  61:  1.67  62:  1.96  63:  1.43  64:  1.96
  65:  1.47  66:  1.69  67:  1.72  68:  1.82  69:  1.85
 IR intensities (km·mol⁻¹)
   1:  0.45   2:  0.62   3:  0.10   4:  0.13   5:  0.29   6:  0.47   7:  1.94   8: 10.25
   9:  0.74  10:  5.99  11: 14.27  12:  5.44  13:  5.74  14:  2.12  15:  6.57  16:  0.14
  17:  4.96  18:  6.43  19:  1.77  20:  4.25  21:  0.06  22:  3.94  23:  1.50  24:  0.11
  25:  9.64  26:153.42  27: 89.24  28: 16.47  29: 28.94  30:  1.49  31:  3.54  32:158.86
  33: 23.24  34: 73.78  35:  0.41  36: 17.00  37: 12.02  38:120.47  39:339.15  40: 11.11
  41: 19.02  42:650.56  43: 49.26  44:205.82  45: 35.00  46: 53.65  47:750.20  48:640.70
  49: 93.19  50:113.98  51: 59.58  52:270.66  53:756.27  54: 33.81  55: 12.31  56: 15.20
  57: 32.21  58: 58.86  59:137.91  60:718.30  61:224.60  62: 32.25  63: 35.98  64: 25.78
  65: 26.96  66: 20.42  67:  5.11  68:  3.08  69:341.30
 Raman intensities (Ä⁴*amu⁻¹)
   1:  0.00   2:  0.00   3:  0.00   4:  0.00   5:  0.00   6:  0.00   7:  0.00   8:  0.00
   9:  0.00  10:  0.00  11:  0.00  12:  0.00  13:  0.00  14:  0.00  15:  0.00  16:  0.00
  17:  0.00  18:  0.00  19:  0.00  20:  0.00  21:  0.00  22:  0.00  23:  0.00  24:  0.00
  25:  0.00  26:  0.00  27:  0.00  28:  0.00  29:  0.00  30:  0.00  31:  0.00  32:  0.00
  33:  0.00  34:  0.00  35:  0.00  36:  0.00  37:  0.00  38:  0.00  39:  0.00  40:  0.00
  41:  0.00  42:  0.00  43:  0.00  44:  0.00  45:  0.00  46:  0.00  47:  0.00  48:  0.00
  49:  0.00  50:  0.00  51:  0.00  52:  0.00  53:  0.00  54:  0.00  55:  0.00  56:  0.00
  57:  0.00  58:  0.00  59:  0.00  60:  0.00  61:  0.00  62:  0.00  63:  0.00  64:  0.00
  65:  0.00  66:  0.00  67:  0.00  68:  0.00  69:  0.00
 output can be read by thermo (or use thermo option).
 writing <g98.out> molden fake output.
 recommended (thermochemical) frequency scaling factor: 1.0
           -------------------------------------------------
          |             Thermodynamic Functions             |
           -------------------------------------------------

Molecule has no symmetry elements
It seems to be the C1 point group
c1  symmetry found (for desy threshold:  0.10E+00) used in thermo

          ...................................................
          :                      SETUP                      :
          :.................................................:
          :  # frequencies                          63      :
          :  # imaginary freq.                       0      :
          :  linear?                             false      :
          :  only rotor calc.                    false      :
          :  symmetry                               c1      :
          :  rotational number                       1      :
          :  scaling factor                  1.0000000      :
          :  rotor cutoff                    0.0000000 cm⁻¹ :
          :  imag. cutoff                 -100.0000000 cm⁻¹ :
          :.................................................:

    mode    ω/cm⁻¹     T·S(HO)/kcal·mol⁻¹    T·S(FR)/kcal·mol⁻¹   T·S(vib)
   ------------------------------------------------------------------------
       1     62.52    -1.30471 (100.00%)    -0.99027 (  0.00%)    -1.30471
       2     72.94    -1.21418 (100.00%)    -0.94462 (  0.00%)    -1.21418
       3     87.50    -1.10768 (100.00%)    -0.89071 (  0.00%)    -1.10768
       4    103.71    -1.00872 (100.00%)    -0.84036 (  0.00%)    -1.00872
       5    138.70    -0.84128 (100.00%)    -0.75426 (  0.00%)    -0.84128
       6    168.77    -0.73020 (100.00%)    -0.69613 (  0.00%)    -0.73020
       7    166.31    -0.73844 (100.00%)    -0.70048 (  0.00%)    -0.73844
       8    188.32    -0.66913 (100.00%)    -0.66367 (  0.00%)    -0.66913
       9    203.83    -0.62560 (100.00%)    -0.64023 (  0.00%)    -0.62560
      10    208.56    -0.61306 (100.00%)    -0.63343 (  0.00%)    -0.61306
      11    241.94    -0.53327 (100.00%)    -0.58946 (  0.00%)    -0.53327
      12    252.10    -0.51158 (100.00%)    -0.57727 (  0.00%)    -0.51158
      13    276.87    -0.46301 (100.00%)    -0.54951 (  0.00%)    -0.46301
   ------------------------------------------------------------------------

   temp. (K)  partition function   enthalpy   heat capacity  entropy
                                   cal/mol     cal/K/mol   cal/K/mol   J/K/mol
 298.15  VIB  0.356E+05             7340.071     46.469     45.443
         ROT  0.237E+07              888.752      2.981     32.148
         INT  0.841E+11             8228.823     49.450     77.591
         TR   0.308E+28             1481.254      4.968     42.003
         TOT                        9710.0771    54.4183   119.5937   500.3799

       T/K    H(0)-H(T)+PV         H(T)/Eh          T*S/Eh         G(T)/Eh
   ------------------------------------------------------------------------
    298.15    0.154740E-01    0.176940E+00    0.568228E-01    0.120117E+00
   ------------------------------------------------------------------------

         :::::::::::::::::::::::::::::::::::::::::::::::::::::
         ::                  THERMODYNAMIC                  ::
         :::::::::::::::::::::::::::::::::::::::::::::::::::::
         :: total free energy         -44.554549257502 Eh   ::
         ::.................................................::
         :: total energy              -44.674666209356 Eh   ::
         :: zero point energy           0.161465769626 Eh   ::
         :: G(RRHO) w/o ZPVE           -0.041348817772 Eh   ::
         :: G(RRHO) contrib.            0.120116951854 Eh   ::
         :::::::::::::::::::::::::::::::::::::::::::::::::::::

optimized geometry written to: xtbopt.coord


           -------------------------------------------------
          | TOTAL ENERGY              -44.674666209356 Eh   |
          | TOTAL ENTHALPY            -44.497726446901 Eh   |
          | TOTAL FREE ENERGY         -44.554549257502 Eh   |
          | GRADIENT NORM               0.000056536287 Eh/α |
          | HOMO-LUMO GAP               2.376724969921 eV   |
           -------------------------------------------------

------------------------------------------------------------------------
 * finished run on 2025/04/11 at 16:19:16.791     
------------------------------------------------------------------------
 total:
 * wall-time:     0 d,  0 h,  0 min,  7.115 sec
 *  cpu-time:     0 d,  0 h,  0 min,  6.913 sec
 * ratio c/w:     0.972 speedup
 SCF:
 * wall-time:     0 d,  0 h,  0 min,  0.035 sec
 *  cpu-time:     0 d,  0 h,  0 min,  0.034 sec
 * ratio c/w:     0.982 speedup
 analytical hessian:
 * wall-time:     0 d,  0 h,  0 min,  2.607 sec
 *  cpu-time:     0 d,  0 h,  0 min,  2.591 sec
 * ratio c/w:     0.994 speedup

