      -----------------------------------------------------------      
     |                   =====================                   |     
     |                           x T B                           |     
     |                   =====================                   |     
     |                         S. Grimme                         |     
     |          Mulliken Center for Theoretical Chemistry        |     
     |                    University of Bonn                     |     
      -----------------------------------------------------------      

   * xtb version 6.7.1 (edcfbbe) compiled by 'albert@albert-system' on 2024-07-22

   xtb is free software: you can redistribute it and/or modify it under
   the terms of the GNU Lesser General Public License as published by
   the Free Software Foundation, either version 3 of the License, or
   (at your option) any later version.
   
   xtb is distributed in the hope that it will be useful,
   but WITHOUT ANY WARRANTY; without even the implied warranty of
   MERCHANTABILITY or FITNESS FOR A PARTICULAR PURPOSE.  See the
   GNU Lesser General Public License for more details.
   
   Cite this work as:
   * C. Bannwarth, E. Caldeweyher, S. Ehlert, A. Hansen, P. Pracht,
     J. Seibert, S. Spicher, S. Grimme, WIREs Comput. Mol. Sci., 2020, 11,
     e01493. DOI: 10.1002/wcms.1493
   
   for GFN2-xTB:
   * C. Bannwarth, S. Ehlert and S. Grimme., J. Chem. Theory Comput., 2019,
     15, 1652-1671. DOI: 10.1021/acs.jctc.8b01176
   for GFN1-xTB:
   * S. Grimme, C. Bannwarth, P. Shushkov, J. Chem. Theory Comput., 2017,
     13, 1989-2009. DOI: 10.1021/acs.jctc.7b00118
   for GFN0-xTB:
   * P. Pracht, E. Caldeweyher, S. Ehlert, S. Grimme, ChemRxiv, 2019, preprint.
     DOI: 10.26434/chemrxiv.8326202.v1
   for GFN-FF:
   * S. Spicher and S. Grimme, Angew. Chem. Int. Ed., 2020, 59, 15665-15673.
     DOI: 10.1002/anie.202004239
   
   for ALPB and GBSA implicit solvation:
   * S. Ehlert, M. Stahn, S. Spicher, S. Grimme, J. Chem. Theory Comput.,
     2021, 17, 4250-4261. DOI: 10.1021/acs.jctc.1c00471
   
   for ddCOSMO and CPCM-X implicit solvation:
   * M. Stahn, S. Ehlert, S. Grimme, J. Phys. Chem. A,
     2023, XX, XXXX-XXXX. DOI: 10.1021/acs.jpca.3c04382
   
   for DFT-D4:
   * E. Caldeweyher, C. Bannwarth and S. Grimme, J. Chem. Phys., 2017,
     147, 034112. DOI: 10.1063/1.4993215
   * E. Caldeweyher, S. Ehlert, A. Hansen, H. Neugebauer, S. Spicher,
     C. Bannwarth and S. Grimme, J. Chem. Phys., 2019, 150, 154122.
     DOI: 10.1063/1.5090222
   * E. Caldeweyher, J.-M. Mewes, S. Ehlert and S. Grimme, Phys. Chem. Chem. Phys.
     2020, 22, 8499-8512. DOI: 10.1039/D0CP00502A
   
   for sTDA-xTB:
   * S. Grimme and C. Bannwarth, J. Chem. Phys., 2016, 145, 054103.
     DOI: 10.1063/1.4959605
   
   in the mass-spec context:
   * V. Asgeirsson, C. Bauer and S. Grimme, Chem. Sci., 2017, 8, 4879.
     DOI: 10.1039/c7sc00601b
   * J. Koopman and S. Grimme, ACS Omega 2019, 4, 12, 15120-15133.
     DOI: 10.1021/acsomega.9b02011
   
   for metadynamics refer to:
   * S. Grimme, J. Chem. Theory Comput., 2019, 155, 2847-2862
     DOI: 10.1021/acs.jctc.9b00143
   
   for SPH calculations refer to:
   * S. Spicher and S. Grimme, J. Chem. Theory Comput., 2021, 17, 1701-1714
     DOI: 10.1021/acs.jctc.0c01306
   
   for ONIOM refer to:
   * C. Plett, A. Katbashev, S. Ehlert, S. Grimme, M. Bursch,
     Phys. Chem. Chem. Phys., 2023, 25, 17860-17868. DOI: 10.1039/D3CP02178E
   
   for DIPRO refer to:
   * J. Kohn, N. Gildemeister, S. Grimme, D. Fazzi, A. Hansen,
     J. Chem. Phys., 2023, just accepted.
   
   for PTB refer to:
   * S. Grimme, M. Mueller, A. Hansen, J. Chem. Phys., 2023, 158, 124111.
     DOI: 10.1063/5.0137838
   
   with help from (in alphabetical order)
   P. Atkinson, C. Bannwarth, F. Bohle, G. Brandenburg, E. Caldeweyher
   M. Checinski, S. Dohm, S. Ehlert, S. Ehrlich, I. Gerasimov, C. Hölzer
   A. Katbashev, J. Kohn, J. Koopman, C. Lavigne, S. Lehtola, F. März, M. Müller,
   F. Musil, H. Neugebauer, J. Pisarek, C. Plett, P. Pracht, F. Pultar,
   J. Seibert, P. Shushkov, S. Spicher, M. Stahn, M. Steiner, T. Strunk,
   J. Stückrath, T. Rose, and J. Unsleber
   
 * started run on 2025/04/11 at 16:53:41.072     
   ID    Z sym.   atoms
    1    6 C      1-5, 8
    2    8 O      6, 7
    3    1 H      9-20

           -------------------------------------------------
          |                Calculation Setup                |
           -------------------------------------------------

          program call               : /srv/scratch/z5358697/.xtb/bin/xtb xtb_opt.coord --opt normal --orca -I xtb_opt-xcontrol-inp
          hostname                   : k068
          coordinate file            : xtb_opt.coord
          omp threads                :                    16

           -------------------------------------------------
          |                   Orca driver                   |
           -------------------------------------------------
orca executable           : /apps/z_install_tree/linux-rocky8-ivybridge/gcc-12.2.0/orca-6.0.0-srtngmq3qlimg2qxbl6avaaiffipurdx/bin/orca
orca input file           : xtb_opt.inp
orca input line           : 
orca parallel             : true
orca number of threads    : 16
                         * ORCA takes the control...
  ------------------------------------------------------------------------

                                 *****************
                                 * O   R   C   A *
                                 *****************

                                            #,                                       
                                            ###                                      
                                            ####                                     
                                            #####                                    
                                            ######                                   
                                           ########,                                 
                                     ,,################,,,,,                         
                               ,,#################################,,                 
                          ,,##########################################,,             
                       ,#########################################, ''#####,          
                    ,#############################################,,   '####,        
                  ,##################################################,,,,####,       
                ,###########''''           ''''###############################       
              ,#####''   ,,,,##########,,,,          '''####'''          '####       
            ,##' ,,,,###########################,,,                        '##       
           ' ,,###''''                  '''############,,,                           
         ,,##''                                '''############,,,,        ,,,,,,###''
      ,#''                                            '''#######################'''  
     '                                                          ''''####''''         
             ,#######,   #######,   ,#######,      ##                                
            ,#'     '#,  ##    ##  ,#'     '#,    #''#        ,####,   ,####,        
            ##       ##  ##   ,#'  ##            #'  '#       #'       #'  '#        
            ##       ##  #######   ##           ,######,      #####,   #    #        
            '#,     ,#'  ##    ##  '#,     ,#' ,#      #,     #,   #   #,  ,#        
             '#######'   ##     ##  '#######'  #'      '#     '####' # '####'        



                #########################################################
                #                        -***-                          #
                #          Department of theory and spectroscopy        #
                #                                                       #
                #                      Frank Neese                      #
                #                                                       #
                #     Directorship, Architecture, Infrastructure        #
                #                    SHARK, DRIVERS                     #
                #        Core code/Algorithms in most modules           #
                #                                                       #
                #        Max Planck Institute fuer Kohlenforschung      #
                #                Kaiser Wilhelm Platz 1                 #
                #                 D-45470 Muelheim/Ruhr                 #
                #                      Germany                          #
                #                                                       #
                #                  All rights reserved                  #
                #                        -***-                          #
                #########################################################


                         Program Version 6.0.0  -   RELEASE  -


 With contributions from (in alphabetic order):
   Daniel Aravena         : Magnetic Suceptibility
   Michael Atanasov       : Ab Initio Ligand Field Theory (pilot matlab implementation)
   Alexander A. Auer      : GIAO ZORA, VPT2 properties, NMR spectrum
   Ute Becker             : All parallelization in ORCA, NUMFREQ, NUMCALC
   Giovanni Bistoni       : ED, misc. LED, open-shell LED, HFLD
   Martin Brehm           : Molecular dynamics
   Dmytro Bykov           : pre 5.0 version of the SCF Hessian
   Marcos Casanova-Páez   : Triplet and SCS-CIS(D). UHF-(DLPNO)-IP/EA/STEOM-CCSD. UHF-CVS-IP/STEOM-CCSD
   Vijay G. Chilkuri      : MRCI spin determinant printing, contributions to CSF-ICE
   Pauline Colinet        : FMM embedding
   Dipayan Datta          : RHF DLPNO-CCSD density
   Achintya Kumar Dutta   : EOM-CC, STEOM-CC
   Nicolas Foglia         : Exact transition moments, OPA infrastructure, MCD improvements
   Dmitry Ganyushin       : Spin-Orbit,Spin-Spin,Magnetic field MRCI
   Miquel Garcia          : C-PCM and meta-GGA Hessian, CCSD/C-PCM, Gaussian charge scheme
   Tiago L. C. Gouveia    : GS-ROHF, GS-ROCIS
   Yang Guo               : DLPNO-NEVPT2, F12-NEVPT2, CIM, IAO-localization
   Andreas Hansen         : Spin unrestricted coupled pair/coupled cluster methods
   Ingolf Harden          : AUTO-CI MPn and infrastructure 
   Benjamin Helmich-Paris : MC-RPA, TRAH-(SCF,CASSCF), AVAS, COSX integrals, SCF dyn. polar.
   Lee Huntington         : MR-EOM, pCC
   Robert Izsak           : Overlap fitted RIJCOSX, COSX-SCS-MP3, EOM
   Riya Kayal             : Wick's Theorem for AUTO-CI, AUTO-CI UHF-CCSDT
   Emily Kempfer          : AUTO-CI, RHF CISDT and CCSDT
   Christian Kollmar      : KDIIS, OOCD, Brueckner-CCSD(T), CCSD density, CASPT2, CASPT2-K, improved NEVPT2
   Axel Koslowski         : Symmetry handling
   Simone Kossmann        : Meta GGA functionals, TD-DFT gradient, OOMP2, (MP2 Hessian; deprecated post 5.0)
   Lucas Lang             : DCDCAS
   Marvin Lechner         : AUTO-CI (C++ implementation), FIC-MRCC
   Spencer Leger          : CASSCF response
   Dagmar Lenk            : GEPOL surface, SMD, ORCA-2-JSON
   Dimitrios Liakos       : Extrapolation schemes; Compound Job, initial MDCI parallelization
   Dimitrios Manganas     : Further ROCIS development; embedding schemes. LFT, Crystal Embedding
   Dimitrios Pantazis     : SARC Basis sets
   Anastasios Papadopoulos: AUTO-CI, single reference methods and gradients
   Taras Petrenko         : pre 6.0 DFT Hessian and TD-DFT gradient, (ASA, deprecated), ECA, 1-Electron XAS/XES, NRVS
   Peter Pinski           : DLPNO-MP2, DLPNO-MP2 Gradient
   Christoph Reimann      : Effective Core Potentials
   Marius Retegan         : Local ZFS, SOC
   Christoph Riplinger    : Optimizer, TS searches, QM/MM, DLPNO-CCSD(T), (RO)-DLPNO pert. Triples
   Michael Roemelt        : Original ROCIS implementation
   Masaaki Saitow         : Open-shell DLPNO-CCSD energy and density
   Barbara Sandhoefer     : DKH picture change effects
   Kantharuban Sivalingam : CASSCF convergence/infrastructure, NEVPT2 and variants, FIC-MRCI
   Bernardo de Souza      : ESD, SOC TD-DFT
   Georgi Stoychev        : AutoAux, RI-MP2 NMR, DLPNO-MP2 response, X2C
   Van Anh Tran           : RI-MP2 g-tensors
   Willem Van den Heuvel  : Paramagnetic NMR
   Zikuan Wang            : NOTCH, Electric field optimization 
   Frank Wennmohs         : Technical directorship and infrastructure
   Hang Xu                : AUTO-CI-Response properties 


 We gratefully acknowledge several colleagues who have allowed us to
 interface, adapt or use parts of their codes:
   Stefan Grimme, W. Hujo, H. Kruse, P. Pracht,  : VdW corrections, initial TS optimization,
                  C. Bannwarth, S. Ehlert,         DFT functionals, gCP, sTDA/sTD-DF
                  L. Wittmann, M. Mueller
   Ed Valeev, F. Pavosevic, A. Kumar             : LibInt (2-el integral package), F12 methods
   Garnet Chan, S. Sharma, J. Yang, R. Olivares  : DMRG
   Ulf Ekstrom                                   : XCFun DFT Library
   Mihaly Kallay                                 : mrcc  (arbitrary order and MRCC methods)
   Frank Weinhold                                : gennbo (NPA and NBO analysis)
   Simon Mueller                                 : openCOSMO-RS
   Christopher J. Cramer and Donald G. Truhlar   : smd solvation model
   Lars Goerigk                                  : TD-DFT with DH, B97 family of functionals
   V. Asgeirsson, H. Jonsson                     : NEB implementation
   FAccTs GmbH                                   : IRC, NEB, NEB-TS, DLPNO-Multilevel, CI-OPT
                                                   MM, QMMM, 2- and 3-layer-ONIOM, Crystal-QMMM,
                                                   LR-CPCM, SF, NACMEs, symmetry and pop. for TD-DFT,
                                                   nearIR, NL-DFT gradient (VV10), updates on ESD,
                                                   ML-optimized integration grids, MBIS, APM,
                                                   GOAT, DOCKER, SOLVATOR, interface openCOSMO-RS
   S Lehtola, MJT Oliveira, MAL Marques          : LibXC Library
   Liviu Ungur et al                             : ANISO software


 Your calculation uses the libint2 library for the computation of 2-el integrals
 For citations please refer to: http://libint.valeyev.net

 Your ORCA version has been built with support for libXC version: 6.2.2
 For citations please refer to: https://libxc.gitlab.io

 This ORCA versions uses:
   CBLAS   interface :  Fast vector & matrix operations
   LAPACKE interface :  Fast linear algebra routines
   SCALAPACK package :  Parallel linear algebra routines
   Shared memory     :  Shared parallel matrices
   BLAS/LAPACK       :  OpenBLAS 0.3.27  USE64BITINT DYNAMIC_ARCH NO_AFFINITY SkylakeX SINGLE_THREADED
        Core in use  :  SkylakeX
   Copyright (c) 2011-2014, The OpenBLAS Project




***************************************
The coordinates will be read from file: xtb_opt.xyz
***************************************


Your calculation utilizes the geometrical counterpoise correction gCP
Please cite in your paper:
H.Kruse, S. Grimme J.Chem.Phys., 136, (2012), 154101 
   

Your calculation utilizes the atom-pairwise dispersion correction
based on EEQ partial charges (D4)


Your calculation utilizes the SMD solvation module
Please cite in your paper:
A.V. Marenich, C.J. Cramer, D.G. Truhlar J. Phys. Chem. B, 113, (2009), 6378 

================================================================================

----- Orbital basis set information -----
Your calculation utilizes the basis: def2-mTZVPP
   Stefan Grimme, Andreas Hansen, Sebastian Ehlert, and Jan-Michael Mewes 
   J. Chem. Phys. 154, 064103 (2021). DOI: 10.1063/5.0040021

----- AuxJ basis set information -----
Your calculation utilizes the auxiliary basis: def2/J
   F. Weigend, Phys. Chem. Chem. Phys. 8, 1057 (2006).

================================================================================
                                        WARNINGS
                       Please study these warnings very carefully!
================================================================================

WARNING: Old DensityContainer found on disk!
         Will remove this file - 
         If you want to keep old densities, please start your calculation with a different basename. 

Using LibXC functional ID 497 : Re-regularized SCAN exchange by Furness et al
[ 1]  J. W. Furness, A. D. Kaplan, J. Ning, J. P. Perdew, and J. Sun.,  J. Phys. Chem. Lett. 11, 8208-8215 (2020)
[ 2]  J. W. Furness, A. D. Kaplan, J. Ning, J. P. Perdew, and J. Sun.,  J. Phys. Chem. Lett. 11, 9248-9248 (2020)
Using LibXC functional ID 498 : Re-regularized SCAN correlation by Furness et al
[ 1]  J. W. Furness, A. D. Kaplan, J. Ning, J. P. Perdew, and J. Sun.,  J. Phys. Chem. Lett. 11, 8208-8215 (2020)
[ 2]  J. W. Furness, A. D. Kaplan, J. Ning, J. P. Perdew, and J. Sun.,  J. Phys. Chem. Lett. 11, 9248-9248 (2020)
Using LibXC functional ID 497 : Re-regularized SCAN exchange by Furness et al
[ 1]  J. W. Furness, A. D. Kaplan, J. Ning, J. P. Perdew, and J. Sun.,  J. Phys. Chem. Lett. 11, 8208-8215 (2020)
[ 2]  J. W. Furness, A. D. Kaplan, J. Ning, J. P. Perdew, and J. Sun.,  J. Phys. Chem. Lett. 11, 9248-9248 (2020)
Using LibXC functional ID 498 : Re-regularized SCAN correlation by Furness et al
[ 1]  J. W. Furness, A. D. Kaplan, J. Ning, J. P. Perdew, and J. Sun.,  J. Phys. Chem. Lett. 11, 8208-8215 (2020)
[ 2]  J. W. Furness, A. D. Kaplan, J. Ning, J. P. Perdew, and J. Sun.,  J. Phys. Chem. Lett. 11, 9248-9248 (2020)

================================================================================
                                       INPUT FILE
================================================================================
NAME = xtb_opt.inp
|  1> ! r2scan-3c def2/J RI DEFGRID2 scfconv7 ENGRAD tightSCF miniprint
|  2> %cpcm
|  3>     smd true
|  4>     smdsolvent "water"
|  5> end
|  6> * xyzfile 0 1 xtb_opt.xyz
|  7> 
|  8>                          ****END OF INPUT****
================================================================================

                     *******************************
                     * Energy+Gradient Calculation *
                     *******************************

---------------------------------
CARTESIAN COORDINATES (ANGSTROEM)
---------------------------------
  C     -3.292443   -0.838572    0.419617
  C     -1.907770   -0.615117   -0.180138
  C     -1.504729    0.858414   -0.180245
  C     -0.116614    1.087759   -0.791772
  C      0.953746    0.412126    0.016985
  O      1.117038    0.562742    1.216875
  O      1.736793   -0.396165   -0.732145
  C      2.803004   -1.075751   -0.022881
  H     -4.055267   -0.285134   -0.139360
  H     -3.567213   -1.897961    0.402951
  H     -3.328028   -0.498655    1.460447
  H     -1.165859   -1.196602    0.384991
  H     -1.882107   -0.994416   -1.209778
  H     -1.519915    1.250263    0.843762
  H     -2.232851    1.440716   -0.756606
  H      0.120573    2.159014   -0.791966
  H     -0.081514    0.733178   -1.824810
  H      3.286902   -1.709334   -0.765038
  H      2.392268   -1.683286    0.786017
  H      3.513144   -0.348267    0.376165

----------------------------
CARTESIAN COORDINATES (A.U.)
----------------------------
  NO LB      ZA    FRAG     MASS         X           Y           Z
   0 C     6.0000    0    12.011   -6.221815   -1.584672    0.792961
   1 C     6.0000    0    12.011   -3.605164   -1.162402   -0.340411
   2 C     6.0000    0    12.011   -2.843526    1.622167   -0.340614
   3 C     6.0000    0    12.011   -0.220368    2.055566   -1.496232
   4 C     6.0000    0    12.011    1.802320    0.778805    0.032098
   5 O     8.0000    0    15.999    2.110897    1.063427    2.299560
   6 O     8.0000    0    15.999    3.282064   -0.748643   -1.383554
   7 C     6.0000    0    12.011    5.296911   -2.032875   -0.043239
   8 H     1.0000    0     1.008   -7.663344   -0.538825   -0.263353
   9 H     1.0000    0     1.008   -6.741056   -3.586627    0.761467
  10 H     1.0000    0     1.008   -6.289062   -0.942321    2.759845
  11 H     1.0000    0     1.008   -2.203155   -2.261250    0.727528
  12 H     1.0000    0     1.008   -3.556667   -1.879174   -2.286150
  13 H     1.0000    0     1.008   -2.872223    2.362654    1.594479
  14 H     1.0000    0     1.008   -4.219477    2.722559   -1.429779
  15 H     1.0000    0     1.008    0.227850    4.079946   -1.496600
  16 H     1.0000    0     1.008   -0.154039    1.385506   -3.448391
  17 H     1.0000    0     1.008    6.211344   -3.230174   -1.445713
  18 H     1.0000    0     1.008    4.520731   -3.180949    1.485357
  19 H     1.0000    0     1.008    6.638881   -0.658128    0.710850

------------------------------------------------------------------------------
                   ___                                                        
                  /   \      - P O W E R E D   B Y -                         
                 /     \                                                     
                 |  |  |   _    _      __       _____    __    __             
                 |  |  |  | |  | |    /  \     |  _  \  |  |  /  |          
                  \  \/   | |  | |   /    \    | | | |  |  | /  /          
                 / \  \   | |__| |  /  /\  \   | |_| |  |  |/  /          
                |  |  |   |  __  | /  /__\  \  |    /   |      \           
                |  |  |   | |  | | |   __   |  |    \   |  |\   \          
                \     /   | |  | | |  |  |  |  | |\  \  |  | \   \       
                 \___/    |_|  |_| |__|  |__|  |_| \__\ |__|  \__/        
                                                                              
                      - O R C A' S   B I G   F R I E N D -                    
                                      &                                       
                       - I N T E G R A L  F E E D E R -                       
                                                                              
 v1 FN, 2020, v2 2021, v3 2022-2024                                           
------------------------------------------------------------------------------


----------------------
SHARK INTEGRAL PACKAGE
----------------------

Number of atoms                             ...     20
Number of basis functions                   ...    222
Number of shells                            ...    110
Maximum angular momentum                    ...      2
Integral batch strategy                     ... SHARK/LIBINT Hybrid
RI-J (if used) integral strategy            ... SPLIT-RIJ (Revised 2003 algorithm where possible)
Printlevel                                  ...      1
Contraction scheme used                     ... SEGMENTED contraction
Prescreening option                         ... SCHWARTZ
   Thresh                                   ... 3.000e-11
   Tcut                                     ... 1.000e-12
   Tpresel                                  ... 1.000e-12 
Coulomb Range Separation                    ... NOT USED
Exchange Range Separation                   ... NOT USED
Multipole approximations                    ... NOT USED
Finite Nucleus Model                        ... NOT USED
CABS basis                                  ... NOT available
Auxiliary Coulomb fitting basis             ... AVAILABLE
   # of basis functions in Aux-J            ...    524
   # of shells in Aux-J                     ...    180
   Maximum angular momentum in Aux-J        ...      4
Auxiliary J/K fitting basis                 ... NOT available
Auxiliary Correlation fitting basis         ... NOT available
Auxiliary 'external' fitting basis          ... NOT available

Checking pre-screening integrals            ... done (  0.0 sec) Dimension = 110
Check shell pair data                       ... done (  0.0 sec)
Shell pair information
Shell pair cut-off parameter TPreSel        ...   1.0e-12
Total number of shell pairs                 ...      6105
Shell pairs after pre-screening             ...      5355
Total number of primitive shell pairs       ...     21533
Primitive shell pairs kept                  ...     13471
          la=0 lb=0:   1796 shell pairs
          la=1 lb=0:   2021 shell pairs
          la=1 lb=1:    588 shell pairs
          la=2 lb=0:    571 shell pairs
          la=2 lb=1:    327 shell pairs
          la=2 lb=2:     52 shell pairs

Calculating one electron integrals          ... done (  0.0 sec)
Calculating RI/J V-Matrix + Cholesky decomp.... done (  0.1 sec)
Calculating Nuclear repulsion               ... done (  0.0 sec) ENN=    389.469179749832 Eh

Diagonalization of the overlap matrix:
Smallest eigenvalue                        ... 1.465e-04
Time for diagonalization                   ...    0.005 sec
Threshold for overlap eigenvalues          ... 1.000e-07
Number of eigenvalues below threshold      ... 0
Time for construction of square roots      ...    0.024 sec
Total time needed                          ...    0.042 sec

-------------------
DFT GRID GENERATION
-------------------

General Integration Accuracy     IntAcc      ... 4.388
Radial Grid Type                 RadialGrid  ... OptM3 with GC (2021)
Angular Grid (max. ang.)         AngularGrid ... 4 (Lebedev-302)
Angular grid pruning method      GridPruning ... 4 (adaptive)
Weight generation scheme         WeightScheme... mBecke (2022)
Basis function cutoff            BFCut       ... 1.0000e-11
Integration weight cutoff        WCut        ... 1.0000e-14
Partially contracted basis set               ... off
Rotationally invariant grid construction     ... off
Angular grids for H and He will be reduced by one unit
Diffuse basis detected: some atoms will have their outermost
                        angular grid increased by 1.

Total number of grid points                  ...    87366
Total number of batches                      ...     1376
Average number of points per batch           ...       63
Average number of grid points per atom       ...     4368
Initializing property integral containers    ... done (  0.1 sec)

SHARK setup successfully completed in   1.6 seconds

Maximum memory used throughout the entire STARTUP-calculation: 39.5 MB
Occupation numbers will be reassigned to an Aufbau configuration
             **** ENERGY FILE WAS UPDATED (xtb_opt.en.tmp) ****
Finished Guess after   0.4 sec
Maximum memory used throughout the entire GUESS-calculation: 15.1 MB
--------------------
CPCM SOLVATION MODEL
--------------------
CPCM parameters:
  Epsilon                                         ...      78.3550
  Refrac                                          ...       1.3328
  Rsolv                                           ...       1.3000
  Surface type                                    ... GAUSSIAN VDW
  Discretization scheme                           ... Constant charge density
    Threshold for H atoms                         ...       5.0000 (charges/Ang^2)
    Threshold for non-H atoms                     ...       5.0000 (charges/Ang^2)
  Epsilon function type                           ...         CPCM
Solvent:                                          ... WATER
SMD-CDS solvent descriptors:
  Soln                                            ...       1.3328
  Soln25                                          ...       1.3323
  Sola                                            ...       0.0000
  Solb                                            ...       0.0000
  Solg                                            ...       0.0000
  Solc                                            ...       0.0000
  Solh                                            ...       0.0000
Radii:
  Scheme                                          ... Element-dependent radii
  Radius for C  used is    3.4960 Bohr (=   1.8500 Ang.)
  Radius for O  used is    2.8724 Bohr (=   1.5200 Ang.)
  Radius for H  used is    2.2677 Bohr (=   1.2000 Ang.)
Calculating surface                               ...        done! (  0.0s)
Cavity surface points                             ...         1497
Cavity Volume                                     ...     883.1452
Cavity Surface-area                               ...     589.1095
Calculating surface distance matrix               ...        done! (  0.0s)
Performing Cholesky decomposition & store         ...        done! (  0.2s)
Overall time for CPCM initialization              ...                 0.2s

----------------------------------------D-I-I-S--------------------------------------------
Iteration    Energy (Eh)           Delta-E    RMSDP     MaxDP     DIISErr   Damp  Time(sec)
-------------------------------------------------------------------------------------------
               ***  Starting incremental Fock matrix formation  ***
                              *** Initializing SOSCF ***
---------------------------------------S-O-S-C-F--------------------------------------
Iteration    Energy (Eh)           Delta-E    RMSDP     MaxDP     MaxGrad    Time(sec)
--------------------------------------------------------------------------------------
    1    -386.2529230816626296     0.00e+00  1.65e-06  4.22e-05  1.11e-05     3.5
               *** Restarting incremental Fock matrix formation ***
    2    -386.2529230777380462     3.92e-09  2.64e-06  6.50e-05  2.66e-05     3.4
    3    -386.2529230305150350     4.72e-08  1.90e-06  4.96e-05  6.04e-05     2.6
                 **** Energy Check signals convergence ****

               *****************************************************
               *                     SUCCESS                       *
               *           SCF CONVERGED AFTER   3 CYCLES          *
               *****************************************************


SMD CDS free energy correction energy :                 5.13082     Kcal/mol
Total Energy after SMD CDS correction =              -386.244746555 Eh
             **** ENERGY FILE WAS UPDATED (xtb_opt.en.tmp) ****

----------------
TOTAL SCF ENERGY
----------------

Total Energy       :       -386.24474655487757 Eh          -10510.25388 eV

Components:
Nuclear Repulsion  :        389.46917974983194 Eh           10597.99517 eV
Electronic Energy  :       -775.70585821293639 Eh          -21108.02951 eV
One Electron Energy:      -1296.42061722340009 Eh          -35277.39846 eV
Two Electron Energy:        520.71475901046369 Eh           14169.36895 eV
CPCM Dielectric    :         -0.01624456741057 Eh              -0.44204 eV
SMD CDS (Gcds)     :          0.00817647563746 Eh               0.22249 eV

Virial components:
Potential Energy   :       -770.68259698914585 Eh          -20971.33963 eV
Kinetic Energy     :        384.43785043426823 Eh           10461.08574 eV
Virial Ratio       :          2.00470009942717

DFT components:
N(Alpha)           :       32.000031795264 electrons
N(Beta)            :       32.000031795264 electrons
N(Total)           :       64.000063590528 electrons
E(X)               :      -52.033379072304 Eh       
E(C)               :       -2.035259893700 Eh       
E(XC)              :      -54.068638966004 Eh       

CPCM Solvation Model Properties:
Surface-charge          :         -0.04730477960022
Corrected charge        :          0.00000000000000
Outlying charge corr.   :          0.00016828974066 Eh               0.00458 eV
Free-energy (cav+disp)  :          0.00817647563746 Eh               0.22249 eV

---------------
SCF CONVERGENCE
---------------

  Last Energy change         ...   -4.7223e-08  Tolerance :   1.0000e-07
  Last MAX-Density change    ...    4.9625e-05  Tolerance :   1.0000e-07
  Last RMS-Density change    ...    1.9036e-06  Tolerance :   5.0000e-09
  Last DIIS Error            ...    6.1230e-05  Tolerance :   1.0000e-07
  Last Orbital Gradient      ...    6.0430e-05  Tolerance :   1.0000e-04
  Last Orbital Rotation      ...    6.3227e-05  Tolerance :   1.0000e-04


----------------
ORBITAL ENERGIES
----------------

  NO   OCC          E(Eh)            E(eV) 
   0   2.0000     -19.005150      -517.1564 
   1   2.0000     -18.946619      -515.5637 
   2   2.0000     -10.165661      -276.6217 
   3   2.0000     -10.077548      -274.2240 
   4   2.0000     -10.038824      -273.1703 
   5   2.0000     -10.028358      -272.8855 
   6   2.0000     -10.021996      -272.7124 
   7   2.0000     -10.012140      -272.4442 
   8   2.0000      -1.070626       -29.1332 
   9   2.0000      -0.985385       -26.8137 
  10   2.0000      -0.771506       -20.9937 
  11   2.0000      -0.718739       -19.5579 
  12   2.0000      -0.677146       -18.4261 
  13   2.0000      -0.609815       -16.5939 
  14   2.0000      -0.551950       -15.0193 
  15   2.0000      -0.521842       -14.2000 
  16   2.0000      -0.473176       -12.8758 
  17   2.0000      -0.454524       -12.3682 
  18   2.0000      -0.447856       -12.1868 
  19   2.0000      -0.422240       -11.4897 
  20   2.0000      -0.403120       -10.9695 
  21   2.0000      -0.388845       -10.5810 
  22   2.0000      -0.384201       -10.4546 
  23   2.0000      -0.353334        -9.6147 
  24   2.0000      -0.342235        -9.3127 
  25   2.0000      -0.329793        -8.9741 
  26   2.0000      -0.324285        -8.8243 
  27   2.0000      -0.303649        -8.2627 
  28   2.0000      -0.290890        -7.9155 
  29   2.0000      -0.289826        -7.8866 
  30   2.0000      -0.282535        -7.6882 
  31   2.0000      -0.254415        -6.9230 
  32   0.0000      -0.029073        -0.7911 
  33   0.0000       0.065798         1.7905 
  34   0.0000       0.094035         2.5588 
  35   0.0000       0.115232         3.1356 
  36   0.0000       0.122845         3.3428 
  37   0.0000       0.137640         3.7454 
  38   0.0000       0.142221         3.8700 
  39   0.0000       0.148961         4.0534 
  40   0.0000       0.152324         4.1449 
  41   0.0000       0.166724         4.5368 
  42   0.0000       0.169911         4.6235 
*Only the first 10 virtual orbitals were printed.
Total SCF time: 0 days 0 hours 0 min 10 sec 
Finished LeanSCF after  10.7 sec

Maximum memory used throughout the entire LEANSCF-calculation: 30.5 MB


-------------------------------------------------------------------------------
                          DFT DISPERSION CORRECTION                            
                                                                               
                                DFTD4 V3.4.0                                   
-------------------------------------------------------------------------------
-------------------------   ----------------
Dispersion correction           -0.005101566
-------------------------   ----------------

------------------   -----------------
gCP correction             0.011688544
------------------   -----------------

-------------------------   --------------------
FINAL SINGLE POINT ENERGY      -386.238159577392
-------------------------   --------------------

------------------------------------------------------------------------------
                         ORCA SCF GRADIENT CALCULATION
------------------------------------------------------------------------------

Nuc. rep. gradient        (SHARK) ... done (  0.0 sec)
HCore & Overlap gradient  (SHARK) ... done (  0.3 sec)
Split-RIJ-J gradient      (SHARK) ... done (  1.7 sec)
XC gradient                       ... done (  7.7 sec)
CPCM gradient                     ... done (  1.0 sec)
SMD gradient                      ... done (  0.0 sec)
Dispersion correction             ... done (  0.1 sec)

-------------------
DISPERSION GRADIENT
-------------------

   1   C   :   -0.000083729   -0.000036027    0.000019298
   2   C   :   -0.000069181   -0.000029784   -0.000007093
   3   C   :   -0.000042968    0.000043040   -0.000007331
   4   C   :    0.000002161    0.000061712   -0.000039264
   5   C   :    0.000064362    0.000019691    0.000002960
   6   O   :    0.000057898    0.000029418    0.000060852
   7   O   :    0.000078286   -0.000017831   -0.000018224
   8   C   :    0.000081998   -0.000037936    0.000010012
   9   H   :   -0.000029416   -0.000011264    0.000003776
  10   H   :   -0.000024997   -0.000020507    0.000006298
  11   H   :   -0.000031565   -0.000013656    0.000015379
  12   H   :   -0.000031250   -0.000017664    0.000007308
  13   H   :   -0.000032850   -0.000018088   -0.000015026
  14   H   :   -0.000011542    0.000019746    0.000009645
  15   H   :   -0.000019191    0.000020917   -0.000011253
  16   H   :    0.000005136    0.000035637   -0.000010826
  17   H   :    0.000003645    0.000019141   -0.000029691
  18   H   :    0.000025566   -0.000017282   -0.000004282
  19   H   :    0.000033636   -0.000017498    0.000005363
  20   H   :    0.000024001   -0.000011766    0.000002099

Difference to translation invariance:
           :   -0.0000000000    0.0000000000    0.0000000000

Difference to rotation invariance:
           :    0.0000000000    0.0000000000   -0.0000000000

Norm of the Dispersion gradient    ...    0.0002547091
RMS gradient                       ...    0.0000328828
MAX gradient                       ...    0.0000837285
gCP correction                   ... done

------------------
CARTESIAN GRADIENT
------------------

   1   C   :   -0.000138605   -0.000027597    0.000061174
   2   C   :    0.000056163   -0.000094215   -0.000099757
   3   C   :   -0.000221005    0.000101226    0.000176948
   4   C   :    0.000223552   -0.000196490   -0.000137356
   5   C   :   -0.001619691    0.001328305    0.001085740
   6   O   :    0.000064191   -0.000079895    0.000272705
   7   O   :    0.001958807   -0.001585558   -0.000619175
   8   C   :   -0.000453461    0.000235841   -0.000205083
   9   H   :    0.000000930   -0.000017995    0.000014488
  10   H   :    0.000056474   -0.000008154   -0.000058077
  11   H   :    0.000018355   -0.000052805   -0.000052563
  12   H   :    0.000052983    0.000013364    0.000053886
  13   H   :    0.000011390   -0.000002204    0.000019459
  14   H   :   -0.000064179    0.000062767   -0.000036423
  15   H   :   -0.000026538    0.000036359   -0.000056488
  16   H   :    0.000048591    0.000288444    0.000017044
  17   H   :    0.000046540    0.000016924   -0.000050032
  18   H   :   -0.000043222   -0.000004627    0.000184345
  19   H   :    0.000169472    0.000272426   -0.000266940
  20   H   :   -0.000140748   -0.000286117   -0.000303894

Difference to translation invariance:
           :   -0.0000000000    0.0000000000   -0.0000000000

Difference to rotation invariance:
           :    0.0003996991   -0.0005792124    0.0001856011

Norm of the Cartesian gradient     ...    0.0036690057
RMS gradient                       ...    0.0004736666
MAX gradient                       ...    0.0019588074

-------
TIMINGS
-------

Total SCF gradient time     ....       11.876 sec

Densities                   ....       0.001 sec  (  0.0%)
One electron gradient       ....       0.340 sec  (  2.9%)
RI-J Coulomb gradient       ....       1.679 sec  ( 14.1%)
XC gradient                 ....       7.732 sec  ( 65.1%)
CPCM gradient               ....       1.001 sec  (  8.4%)
   A-Matrix (El+Nuc)        ....       0.093 sec  (  0.8%)
   Potential                ....       0.908 sec  (  7.6%)
SMD gradient                ....       0.013 sec  (  0.1%)

Maximum memory used throughout the entire SCFGRAD-calculation: 35.4 MB

------------------------------------------------------------------------------
                              ORCA PROPERTY CALCULATIONS
------------------------------------------------------------------------------

GBWName                                 ... xtb_opt.gbw
Number of atoms                         ...     20
Number of basis functions               ...    222
Max core memory                         ...   1024 MB

Electric properties:
Dipole moment                           ... YES
Quadrupole moment                       ...  NO
Static polarizability (Dipole/Dipole)   ...  NO
Static polarizability (Dipole/Quad.)    ...  NO
Static polarizability (Quad./Quad.)     ...  NO
Static polarizability (Velocity)        ...  NO

Atomic electric properties:
Dipole moment                           ...  NO
Quadrupole moment                       ...  NO
Static polarizability                   ...  NO

Choice of electric origin               ... Center of mass
Position of electric origin             ...     0.004214    -0.039780    -0.038348

General magnetic properties:
Magnetizability                         ...  NO

EPR properties:
g-Tensor (aka g-matrix)                 ...  NO
Zero-Field splitting spin-orbit         ...  NO
Zero-field splitting spin-spin          ...  NO
Hyperfine couplings                     ...  NO (   0 nuclei)
Quadrupole couplings                    ...  NO (   0 nuclei)
Contact density                         ...  NO (   0 nuclei)

NMR properties:
Chemical shifts                         ...  NO (   0 nuclei)
Spin-rotation constants                 ...  NO (   0 nuclei)
Spin-spin couplings                     ...  NO (   0 nuclei,    0 pairs)

Choice of magnetic origin               ... GIAO
Position of magnetic origin             ...     0.000000     0.000000     0.000000

Properties with geometric perturbations:
SCF Hessian                             ...  NO
IR spectrum                             ...  NO
VCD spectrum                            ...  NO
X-ray spectroscopy properties:
SCF XES/XAS/RIXS spectra                ...  NO


-------------
DIPOLE MOMENT
-------------

Method             : SCF
Type of density    : Electron Density
Multiplicity       :   1
Irrep              :   0
Energy             :  -386.2447465548775654 Eh
Relativity type    : 
Basis              : AO
                                X                 Y                 Z
Electronic contribution:      7.999550301       2.273307424      -0.056387945
Nuclear contribution   :     -7.976105889      -2.603051667      -0.920753125
                        -----------------------------------------
Total Dipole Moment    :      0.023444412      -0.329744243      -0.977141071
                        -----------------------------------------
Magnitude (a.u.)       :      1.031545238
Magnitude (Debye)      :      2.621979623



--------------------
Rotational spectrum 
--------------------
 
Rotational constants in cm-1:             0.126099             0.033073             0.031324 
Rotational constants in MHz :          3780.354558           991.495905           939.084805 

Dipole components along the rotational axes: 
x,y,z [a.u.] :    -0.052097     0.213830     1.007794 
x,y,z [Debye]:    -0.132421     0.543512     2.561608 

 

Dipole moment calculation done in   0.0 sec 

Maximum memory used throughout the entire PROP-calculation: 13.9 MB

--------------------------------
SUGGESTED CITATIONS FOR THIS RUN
--------------------------------

Below you find a list of papers that are relevant to this ORCA run
We neither can nor want to force you to cite these papers, but we appreciate if you do
You receive ORCA, which is the product of decades of hard work by many enthusiastic individuals, for free
The only thing we kindly ask in return is that you cite our papers,
We deeply appreciate it, if you show your appreciation for ORCA by not just citing the generic ORCA reference.

Please note that relegating all ORCA citations to the supporting information does *not* help us.
SI sections are not indexed - citations you put there will not count into any citation statistics
But we need these citations in order to attract the funding resources that allow us to do what we are doing

Therefore, if you are a happy ORCA user, please consider citing a few of the papers listed below in the main body of your paper

In addition to the list printed below, the program has created the file xtb_opt.bibtex that contains the list in bibtex format
You can import this file easily into all common literature databanks and citation aid programs


List of essential papers. We consider these as the minimum necessary citations

  1. Neese,F.
     Software update: the ORCA program system, version 5.0
     WIRES Comput. Molec. Sci., 2022 12(1)e1606
     doi.org/10.1002/wcms.1606
  2. Grimme,S.; Hansen,A.; Ehlert,S.; Mewes,J.
     r2SCAN-3c: A 'Swiss army knife' composite electronic-structure method
     J. Chem. Phys., 2021 154 064103
     doi.org/10.1063/5.0040021

List of papers to cite with high priority. The work reported in these papers was absolutely
necessary for this run to complete.
Our perspective: the developers of density functionals and basis sets usually get cited in chemistry papers
Good! But without the algorithms to do something with them, the functionals or basis sets would not do anything.
Hence, in our opinion, the algorithm design and method developments papers are equally worthy of getting cited

  1. Neese,F.
     An improvement of the resolution of the identity approximation for the formation of the Coulomb matrix
     J. Comp. Chem., 2003 24(14)1740-1747
     doi.org/10.1002/jcc.10318
  2. Garcia-Rates,M.; Neese,F.
     Effect of the Solute Cavity on the Solvation Energy and its Derivatives within the Framework of the Gaussian Charge Scheme
     J. Comput. Chem., 2020 41 922-939
     doi.org/10.1002/jcc.26139
  3. Neese,F.
     The SHARK Integral Generation and Digestion System
     J. Comp. Chem., 2022  1-16
     doi.org/10.1002/jcc.26942
  4. Lehtola,S.; Steigemann,C.; Oliveira,M.; Marques,M.
     Recent developments in Libxc - A comprehensive library of functionals for density functional theory
     Software X, 2018 7 
     doi.org/10.1016/j.softx.2017.11.002
  5. Caldeweyher,E.; Bannwarth,C.; Grimme,S.
     Extension of the D3 dispersion coefficient model
     J. Chem. Phys., 2017 147 034112-XXXX
     doi.org/10.1063/1.4993215
  6. Caldeweyher,E.; Ehlert,S.; Hansen,A.; Neugebauer,H.; Spicher,S.; Bannwarth,C.; Grimme,S.
     A generally applicable atomic-charge dependent London dispersion correction
     J. Chem. Phys., 2019 150 154122-XXXX
     doi.org/10.1063/1.5090222
  7. Caldeweyher,E.; Mewes,J.; Ehlert,S.; Grimme,S.
     Extension and evaluation of the D4 London-dispersion model for periodic systems
     Phys. Chem. Chem. Phys., 2020 22(16)8499-8512
     doi.org/10.1039/D0CP00502A

List of suggested additional citations. These are papers that are important in the 'surrounding' of 
of this run, or papers that preceded the highly important papers. If you like your results we are grateful for a citation.

  1. Neese,F.
     The ORCA program system
     WIRES Comput. Molec. Sci., 2012 2(1)73-78
     doi.org/10.1002/wcms.81
  2. Neese,F.
     Software update: the ORCA program system, version 4.0
     WIRES Comput. Molec. Sci., 2018 8(1)1-6
     doi.org/10.1002/wcms.1327
  3. Neese,F.; Wennmohs,F.; Becker,U.; Riplinger,C.
     The ORCA quantum chemistry program package
     J. Chem. Phys., 2020 152 Art. No. L224108
     doi.org/10.1063/5.0004608

List of optional additional citations

  1. Neese,F.
     Approximate second-order SCF convergence for spin unrestricted wavefunctions
     Chem. Phys. Lett., 2000 325(1-3)93-98
     doi.org/10.1016/s0009-2614(00)00662-x

Timings for individual modules:

Sum of individual times          ...       24.982 sec (=   0.416 min)
Startup calculation              ...        1.689 sec (=   0.028 min)   6.8 %
SCF iterations                   ...       11.101 sec (=   0.185 min)  44.4 %
Property calculations            ...        0.212 sec (=   0.004 min)   0.8 %
SCF Gradient evaluation          ...       11.980 sec (=   0.200 min)  48.0 %
                             ****ORCA TERMINATED NORMALLY****
TOTAL RUN TIME: 0 days 0 hours 0 minutes 26 seconds 249 msec
  ------------------------------------------------------------------------
          * successful ORCA run, taking over control again...

         :::::::::::::::::::::::::::::::::::::::::::::::::::::
         ::                  ORCA SUMMARY                   ::
         :::::::::::::::::::::::::::::::::::::::::::::::::::::
         :: total energy            -386.238159577392 Eh    ::
         :: gradient norm              0.003669005683 Eh/a0 ::
         :: HOMO-LUMO gap              0.000000000000 eV    ::
         :::::::::::::::::::::::::::::::::::::::::::::::::::::

      ----------------------------------------------------------- 
     |                       L-ANC optimizer                     |
      ----------------------------------------------------------- 
          low memory version by Sebastian Ehlert

          ...................................................
          :                      SETUP                      :
          :.................................................:
          :   energy convergence        0.5000000E-05 Eh    :
          :   grad. convergence         0.1000000E-02 Eh/a0 :
          :   optimization log               true           :
          :   writing optlog all                1     steps :
          :   Hessian reset                     8     steps :
          :   maximium step len.        1.0000000     a0    :
          :   LBFGS images                      8           :
          ...................................................
 * calculating model hessian...
Using Lindh-Hessian (1995)
 Shifting diagonal of input Hessian by   1.000000000000000E-002
 Lowest  eigenvalues of input Hessian
    0.000000    0.000000    0.000000    0.000000    0.000000    0.000000
    0.011002    0.012670    0.013751    0.016067    0.018760    0.020825
    0.021479    0.026173    0.034052    0.038041    0.041581    0.049923
 Highest eigenvalues
    1.183775    1.209614    1.255277    1.284196    1.727827    2.259721
 

........................................................................
.............................. CYCLE    1 ..............................
........................................................................
                         * ORCA takes the control...
  ------------------------------------------------------------------------

                                 *****************
                                 * O   R   C   A *
                                 *****************

                                            #,                                       
                                            ###                                      
                                            ####                                     
                                            #####                                    
                                            ######                                   
                                           ########,                                 
                                     ,,################,,,,,                         
                               ,,#################################,,                 
                          ,,##########################################,,             
                       ,#########################################, ''#####,          
                    ,#############################################,,   '####,        
                  ,##################################################,,,,####,       
                ,###########''''           ''''###############################       
              ,#####''   ,,,,##########,,,,          '''####'''          '####       
            ,##' ,,,,###########################,,,                        '##       
           ' ,,###''''                  '''############,,,                           
         ,,##''                                '''############,,,,        ,,,,,,###''
      ,#''                                            '''#######################'''  
     '                                                          ''''####''''         
             ,#######,   #######,   ,#######,      ##                                
            ,#'     '#,  ##    ##  ,#'     '#,    #''#        ,####,   ,####,        
            ##       ##  ##   ,#'  ##            #'  '#       #'       #'  '#        
            ##       ##  #######   ##           ,######,      #####,   #    #        
            '#,     ,#'  ##    ##  '#,     ,#' ,#      #,     #,   #   #,  ,#        
             '#######'   ##     ##  '#######'  #'      '#     '####' # '####'        



                #########################################################
                #                        -***-                          #
                #          Department of theory and spectroscopy        #
                #                                                       #
                #                      Frank Neese                      #
                #                                                       #
                #     Directorship, Architecture, Infrastructure        #
                #                    SHARK, DRIVERS                     #
                #        Core code/Algorithms in most modules           #
                #                                                       #
                #        Max Planck Institute fuer Kohlenforschung      #
                #                Kaiser Wilhelm Platz 1                 #
                #                 D-45470 Muelheim/Ruhr                 #
                #                      Germany                          #
                #                                                       #
                #                  All rights reserved                  #
                #                        -***-                          #
                #########################################################


                         Program Version 6.0.0  -   RELEASE  -


 With contributions from (in alphabetic order):
   Daniel Aravena         : Magnetic Suceptibility
   Michael Atanasov       : Ab Initio Ligand Field Theory (pilot matlab implementation)
   Alexander A. Auer      : GIAO ZORA, VPT2 properties, NMR spectrum
   Ute Becker             : All parallelization in ORCA, NUMFREQ, NUMCALC
   Giovanni Bistoni       : ED, misc. LED, open-shell LED, HFLD
   Martin Brehm           : Molecular dynamics
   Dmytro Bykov           : pre 5.0 version of the SCF Hessian
   Marcos Casanova-Páez   : Triplet and SCS-CIS(D). UHF-(DLPNO)-IP/EA/STEOM-CCSD. UHF-CVS-IP/STEOM-CCSD
   Vijay G. Chilkuri      : MRCI spin determinant printing, contributions to CSF-ICE
   Pauline Colinet        : FMM embedding
   Dipayan Datta          : RHF DLPNO-CCSD density
   Achintya Kumar Dutta   : EOM-CC, STEOM-CC
   Nicolas Foglia         : Exact transition moments, OPA infrastructure, MCD improvements
   Dmitry Ganyushin       : Spin-Orbit,Spin-Spin,Magnetic field MRCI
   Miquel Garcia          : C-PCM and meta-GGA Hessian, CCSD/C-PCM, Gaussian charge scheme
   Tiago L. C. Gouveia    : GS-ROHF, GS-ROCIS
   Yang Guo               : DLPNO-NEVPT2, F12-NEVPT2, CIM, IAO-localization
   Andreas Hansen         : Spin unrestricted coupled pair/coupled cluster methods
   Ingolf Harden          : AUTO-CI MPn and infrastructure 
   Benjamin Helmich-Paris : MC-RPA, TRAH-(SCF,CASSCF), AVAS, COSX integrals, SCF dyn. polar.
   Lee Huntington         : MR-EOM, pCC
   Robert Izsak           : Overlap fitted RIJCOSX, COSX-SCS-MP3, EOM
   Riya Kayal             : Wick's Theorem for AUTO-CI, AUTO-CI UHF-CCSDT
   Emily Kempfer          : AUTO-CI, RHF CISDT and CCSDT
   Christian Kollmar      : KDIIS, OOCD, Brueckner-CCSD(T), CCSD density, CASPT2, CASPT2-K, improved NEVPT2
   Axel Koslowski         : Symmetry handling
   Simone Kossmann        : Meta GGA functionals, TD-DFT gradient, OOMP2, (MP2 Hessian; deprecated post 5.0)
   Lucas Lang             : DCDCAS
   Marvin Lechner         : AUTO-CI (C++ implementation), FIC-MRCC
   Spencer Leger          : CASSCF response
   Dagmar Lenk            : GEPOL surface, SMD, ORCA-2-JSON
   Dimitrios Liakos       : Extrapolation schemes; Compound Job, initial MDCI parallelization
   Dimitrios Manganas     : Further ROCIS development; embedding schemes. LFT, Crystal Embedding
   Dimitrios Pantazis     : SARC Basis sets
   Anastasios Papadopoulos: AUTO-CI, single reference methods and gradients
   Taras Petrenko         : pre 6.0 DFT Hessian and TD-DFT gradient, (ASA, deprecated), ECA, 1-Electron XAS/XES, NRVS
   Peter Pinski           : DLPNO-MP2, DLPNO-MP2 Gradient
   Christoph Reimann      : Effective Core Potentials
   Marius Retegan         : Local ZFS, SOC
   Christoph Riplinger    : Optimizer, TS searches, QM/MM, DLPNO-CCSD(T), (RO)-DLPNO pert. Triples
   Michael Roemelt        : Original ROCIS implementation
   Masaaki Saitow         : Open-shell DLPNO-CCSD energy and density
   Barbara Sandhoefer     : DKH picture change effects
   Kantharuban Sivalingam : CASSCF convergence/infrastructure, NEVPT2 and variants, FIC-MRCI
   Bernardo de Souza      : ESD, SOC TD-DFT
   Georgi Stoychev        : AutoAux, RI-MP2 NMR, DLPNO-MP2 response, X2C
   Van Anh Tran           : RI-MP2 g-tensors
   Willem Van den Heuvel  : Paramagnetic NMR
   Zikuan Wang            : NOTCH, Electric field optimization 
   Frank Wennmohs         : Technical directorship and infrastructure
   Hang Xu                : AUTO-CI-Response properties 


 We gratefully acknowledge several colleagues who have allowed us to
 interface, adapt or use parts of their codes:
   Stefan Grimme, W. Hujo, H. Kruse, P. Pracht,  : VdW corrections, initial TS optimization,
                  C. Bannwarth, S. Ehlert,         DFT functionals, gCP, sTDA/sTD-DF
                  L. Wittmann, M. Mueller
   Ed Valeev, F. Pavosevic, A. Kumar             : LibInt (2-el integral package), F12 methods
   Garnet Chan, S. Sharma, J. Yang, R. Olivares  : DMRG
   Ulf Ekstrom                                   : XCFun DFT Library
   Mihaly Kallay                                 : mrcc  (arbitrary order and MRCC methods)
   Frank Weinhold                                : gennbo (NPA and NBO analysis)
   Simon Mueller                                 : openCOSMO-RS
   Christopher J. Cramer and Donald G. Truhlar   : smd solvation model
   Lars Goerigk                                  : TD-DFT with DH, B97 family of functionals
   V. Asgeirsson, H. Jonsson                     : NEB implementation
   FAccTs GmbH                                   : IRC, NEB, NEB-TS, DLPNO-Multilevel, CI-OPT
                                                   MM, QMMM, 2- and 3-layer-ONIOM, Crystal-QMMM,
                                                   LR-CPCM, SF, NACMEs, symmetry and pop. for TD-DFT,
                                                   nearIR, NL-DFT gradient (VV10), updates on ESD,
                                                   ML-optimized integration grids, MBIS, APM,
                                                   GOAT, DOCKER, SOLVATOR, interface openCOSMO-RS
   S Lehtola, MJT Oliveira, MAL Marques          : LibXC Library
   Liviu Ungur et al                             : ANISO software


 Your calculation uses the libint2 library for the computation of 2-el integrals
 For citations please refer to: http://libint.valeyev.net

 Your ORCA version has been built with support for libXC version: 6.2.2
 For citations please refer to: https://libxc.gitlab.io

 This ORCA versions uses:
   CBLAS   interface :  Fast vector & matrix operations
   LAPACKE interface :  Fast linear algebra routines
   SCALAPACK package :  Parallel linear algebra routines
   Shared memory     :  Shared parallel matrices
   BLAS/LAPACK       :  OpenBLAS 0.3.27  USE64BITINT DYNAMIC_ARCH NO_AFFINITY SkylakeX SINGLE_THREADED
        Core in use  :  SkylakeX
   Copyright (c) 2011-2014, The OpenBLAS Project




***************************************
The coordinates will be read from file: xtb_opt.xyz
***************************************


Your calculation utilizes the geometrical counterpoise correction gCP
Please cite in your paper:
H.Kruse, S. Grimme J.Chem.Phys., 136, (2012), 154101 
   

Your calculation utilizes the atom-pairwise dispersion correction
based on EEQ partial charges (D4)


Your calculation utilizes the SMD solvation module
Please cite in your paper:
A.V. Marenich, C.J. Cramer, D.G. Truhlar J. Phys. Chem. B, 113, (2009), 6378 

================================================================================

----- Orbital basis set information -----
Your calculation utilizes the basis: def2-mTZVPP
   Stefan Grimme, Andreas Hansen, Sebastian Ehlert, and Jan-Michael Mewes 
   J. Chem. Phys. 154, 064103 (2021). DOI: 10.1063/5.0040021

----- AuxJ basis set information -----
Your calculation utilizes the auxiliary basis: def2/J
   F. Weigend, Phys. Chem. Chem. Phys. 8, 1057 (2006).

================================================================================
                                        WARNINGS
                       Please study these warnings very carefully!
================================================================================

WARNING: Old DensityContainer found on disk!
         Will remove this file - 
         If you want to keep old densities, please start your calculation with a different basename. 

Using LibXC functional ID 497 : Re-regularized SCAN exchange by Furness et al
[ 1]  J. W. Furness, A. D. Kaplan, J. Ning, J. P. Perdew, and J. Sun.,  J. Phys. Chem. Lett. 11, 8208-8215 (2020)
[ 2]  J. W. Furness, A. D. Kaplan, J. Ning, J. P. Perdew, and J. Sun.,  J. Phys. Chem. Lett. 11, 9248-9248 (2020)
Using LibXC functional ID 498 : Re-regularized SCAN correlation by Furness et al
[ 1]  J. W. Furness, A. D. Kaplan, J. Ning, J. P. Perdew, and J. Sun.,  J. Phys. Chem. Lett. 11, 8208-8215 (2020)
[ 2]  J. W. Furness, A. D. Kaplan, J. Ning, J. P. Perdew, and J. Sun.,  J. Phys. Chem. Lett. 11, 9248-9248 (2020)
Using LibXC functional ID 497 : Re-regularized SCAN exchange by Furness et al
[ 1]  J. W. Furness, A. D. Kaplan, J. Ning, J. P. Perdew, and J. Sun.,  J. Phys. Chem. Lett. 11, 8208-8215 (2020)
[ 2]  J. W. Furness, A. D. Kaplan, J. Ning, J. P. Perdew, and J. Sun.,  J. Phys. Chem. Lett. 11, 9248-9248 (2020)
Using LibXC functional ID 498 : Re-regularized SCAN correlation by Furness et al
[ 1]  J. W. Furness, A. D. Kaplan, J. Ning, J. P. Perdew, and J. Sun.,  J. Phys. Chem. Lett. 11, 8208-8215 (2020)
[ 2]  J. W. Furness, A. D. Kaplan, J. Ning, J. P. Perdew, and J. Sun.,  J. Phys. Chem. Lett. 11, 9248-9248 (2020)

================================================================================
                                       INPUT FILE
================================================================================
NAME = xtb_opt.inp
|  1> ! r2scan-3c def2/J RI DEFGRID2 scfconv7 ENGRAD tightSCF miniprint
|  2> %cpcm
|  3>     smd true
|  4>     smdsolvent "water"
|  5> end
|  6> * xyzfile 0 1 xtb_opt.xyz
|  7> 
|  8>                          ****END OF INPUT****
================================================================================

                     *******************************
                     * Energy+Gradient Calculation *
                     *******************************

---------------------------------
CARTESIAN COORDINATES (ANGSTROEM)
---------------------------------
  C     -3.292602   -0.838019    0.419728
  C     -1.907979   -0.615648   -0.180273
  C     -1.503868    0.857400   -0.179780
  C     -0.116660    1.087096   -0.792302
  C      0.955070    0.412347    0.015372
  O      1.118871    0.563673    1.215005
  O      1.736528   -0.395361   -0.732896
  C      2.802729   -1.075223   -0.022139
  H     -4.055024   -0.284226   -0.139487
  H     -3.568407   -1.897172    0.403577
  H     -3.328057   -0.497634    1.460474
  H     -1.166364   -1.198060    0.384146
  H     -1.882984   -0.994382   -1.210163
  H     -1.517897    1.248321    0.844622
  H     -2.232363    1.440356   -0.754915
  H      0.120126    2.158098   -0.792771
  H     -0.082545    0.732472   -1.825272
  H      3.288630   -1.706523   -0.765248
  H      2.390810   -1.685305    0.784937
  H      3.511146   -0.347259    0.380455

----------------------------
CARTESIAN COORDINATES (A.U.)
----------------------------
  NO LB      ZA    FRAG     MASS         X           Y           Z
   0 C     6.0000    0    12.011   -6.222116   -1.583627    0.793172
   1 C     6.0000    0    12.011   -3.605558   -1.163407   -0.340667
   2 C     6.0000    0    12.011   -2.841899    1.620252   -0.339735
   3 C     6.0000    0    12.011   -0.220455    2.054314   -1.497234
   4 C     6.0000    0    12.011    1.804821    0.779223    0.029049
   5 O     8.0000    0    15.999    2.114360    1.065187    2.296027
   6 O     8.0000    0    15.999    3.281561   -0.747124   -1.384973
   7 C     6.0000    0    12.011    5.296390   -2.031877   -0.041836
   8 H     1.0000    0     1.008   -7.662884   -0.537110   -0.263592
   9 H     1.0000    0     1.008   -6.743312   -3.585135    0.762650
  10 H     1.0000    0     1.008   -6.289116   -0.940392    2.759895
  11 H     1.0000    0     1.008   -2.204108   -2.264005    0.725930
  12 H     1.0000    0     1.008   -3.558323   -1.879109   -2.286877
  13 H     1.0000    0     1.008   -2.868410    2.358984    1.596104
  14 H     1.0000    0     1.008   -4.218555    2.721878   -1.426584
  15 H     1.0000    0     1.008    0.227005    4.078215   -1.498120
  16 H     1.0000    0     1.008   -0.155988    1.384172   -3.449263
  17 H     1.0000    0     1.008    6.214609   -3.224861   -1.446108
  18 H     1.0000    0     1.008    4.517976   -3.184764    1.483317
  19 H     1.0000    0     1.008    6.635104   -0.656225    0.718956

------------------------------------------------------------------------------
                   ___                                                        
                  /   \      - P O W E R E D   B Y -                         
                 /     \                                                     
                 |  |  |   _    _      __       _____    __    __             
                 |  |  |  | |  | |    /  \     |  _  \  |  |  /  |          
                  \  \/   | |  | |   /    \    | | | |  |  | /  /          
                 / \  \   | |__| |  /  /\  \   | |_| |  |  |/  /          
                |  |  |   |  __  | /  /__\  \  |    /   |      \           
                |  |  |   | |  | | |   __   |  |    \   |  |\   \          
                \     /   | |  | | |  |  |  |  | |\  \  |  | \   \       
                 \___/    |_|  |_| |__|  |__|  |_| \__\ |__|  \__/        
                                                                              
                      - O R C A' S   B I G   F R I E N D -                    
                                      &                                       
                       - I N T E G R A L  F E E D E R -                       
                                                                              
 v1 FN, 2020, v2 2021, v3 2022-2024                                           
------------------------------------------------------------------------------


----------------------
SHARK INTEGRAL PACKAGE
----------------------

Number of atoms                             ...     20
Number of basis functions                   ...    222
Number of shells                            ...    110
Maximum angular momentum                    ...      2
Integral batch strategy                     ... SHARK/LIBINT Hybrid
RI-J (if used) integral strategy            ... SPLIT-RIJ (Revised 2003 algorithm where possible)
Printlevel                                  ...      1
Contraction scheme used                     ... SEGMENTED contraction
Prescreening option                         ... SCHWARTZ
   Thresh                                   ... 3.000e-11
   Tcut                                     ... 1.000e-12
   Tpresel                                  ... 1.000e-12 
Coulomb Range Separation                    ... NOT USED
Exchange Range Separation                   ... NOT USED
Multipole approximations                    ... NOT USED
Finite Nucleus Model                        ... NOT USED
CABS basis                                  ... NOT available
Auxiliary Coulomb fitting basis             ... AVAILABLE
   # of basis functions in Aux-J            ...    524
   # of shells in Aux-J                     ...    180
   Maximum angular momentum in Aux-J        ...      4
Auxiliary J/K fitting basis                 ... NOT available
Auxiliary Correlation fitting basis         ... NOT available
Auxiliary 'external' fitting basis          ... NOT available

Checking pre-screening integrals            ... done (  0.0 sec) Dimension = 110
Check shell pair data                       ... done (  0.0 sec)
Shell pair information
Shell pair cut-off parameter TPreSel        ...   1.0e-12
Total number of shell pairs                 ...      6105
Shell pairs after pre-screening             ...      5355
Total number of primitive shell pairs       ...     21533
Primitive shell pairs kept                  ...     13472
          la=0 lb=0:   1796 shell pairs
          la=1 lb=0:   2021 shell pairs
          la=1 lb=1:    588 shell pairs
          la=2 lb=0:    571 shell pairs
          la=2 lb=1:    327 shell pairs
          la=2 lb=2:     52 shell pairs

Calculating one electron integrals          ... done (  0.0 sec)
Calculating RI/J V-Matrix + Cholesky decomp.... done (  0.1 sec)
Calculating Nuclear repulsion               ... done (  0.0 sec) ENN=    389.522591456491 Eh

Diagonalization of the overlap matrix:
Smallest eigenvalue                        ... 1.465e-04
Time for diagonalization                   ...    0.005 sec
Threshold for overlap eigenvalues          ... 1.000e-07
Number of eigenvalues below threshold      ... 0
Time for construction of square roots      ...    0.019 sec
Total time needed                          ...    0.036 sec

-------------------
DFT GRID GENERATION
-------------------

General Integration Accuracy     IntAcc      ... 4.388
Radial Grid Type                 RadialGrid  ... OptM3 with GC (2021)
Angular Grid (max. ang.)         AngularGrid ... 4 (Lebedev-302)
Angular grid pruning method      GridPruning ... 4 (adaptive)
Weight generation scheme         WeightScheme... mBecke (2022)
Basis function cutoff            BFCut       ... 1.0000e-11
Integration weight cutoff        WCut        ... 1.0000e-14
Partially contracted basis set               ... off
Rotationally invariant grid construction     ... off
Angular grids for H and He will be reduced by one unit
Diffuse basis detected: some atoms will have their outermost
                        angular grid increased by 1.

Total number of grid points                  ...    87368
Total number of batches                      ...     1376
Average number of points per batch           ...       63
Average number of grid points per atom       ...     4368
Initializing property integral containers    ... done (  0.0 sec)

SHARK setup successfully completed in   1.2 seconds

Maximum memory used throughout the entire STARTUP-calculation: 39.5 MB
Occupation numbers will be reassigned to an Aufbau configuration
             **** ENERGY FILE WAS UPDATED (xtb_opt.en.tmp) ****
Finished Guess after   0.3 sec
Maximum memory used throughout the entire GUESS-calculation: 15.1 MB
--------------------
CPCM SOLVATION MODEL
--------------------
CPCM parameters:
  Epsilon                                         ...      78.3550
  Refrac                                          ...       1.3328
  Rsolv                                           ...       1.3000
  Surface type                                    ... GAUSSIAN VDW
  Discretization scheme                           ... Constant charge density
    Threshold for H atoms                         ...       5.0000 (charges/Ang^2)
    Threshold for non-H atoms                     ...       5.0000 (charges/Ang^2)
  Epsilon function type                           ...         CPCM
Solvent:                                          ... WATER
SMD-CDS solvent descriptors:
  Soln                                            ...       1.3328
  Soln25                                          ...       1.3323
  Sola                                            ...       0.0000
  Solb                                            ...       0.0000
  Solg                                            ...       0.0000
  Solc                                            ...       0.0000
  Solh                                            ...       0.0000
Radii:
  Scheme                                          ... Element-dependent radii
  Radius for C  used is    3.4960 Bohr (=   1.8500 Ang.)
  Radius for O  used is    2.8724 Bohr (=   1.5200 Ang.)
  Radius for H  used is    2.2677 Bohr (=   1.2000 Ang.)
Calculating surface                               ...        done! (  0.0s)
Cavity surface points                             ...         1496
Cavity Volume                                     ...     883.0874
Cavity Surface-area                               ...     589.0880
Calculating surface distance matrix               ...        done! (  0.0s)
Performing Cholesky decomposition & store         ...        done! (  0.1s)
Overall time for CPCM initialization              ...                 0.1s

----------------------------------------D-I-I-S--------------------------------------------
Iteration    Energy (Eh)           Delta-E    RMSDP     MaxDP     DIISErr   Damp  Time(sec)
-------------------------------------------------------------------------------------------
               ***  Starting incremental Fock matrix formation  ***
                              *** Initializing SOSCF ***
---------------------------------------S-O-S-C-F--------------------------------------
Iteration    Energy (Eh)           Delta-E    RMSDP     MaxDP     MaxGrad    Time(sec)
--------------------------------------------------------------------------------------
    1    -386.2529392221729267     0.00e+00  2.28e-05  4.54e-04  6.39e-05     3.7
               *** Restarting incremental Fock matrix formation ***
    2    -386.2529455449423494    -6.32e-06  1.21e-05  2.43e-04  7.22e-05     3.4
    3    -386.2529456795601845    -1.35e-07  6.46e-06  1.42e-04  1.42e-04     2.7
    4    -386.2529459270714369    -2.48e-07  5.18e-06  1.11e-04  8.02e-05     2.7
    5    -386.2529459813155199    -5.42e-08  2.42e-06  5.52e-05  3.47e-05     2.7
                 **** Energy Check signals convergence ****

               *****************************************************
               *                     SUCCESS                       *
               *           SCF CONVERGED AFTER   5 CYCLES          *
               *****************************************************


SMD CDS free energy correction energy :                 5.13690     Kcal/mol
Total Energy after SMD CDS correction =              -386.244759803 Eh
             **** ENERGY FILE WAS UPDATED (xtb_opt.en.tmp) ****

----------------
TOTAL SCF ENERGY
----------------

Total Energy       :       -386.24475980348416 Eh          -10510.25425 eV

Components:
Nuclear Repulsion  :        389.52259145649134 Eh           10599.44858 eV
Electronic Energy  :       -775.75927457320984 Eh          -21109.48305 eV
One Electron Energy:      -1296.52710251434337 Eh          -35280.29608 eV
Two Electron Energy:        520.76782794113353 Eh           14170.81303 eV
CPCM Dielectric    :         -0.01626286459698 Eh              -0.44254 eV
SMD CDS (Gcds)     :          0.00818617783135 Eh               0.22276 eV

Virial components:
Potential Energy   :       -770.68577929035280 Eh          -20971.42622 eV
Kinetic Energy     :        384.44101948686864 Eh           10461.17198 eV
Virial Ratio       :          2.00469185187112

DFT components:
N(Alpha)           :       32.000032736676 electrons
N(Beta)            :       32.000032736676 electrons
N(Total)           :       64.000065473351 electrons
E(X)               :      -52.033998416804 Eh       
E(C)               :       -2.035320266712 Eh       
E(XC)              :      -54.069318683515 Eh       

CPCM Solvation Model Properties:
Surface-charge          :         -0.04730636539524
Corrected charge        :         -0.00000000000000
Outlying charge corr.   :          0.00016830790135 Eh               0.00458 eV
Free-energy (cav+disp)  :          0.00818617783135 Eh               0.22276 eV

---------------
SCF CONVERGENCE
---------------

  Last Energy change         ...    5.4244e-08  Tolerance :   1.0000e-07
  Last MAX-Density change    ...    5.5206e-05  Tolerance :   1.0000e-07
  Last RMS-Density change    ...    2.4177e-06  Tolerance :   5.0000e-09
  Last DIIS Error            ...    7.8770e-04  Tolerance :   1.0000e-07
  Last Orbital Gradient      ...    3.4656e-05  Tolerance :   1.0000e-04
  Last Orbital Rotation      ...    5.0880e-05  Tolerance :   1.0000e-04


----------------
ORBITAL ENERGIES
----------------

  NO   OCC          E(Eh)            E(eV) 
   0   2.0000     -19.005531      -517.1668 
   1   2.0000     -18.946391      -515.5575 
   2   2.0000     -10.165170      -276.6083 
   3   2.0000     -10.077964      -274.2353 
   4   2.0000     -10.038579      -273.1636 
   5   2.0000     -10.028220      -272.8817 
   6   2.0000     -10.021888      -272.7094 
   7   2.0000     -10.012160      -272.4447 
   8   2.0000      -1.071077       -29.1455 
   9   2.0000      -0.985348       -26.8127 
  10   2.0000      -0.771482       -20.9931 
  11   2.0000      -0.718771       -19.5588 
  12   2.0000      -0.677248       -18.4288 
  13   2.0000      -0.609772       -16.5927 
  14   2.0000      -0.551911       -15.0183 
  15   2.0000      -0.521911       -14.2019 
  16   2.0000      -0.473137       -12.8747 
  17   2.0000      -0.454650       -12.3717 
  18   2.0000      -0.447991       -12.1905 
  19   2.0000      -0.422225       -11.4893 
  20   2.0000      -0.403076       -10.9682 
  21   2.0000      -0.388834       -10.5807 
  22   2.0000      -0.384083       -10.4514 
  23   2.0000      -0.353292        -9.6136 
  24   2.0000      -0.342225        -9.3124 
  25   2.0000      -0.329788        -8.9740 
  26   2.0000      -0.324363        -8.8264 
  27   2.0000      -0.303617        -8.2618 
  28   2.0000      -0.290848        -7.9144 
  29   2.0000      -0.289775        -7.8852 
  30   2.0000      -0.282742        -7.6938 
  31   2.0000      -0.254276        -6.9192 
  32   0.0000      -0.028706        -0.7811 
  33   0.0000       0.065718         1.7883 
  34   0.0000       0.093844         2.5536 
  35   0.0000       0.115206         3.1349 
  36   0.0000       0.122845         3.3428 
  37   0.0000       0.137692         3.7468 
  38   0.0000       0.142319         3.8727 
  39   0.0000       0.148976         4.0538 
  40   0.0000       0.152335         4.1452 
  41   0.0000       0.166805         4.5390 
  42   0.0000       0.169948         4.6245 
*Only the first 10 virtual orbitals were printed.
Total SCF time: 0 days 0 hours 0 min 15 sec 
Finished LeanSCF after  15.9 sec

Maximum memory used throughout the entire LEANSCF-calculation: 30.5 MB


-------------------------------------------------------------------------------
                          DFT DISPERSION CORRECTION                            
                                                                               
                                DFTD4 V3.4.0                                   
-------------------------------------------------------------------------------
-------------------------   ----------------
Dispersion correction           -0.005101879
-------------------------   ----------------

------------------   -----------------
gCP correction             0.011689915
------------------   -----------------

-------------------------   --------------------
FINAL SINGLE POINT ENERGY      -386.238171767547
-------------------------   --------------------

------------------------------------------------------------------------------
                         ORCA SCF GRADIENT CALCULATION
------------------------------------------------------------------------------

Nuc. rep. gradient        (SHARK) ... done (  0.0 sec)
HCore & Overlap gradient  (SHARK) ... done (  0.3 sec)
Split-RIJ-J gradient      (SHARK) ... done (  1.7 sec)
XC gradient                       ... done (  7.3 sec)
CPCM gradient                     ... done (  1.0 sec)
SMD gradient                      ... done (  0.0 sec)
Dispersion correction             ... done (  0.0 sec)

-------------------
DISPERSION GRADIENT
-------------------

   1   C   :   -0.000083718   -0.000035980    0.000019318
   2   C   :   -0.000069224   -0.000029810   -0.000007095
   3   C   :   -0.000042990    0.000043015   -0.000007293
   4   C   :    0.000002163    0.000061678   -0.000039288
   5   C   :    0.000064499    0.000019606    0.000002917
   6   O   :    0.000057961    0.000029455    0.000060750
   7   O   :    0.000078323   -0.000017826   -0.000018220
   8   C   :    0.000081856   -0.000037806    0.000010043
   9   H   :   -0.000029418   -0.000011252    0.000003781
  10   H   :   -0.000024989   -0.000020487    0.000006304
  11   H   :   -0.000031554   -0.000013637    0.000015380
  12   H   :   -0.000031283   -0.000017712    0.000007299
  13   H   :   -0.000032853   -0.000018088   -0.000015015
  14   H   :   -0.000011540    0.000019728    0.000009663
  15   H   :   -0.000019202    0.000020902   -0.000011222
  16   H   :    0.000005139    0.000035637   -0.000010833
  17   H   :    0.000003640    0.000019123   -0.000029700
  18   H   :    0.000025554   -0.000017263   -0.000004260
  19   H   :    0.000033675   -0.000017506    0.000005350
  20   H   :    0.000023959   -0.000011776    0.000002122

Difference to translation invariance:
           :    0.0000000000    0.0000000000    0.0000000000

Difference to rotation invariance:
           :    0.0000000000    0.0000000000   -0.0000000000

Norm of the Dispersion gradient    ...    0.0002546776
RMS gradient                       ...    0.0000328787
MAX gradient                       ...    0.0000837185
gCP correction                   ... done

------------------
CARTESIAN GRADIENT
------------------

   1   C   :   -0.000052242   -0.000021163    0.000025020
   2   C   :    0.000002762   -0.000022880   -0.000036373
   3   C   :   -0.000109431    0.000024977    0.000052205
   4   C   :    0.000116768   -0.000112768   -0.000066336
   5   C   :   -0.000818165    0.000888197    0.000882886
   6   O   :    0.000040894   -0.000181524   -0.000139506
   7   O   :    0.001055330   -0.000840868   -0.000434485
   8   C   :   -0.000496130    0.000246458   -0.000174248
   9   H   :    0.000002846   -0.000015536   -0.000001544
  10   H   :    0.000029959   -0.000015593   -0.000045902
  11   H   :    0.000001750   -0.000044103   -0.000018139
  12   H   :    0.000023036    0.000032091    0.000021866
  13   H   :    0.000021407    0.000006841    0.000005408
  14   H   :   -0.000040447    0.000039785   -0.000019678
  15   H   :    0.000002990    0.000000978   -0.000052016
  16   H   :    0.000041020    0.000075373    0.000043290
  17   H   :    0.000022745    0.000025227    0.000013315
  18   H   :   -0.000022462   -0.000083051    0.000029171
  19   H   :    0.000088124    0.000056629    0.000022595
  20   H   :    0.000089247   -0.000059070   -0.000107532

Difference to translation invariance:
           :    0.0000000000    0.0000000000    0.0000000000

Difference to rotation invariance:
           :    0.0003867363   -0.0005504720    0.0001729826

Norm of the Cartesian gradient     ...    0.0021813744
RMS gradient                       ...    0.0002816142
MAX gradient                       ...    0.0010553301

-------
TIMINGS
-------

Total SCF gradient time     ....       11.195 sec

Densities                   ....       0.001 sec  (  0.0%)
One electron gradient       ....       0.341 sec  (  3.0%)
RI-J Coulomb gradient       ....       1.717 sec  ( 15.3%)
XC gradient                 ....       7.279 sec  ( 65.0%)
CPCM gradient               ....       0.973 sec  (  8.7%)
   A-Matrix (El+Nuc)        ....       0.074 sec  (  0.7%)
   Potential                ....       0.899 sec  (  8.0%)
SMD gradient                ....       0.030 sec  (  0.3%)

Maximum memory used throughout the entire SCFGRAD-calculation: 35.4 MB

------------------------------------------------------------------------------
                              ORCA PROPERTY CALCULATIONS
------------------------------------------------------------------------------

GBWName                                 ... xtb_opt.gbw
Number of atoms                         ...     20
Number of basis functions               ...    222
Max core memory                         ...   1024 MB

Electric properties:
Dipole moment                           ... YES
Quadrupole moment                       ...  NO
Static polarizability (Dipole/Dipole)   ...  NO
Static polarizability (Dipole/Quad.)    ...  NO
Static polarizability (Quad./Quad.)     ...  NO
Static polarizability (Velocity)        ...  NO

Atomic electric properties:
Dipole moment                           ...  NO
Quadrupole moment                       ...  NO
Static polarizability                   ...  NO

Choice of electric origin               ... Center of mass
Position of electric origin             ...     0.004864    -0.039519    -0.039159

General magnetic properties:
Magnetizability                         ...  NO

EPR properties:
g-Tensor (aka g-matrix)                 ...  NO
Zero-Field splitting spin-orbit         ...  NO
Zero-field splitting spin-spin          ...  NO
Hyperfine couplings                     ...  NO (   0 nuclei)
Quadrupole couplings                    ...  NO (   0 nuclei)
Contact density                         ...  NO (   0 nuclei)

NMR properties:
Chemical shifts                         ...  NO (   0 nuclei)
Spin-rotation constants                 ...  NO (   0 nuclei)
Spin-spin couplings                     ...  NO (   0 nuclei,    0 pairs)

Choice of magnetic origin               ... GIAO
Position of magnetic origin             ...     0.000000     0.000000     0.000000

Properties with geometric perturbations:
SCF Hessian                             ...  NO
IR spectrum                             ...  NO
VCD spectrum                            ...  NO
X-ray spectroscopy properties:
SCF XES/XAS/RIXS spectra                ...  NO


-------------
DIPOLE MOMENT
-------------

Method             : SCF
Type of density    : Electron Density
Multiplicity       :   1
Irrep              :   0
Energy             :  -386.2447598034841576 Eh
Relativity type    : 
Basis              : AO
                                X                 Y                 Z
Electronic contribution:      8.008712570       2.271728347      -0.064939232
Nuclear contribution   :     -7.982835159      -2.605362949      -0.912590891
                        -----------------------------------------
Total Dipole Moment    :      0.025877411      -0.333634602      -0.977530123
                        -----------------------------------------
Magnitude (a.u.)       :      1.033221578
Magnitude (Debye)      :      2.626240541



--------------------
Rotational spectrum 
--------------------
 
Rotational constants in cm-1:             0.126196             0.033073             0.031325 
Rotational constants in MHz :          3783.250736           991.500136           939.105538 

Dipole components along the rotational axes: 
x,y,z [a.u.] :    -0.054510     0.217305     1.008640 
x,y,z [Debye]:    -0.138552     0.552345     2.563759 

 

Dipole moment calculation done in   0.0 sec 

Maximum memory used throughout the entire PROP-calculation: 13.9 MB

--------------------------------
SUGGESTED CITATIONS FOR THIS RUN
--------------------------------

Below you find a list of papers that are relevant to this ORCA run
We neither can nor want to force you to cite these papers, but we appreciate if you do
You receive ORCA, which is the product of decades of hard work by many enthusiastic individuals, for free
The only thing we kindly ask in return is that you cite our papers,
We deeply appreciate it, if you show your appreciation for ORCA by not just citing the generic ORCA reference.

Please note that relegating all ORCA citations to the supporting information does *not* help us.
SI sections are not indexed - citations you put there will not count into any citation statistics
But we need these citations in order to attract the funding resources that allow us to do what we are doing

Therefore, if you are a happy ORCA user, please consider citing a few of the papers listed below in the main body of your paper

In addition to the list printed below, the program has created the file xtb_opt.bibtex that contains the list in bibtex format
You can import this file easily into all common literature databanks and citation aid programs


List of essential papers. We consider these as the minimum necessary citations

  1. Neese,F.
     Software update: the ORCA program system, version 5.0
     WIRES Comput. Molec. Sci., 2022 12(1)e1606
     doi.org/10.1002/wcms.1606
  2. Grimme,S.; Hansen,A.; Ehlert,S.; Mewes,J.
     r2SCAN-3c: A 'Swiss army knife' composite electronic-structure method
     J. Chem. Phys., 2021 154 064103
     doi.org/10.1063/5.0040021

List of papers to cite with high priority. The work reported in these papers was absolutely
necessary for this run to complete.
Our perspective: the developers of density functionals and basis sets usually get cited in chemistry papers
Good! But without the algorithms to do something with them, the functionals or basis sets would not do anything.
Hence, in our opinion, the algorithm design and method developments papers are equally worthy of getting cited

  1. Neese,F.
     An improvement of the resolution of the identity approximation for the formation of the Coulomb matrix
     J. Comp. Chem., 2003 24(14)1740-1747
     doi.org/10.1002/jcc.10318
  2. Garcia-Rates,M.; Neese,F.
     Effect of the Solute Cavity on the Solvation Energy and its Derivatives within the Framework of the Gaussian Charge Scheme
     J. Comput. Chem., 2020 41 922-939
     doi.org/10.1002/jcc.26139
  3. Neese,F.
     The SHARK Integral Generation and Digestion System
     J. Comp. Chem., 2022  1-16
     doi.org/10.1002/jcc.26942
  4. Lehtola,S.; Steigemann,C.; Oliveira,M.; Marques,M.
     Recent developments in Libxc - A comprehensive library of functionals for density functional theory
     Software X, 2018 7 
     doi.org/10.1016/j.softx.2017.11.002
  5. Caldeweyher,E.; Bannwarth,C.; Grimme,S.
     Extension of the D3 dispersion coefficient model
     J. Chem. Phys., 2017 147 034112-XXXX
     doi.org/10.1063/1.4993215
  6. Caldeweyher,E.; Ehlert,S.; Hansen,A.; Neugebauer,H.; Spicher,S.; Bannwarth,C.; Grimme,S.
     A generally applicable atomic-charge dependent London dispersion correction
     J. Chem. Phys., 2019 150 154122-XXXX
     doi.org/10.1063/1.5090222
  7. Caldeweyher,E.; Mewes,J.; Ehlert,S.; Grimme,S.
     Extension and evaluation of the D4 London-dispersion model for periodic systems
     Phys. Chem. Chem. Phys., 2020 22(16)8499-8512
     doi.org/10.1039/D0CP00502A

List of suggested additional citations. These are papers that are important in the 'surrounding' of 
of this run, or papers that preceded the highly important papers. If you like your results we are grateful for a citation.

  1. Neese,F.
     The ORCA program system
     WIRES Comput. Molec. Sci., 2012 2(1)73-78
     doi.org/10.1002/wcms.81
  2. Neese,F.
     Software update: the ORCA program system, version 4.0
     WIRES Comput. Molec. Sci., 2018 8(1)1-6
     doi.org/10.1002/wcms.1327
  3. Neese,F.; Wennmohs,F.; Becker,U.; Riplinger,C.
     The ORCA quantum chemistry program package
     J. Chem. Phys., 2020 152 Art. No. L224108
     doi.org/10.1063/5.0004608

List of optional additional citations

  1. Neese,F.
     Approximate second-order SCF convergence for spin unrestricted wavefunctions
     Chem. Phys. Lett., 2000 325(1-3)93-98
     doi.org/10.1016/s0009-2614(00)00662-x

Timings for individual modules:

Sum of individual times          ...       28.989 sec (=   0.483 min)
Startup calculation              ...        1.268 sec (=   0.021 min)   4.4 %
SCF iterations                   ...       16.303 sec (=   0.272 min)  56.2 %
Property calculations            ...        0.117 sec (=   0.002 min)   0.4 %
SCF Gradient evaluation          ...       11.301 sec (=   0.188 min)  39.0 %
                             ****ORCA TERMINATED NORMALLY****
TOTAL RUN TIME: 0 days 0 hours 0 minutes 30 seconds 30 msec
  ------------------------------------------------------------------------
          * successful ORCA run, taking over control again...
av. E:   -386.2381718 ->   -386.2381718
av. G:      0.0036687 ->      0.0036687
 * total energy  :  -386.2381718 Eh     change       -0.1219015E-04 Eh
   gradient norm :     0.0021809 Eh/a0  converged?    E=F G=F D=F
   step length   :     0.0172243 a0

........................................................................
.............................. CYCLE    2 ..............................
........................................................................
                         * ORCA takes the control...
  ------------------------------------------------------------------------

                                 *****************
                                 * O   R   C   A *
                                 *****************

                                            #,                                       
                                            ###                                      
                                            ####                                     
                                            #####                                    
                                            ######                                   
                                           ########,                                 
                                     ,,################,,,,,                         
                               ,,#################################,,                 
                          ,,##########################################,,             
                       ,#########################################, ''#####,          
                    ,#############################################,,   '####,        
                  ,##################################################,,,,####,       
                ,###########''''           ''''###############################       
              ,#####''   ,,,,##########,,,,          '''####'''          '####       
            ,##' ,,,,###########################,,,                        '##       
           ' ,,###''''                  '''############,,,                           
         ,,##''                                '''############,,,,        ,,,,,,###''
      ,#''                                            '''#######################'''  
     '                                                          ''''####''''         
             ,#######,   #######,   ,#######,      ##                                
            ,#'     '#,  ##    ##  ,#'     '#,    #''#        ,####,   ,####,        
            ##       ##  ##   ,#'  ##            #'  '#       #'       #'  '#        
            ##       ##  #######   ##           ,######,      #####,   #    #        
            '#,     ,#'  ##    ##  '#,     ,#' ,#      #,     #,   #   #,  ,#        
             '#######'   ##     ##  '#######'  #'      '#     '####' # '####'        



                #########################################################
                #                        -***-                          #
                #          Department of theory and spectroscopy        #
                #                                                       #
                #                      Frank Neese                      #
                #                                                       #
                #     Directorship, Architecture, Infrastructure        #
                #                    SHARK, DRIVERS                     #
                #        Core code/Algorithms in most modules           #
                #                                                       #
                #        Max Planck Institute fuer Kohlenforschung      #
                #                Kaiser Wilhelm Platz 1                 #
                #                 D-45470 Muelheim/Ruhr                 #
                #                      Germany                          #
                #                                                       #
                #                  All rights reserved                  #
                #                        -***-                          #
                #########################################################


                         Program Version 6.0.0  -   RELEASE  -


 With contributions from (in alphabetic order):
   Daniel Aravena         : Magnetic Suceptibility
   Michael Atanasov       : Ab Initio Ligand Field Theory (pilot matlab implementation)
   Alexander A. Auer      : GIAO ZORA, VPT2 properties, NMR spectrum
   Ute Becker             : All parallelization in ORCA, NUMFREQ, NUMCALC
   Giovanni Bistoni       : ED, misc. LED, open-shell LED, HFLD
   Martin Brehm           : Molecular dynamics
   Dmytro Bykov           : pre 5.0 version of the SCF Hessian
   Marcos Casanova-Páez   : Triplet and SCS-CIS(D). UHF-(DLPNO)-IP/EA/STEOM-CCSD. UHF-CVS-IP/STEOM-CCSD
   Vijay G. Chilkuri      : MRCI spin determinant printing, contributions to CSF-ICE
   Pauline Colinet        : FMM embedding
   Dipayan Datta          : RHF DLPNO-CCSD density
   Achintya Kumar Dutta   : EOM-CC, STEOM-CC
   Nicolas Foglia         : Exact transition moments, OPA infrastructure, MCD improvements
   Dmitry Ganyushin       : Spin-Orbit,Spin-Spin,Magnetic field MRCI
   Miquel Garcia          : C-PCM and meta-GGA Hessian, CCSD/C-PCM, Gaussian charge scheme
   Tiago L. C. Gouveia    : GS-ROHF, GS-ROCIS
   Yang Guo               : DLPNO-NEVPT2, F12-NEVPT2, CIM, IAO-localization
   Andreas Hansen         : Spin unrestricted coupled pair/coupled cluster methods
   Ingolf Harden          : AUTO-CI MPn and infrastructure 
   Benjamin Helmich-Paris : MC-RPA, TRAH-(SCF,CASSCF), AVAS, COSX integrals, SCF dyn. polar.
   Lee Huntington         : MR-EOM, pCC
   Robert Izsak           : Overlap fitted RIJCOSX, COSX-SCS-MP3, EOM
   Riya Kayal             : Wick's Theorem for AUTO-CI, AUTO-CI UHF-CCSDT
   Emily Kempfer          : AUTO-CI, RHF CISDT and CCSDT
   Christian Kollmar      : KDIIS, OOCD, Brueckner-CCSD(T), CCSD density, CASPT2, CASPT2-K, improved NEVPT2
   Axel Koslowski         : Symmetry handling
   Simone Kossmann        : Meta GGA functionals, TD-DFT gradient, OOMP2, (MP2 Hessian; deprecated post 5.0)
   Lucas Lang             : DCDCAS
   Marvin Lechner         : AUTO-CI (C++ implementation), FIC-MRCC
   Spencer Leger          : CASSCF response
   Dagmar Lenk            : GEPOL surface, SMD, ORCA-2-JSON
   Dimitrios Liakos       : Extrapolation schemes; Compound Job, initial MDCI parallelization
   Dimitrios Manganas     : Further ROCIS development; embedding schemes. LFT, Crystal Embedding
   Dimitrios Pantazis     : SARC Basis sets
   Anastasios Papadopoulos: AUTO-CI, single reference methods and gradients
   Taras Petrenko         : pre 6.0 DFT Hessian and TD-DFT gradient, (ASA, deprecated), ECA, 1-Electron XAS/XES, NRVS
   Peter Pinski           : DLPNO-MP2, DLPNO-MP2 Gradient
   Christoph Reimann      : Effective Core Potentials
   Marius Retegan         : Local ZFS, SOC
   Christoph Riplinger    : Optimizer, TS searches, QM/MM, DLPNO-CCSD(T), (RO)-DLPNO pert. Triples
   Michael Roemelt        : Original ROCIS implementation
   Masaaki Saitow         : Open-shell DLPNO-CCSD energy and density
   Barbara Sandhoefer     : DKH picture change effects
   Kantharuban Sivalingam : CASSCF convergence/infrastructure, NEVPT2 and variants, FIC-MRCI
   Bernardo de Souza      : ESD, SOC TD-DFT
   Georgi Stoychev        : AutoAux, RI-MP2 NMR, DLPNO-MP2 response, X2C
   Van Anh Tran           : RI-MP2 g-tensors
   Willem Van den Heuvel  : Paramagnetic NMR
   Zikuan Wang            : NOTCH, Electric field optimization 
   Frank Wennmohs         : Technical directorship and infrastructure
   Hang Xu                : AUTO-CI-Response properties 


 We gratefully acknowledge several colleagues who have allowed us to
 interface, adapt or use parts of their codes:
   Stefan Grimme, W. Hujo, H. Kruse, P. Pracht,  : VdW corrections, initial TS optimization,
                  C. Bannwarth, S. Ehlert,         DFT functionals, gCP, sTDA/sTD-DF
                  L. Wittmann, M. Mueller
   Ed Valeev, F. Pavosevic, A. Kumar             : LibInt (2-el integral package), F12 methods
   Garnet Chan, S. Sharma, J. Yang, R. Olivares  : DMRG
   Ulf Ekstrom                                   : XCFun DFT Library
   Mihaly Kallay                                 : mrcc  (arbitrary order and MRCC methods)
   Frank Weinhold                                : gennbo (NPA and NBO analysis)
   Simon Mueller                                 : openCOSMO-RS
   Christopher J. Cramer and Donald G. Truhlar   : smd solvation model
   Lars Goerigk                                  : TD-DFT with DH, B97 family of functionals
   V. Asgeirsson, H. Jonsson                     : NEB implementation
   FAccTs GmbH                                   : IRC, NEB, NEB-TS, DLPNO-Multilevel, CI-OPT
                                                   MM, QMMM, 2- and 3-layer-ONIOM, Crystal-QMMM,
                                                   LR-CPCM, SF, NACMEs, symmetry and pop. for TD-DFT,
                                                   nearIR, NL-DFT gradient (VV10), updates on ESD,
                                                   ML-optimized integration grids, MBIS, APM,
                                                   GOAT, DOCKER, SOLVATOR, interface openCOSMO-RS
   S Lehtola, MJT Oliveira, MAL Marques          : LibXC Library
   Liviu Ungur et al                             : ANISO software


 Your calculation uses the libint2 library for the computation of 2-el integrals
 For citations please refer to: http://libint.valeyev.net

 Your ORCA version has been built with support for libXC version: 6.2.2
 For citations please refer to: https://libxc.gitlab.io

 This ORCA versions uses:
   CBLAS   interface :  Fast vector & matrix operations
   LAPACKE interface :  Fast linear algebra routines
   SCALAPACK package :  Parallel linear algebra routines
   Shared memory     :  Shared parallel matrices
   BLAS/LAPACK       :  OpenBLAS 0.3.27  USE64BITINT DYNAMIC_ARCH NO_AFFINITY SkylakeX SINGLE_THREADED
        Core in use  :  SkylakeX
   Copyright (c) 2011-2014, The OpenBLAS Project




***************************************
The coordinates will be read from file: xtb_opt.xyz
***************************************


Your calculation utilizes the geometrical counterpoise correction gCP
Please cite in your paper:
H.Kruse, S. Grimme J.Chem.Phys., 136, (2012), 154101 
   

Your calculation utilizes the atom-pairwise dispersion correction
based on EEQ partial charges (D4)


Your calculation utilizes the SMD solvation module
Please cite in your paper:
A.V. Marenich, C.J. Cramer, D.G. Truhlar J. Phys. Chem. B, 113, (2009), 6378 

================================================================================

----- Orbital basis set information -----
Your calculation utilizes the basis: def2-mTZVPP
   Stefan Grimme, Andreas Hansen, Sebastian Ehlert, and Jan-Michael Mewes 
   J. Chem. Phys. 154, 064103 (2021). DOI: 10.1063/5.0040021

----- AuxJ basis set information -----
Your calculation utilizes the auxiliary basis: def2/J
   F. Weigend, Phys. Chem. Chem. Phys. 8, 1057 (2006).

================================================================================
                                        WARNINGS
                       Please study these warnings very carefully!
================================================================================

WARNING: Old DensityContainer found on disk!
         Will remove this file - 
         If you want to keep old densities, please start your calculation with a different basename. 

Using LibXC functional ID 497 : Re-regularized SCAN exchange by Furness et al
[ 1]  J. W. Furness, A. D. Kaplan, J. Ning, J. P. Perdew, and J. Sun.,  J. Phys. Chem. Lett. 11, 8208-8215 (2020)
[ 2]  J. W. Furness, A. D. Kaplan, J. Ning, J. P. Perdew, and J. Sun.,  J. Phys. Chem. Lett. 11, 9248-9248 (2020)
Using LibXC functional ID 498 : Re-regularized SCAN correlation by Furness et al
[ 1]  J. W. Furness, A. D. Kaplan, J. Ning, J. P. Perdew, and J. Sun.,  J. Phys. Chem. Lett. 11, 8208-8215 (2020)
[ 2]  J. W. Furness, A. D. Kaplan, J. Ning, J. P. Perdew, and J. Sun.,  J. Phys. Chem. Lett. 11, 9248-9248 (2020)
Using LibXC functional ID 497 : Re-regularized SCAN exchange by Furness et al
[ 1]  J. W. Furness, A. D. Kaplan, J. Ning, J. P. Perdew, and J. Sun.,  J. Phys. Chem. Lett. 11, 8208-8215 (2020)
[ 2]  J. W. Furness, A. D. Kaplan, J. Ning, J. P. Perdew, and J. Sun.,  J. Phys. Chem. Lett. 11, 9248-9248 (2020)
Using LibXC functional ID 498 : Re-regularized SCAN correlation by Furness et al
[ 1]  J. W. Furness, A. D. Kaplan, J. Ning, J. P. Perdew, and J. Sun.,  J. Phys. Chem. Lett. 11, 8208-8215 (2020)
[ 2]  J. W. Furness, A. D. Kaplan, J. Ning, J. P. Perdew, and J. Sun.,  J. Phys. Chem. Lett. 11, 9248-9248 (2020)

================================================================================
                                       INPUT FILE
================================================================================
NAME = xtb_opt.inp
|  1> ! r2scan-3c def2/J RI DEFGRID2 scfconv7 ENGRAD tightSCF miniprint
|  2> %cpcm
|  3>     smd true
|  4>     smdsolvent "water"
|  5> end
|  6> * xyzfile 0 1 xtb_opt.xyz
|  7> 
|  8>                          ****END OF INPUT****
================================================================================

                     *******************************
                     * Energy+Gradient Calculation *
                     *******************************

---------------------------------
CARTESIAN COORDINATES (ANGSTROEM)
---------------------------------
  C     -3.292986   -0.836700    0.419967
  C     -1.908404   -0.616616   -0.180650
  C     -1.502445    0.855757   -0.178782
  C     -0.116879    1.085646   -0.793771
  C      0.956323    0.411682    0.012858
  O      1.121059    0.566369    1.212171
  O      1.736386   -0.394763   -0.733376
  C      2.803308   -1.074632   -0.020885
  H     -4.054736   -0.282192   -0.139515
  H     -3.570727   -1.895390    0.404956
  H     -3.327839   -0.495273    1.460458
  H     -1.167377   -1.201056    0.382329
  H     -1.885051   -0.994290   -1.211006
  H     -1.513943    1.244748    0.846422
  H     -2.231873    1.440258   -0.751079
  H      0.119264    2.156470   -0.795201
  H     -0.084533    0.730544   -1.826595
  H      3.294290   -1.700093   -0.765733
  H      2.388800   -1.690149    0.781238
  H      3.506523   -0.345368    0.389265

----------------------------
CARTESIAN COORDINATES (A.U.)
----------------------------
  NO LB      ZA    FRAG     MASS         X           Y           Z
   0 C     6.0000    0    12.011   -6.222841   -1.581133    0.793623
   1 C     6.0000    0    12.011   -3.606360   -1.165235   -0.341379
   2 C     6.0000    0    12.011   -2.839210    1.617145   -0.337850
   3 C     6.0000    0    12.011   -0.220869    2.051574   -1.500010
   4 C     6.0000    0    12.011    1.807188    0.777966    0.024298
   5 O     8.0000    0    15.999    2.118494    1.070281    2.290671
   6 O     8.0000    0    15.999    3.281294   -0.745994   -1.385879
   7 C     6.0000    0    12.011    5.297484   -2.030760   -0.039467
   8 H     1.0000    0     1.008   -7.662341   -0.533266   -0.263645
   9 H     1.0000    0     1.008   -6.747696   -3.581767    0.765256
  10 H     1.0000    0     1.008   -6.288705   -0.935931    2.759865
  11 H     1.0000    0     1.008   -2.206023   -2.269667    0.722497
  12 H     1.0000    0     1.008   -3.562230   -1.878936   -2.288470
  13 H     1.0000    0     1.008   -2.860937    2.352233    1.599505
  14 H     1.0000    0     1.008   -4.217629    2.721693   -1.419333
  15 H     1.0000    0     1.008    0.225376    4.075138   -1.502713
  16 H     1.0000    0     1.008   -0.159745    1.380528   -3.451765
  17 H     1.0000    0     1.008    6.225307   -3.212710   -1.447026
  18 H     1.0000    0     1.008    4.514177   -3.193918    1.476326
  19 H     1.0000    0     1.008    6.626368   -0.652651    0.735604

------------------------------------------------------------------------------
                   ___                                                        
                  /   \      - P O W E R E D   B Y -                         
                 /     \                                                     
                 |  |  |   _    _      __       _____    __    __             
                 |  |  |  | |  | |    /  \     |  _  \  |  |  /  |          
                  \  \/   | |  | |   /    \    | | | |  |  | /  /          
                 / \  \   | |__| |  /  /\  \   | |_| |  |  |/  /          
                |  |  |   |  __  | /  /__\  \  |    /   |      \           
                |  |  |   | |  | | |   __   |  |    \   |  |\   \          
                \     /   | |  | | |  |  |  |  | |\  \  |  | \   \       
                 \___/    |_|  |_| |__|  |__|  |_| \__\ |__|  \__/        
                                                                              
                      - O R C A' S   B I G   F R I E N D -                    
                                      &                                       
                       - I N T E G R A L  F E E D E R -                       
                                                                              
 v1 FN, 2020, v2 2021, v3 2022-2024                                           
------------------------------------------------------------------------------


----------------------
SHARK INTEGRAL PACKAGE
----------------------

Number of atoms                             ...     20
Number of basis functions                   ...    222
Number of shells                            ...    110
Maximum angular momentum                    ...      2
Integral batch strategy                     ... SHARK/LIBINT Hybrid
RI-J (if used) integral strategy            ... SPLIT-RIJ (Revised 2003 algorithm where possible)
Printlevel                                  ...      1
Contraction scheme used                     ... SEGMENTED contraction
Prescreening option                         ... SCHWARTZ
   Thresh                                   ... 3.000e-11
   Tcut                                     ... 1.000e-12
   Tpresel                                  ... 1.000e-12 
Coulomb Range Separation                    ... NOT USED
Exchange Range Separation                   ... NOT USED
Multipole approximations                    ... NOT USED
Finite Nucleus Model                        ... NOT USED
CABS basis                                  ... NOT available
Auxiliary Coulomb fitting basis             ... AVAILABLE
   # of basis functions in Aux-J            ...    524
   # of shells in Aux-J                     ...    180
   Maximum angular momentum in Aux-J        ...      4
Auxiliary J/K fitting basis                 ... NOT available
Auxiliary Correlation fitting basis         ... NOT available
Auxiliary 'external' fitting basis          ... NOT available

Checking pre-screening integrals            ... done (  0.0 sec) Dimension = 110
Check shell pair data                       ... done (  0.0 sec)
Shell pair information
Shell pair cut-off parameter TPreSel        ...   1.0e-12
Total number of shell pairs                 ...      6105
Shell pairs after pre-screening             ...      5355
Total number of primitive shell pairs       ...     21533
Primitive shell pairs kept                  ...     13473
          la=0 lb=0:   1796 shell pairs
          la=1 lb=0:   2021 shell pairs
          la=1 lb=1:    588 shell pairs
          la=2 lb=0:    571 shell pairs
          la=2 lb=1:    327 shell pairs
          la=2 lb=2:     52 shell pairs

Calculating one electron integrals          ... done (  0.0 sec)
Calculating RI/J V-Matrix + Cholesky decomp.... done (  0.1 sec)
Calculating Nuclear repulsion               ... done (  0.0 sec) ENN=    389.581959872571 Eh

Diagonalization of the overlap matrix:
Smallest eigenvalue                        ... 1.464e-04
Time for diagonalization                   ...    0.005 sec
Threshold for overlap eigenvalues          ... 1.000e-07
Number of eigenvalues below threshold      ... 0
Time for construction of square roots      ...    0.018 sec
Total time needed                          ...    0.032 sec

-------------------
DFT GRID GENERATION
-------------------

General Integration Accuracy     IntAcc      ... 4.388
Radial Grid Type                 RadialGrid  ... OptM3 with GC (2021)
Angular Grid (max. ang.)         AngularGrid ... 4 (Lebedev-302)
Angular grid pruning method      GridPruning ... 4 (adaptive)
Weight generation scheme         WeightScheme... mBecke (2022)
Basis function cutoff            BFCut       ... 1.0000e-11
Integration weight cutoff        WCut        ... 1.0000e-14
Partially contracted basis set               ... off
Rotationally invariant grid construction     ... off
Angular grids for H and He will be reduced by one unit
Diffuse basis detected: some atoms will have their outermost
                        angular grid increased by 1.

Total number of grid points                  ...    87367
Total number of batches                      ...     1376
Average number of points per batch           ...       63
Average number of grid points per atom       ...     4368
Initializing property integral containers    ... done (  0.0 sec)

SHARK setup successfully completed in   1.2 seconds

Maximum memory used throughout the entire STARTUP-calculation: 39.5 MB
Occupation numbers will be reassigned to an Aufbau configuration
             **** ENERGY FILE WAS UPDATED (xtb_opt.en.tmp) ****
Finished Guess after   0.5 sec
Maximum memory used throughout the entire GUESS-calculation: 15.1 MB
--------------------
CPCM SOLVATION MODEL
--------------------
CPCM parameters:
  Epsilon                                         ...      78.3550
  Refrac                                          ...       1.3328
  Rsolv                                           ...       1.3000
  Surface type                                    ... GAUSSIAN VDW
  Discretization scheme                           ... Constant charge density
    Threshold for H atoms                         ...       5.0000 (charges/Ang^2)
    Threshold for non-H atoms                     ...       5.0000 (charges/Ang^2)
  Epsilon function type                           ...         CPCM
Solvent:                                          ... WATER
SMD-CDS solvent descriptors:
  Soln                                            ...       1.3328
  Soln25                                          ...       1.3323
  Sola                                            ...       0.0000
  Solb                                            ...       0.0000
  Solg                                            ...       0.0000
  Solc                                            ...       0.0000
  Solh                                            ...       0.0000
Radii:
  Scheme                                          ... Element-dependent radii
  Radius for C  used is    3.4960 Bohr (=   1.8500 Ang.)
  Radius for O  used is    2.8724 Bohr (=   1.5200 Ang.)
  Radius for H  used is    2.2677 Bohr (=   1.2000 Ang.)
Calculating surface                               ...        done! (  0.0s)
Cavity surface points                             ...         1497
Cavity Volume                                     ...     883.0066
Cavity Surface-area                               ...     589.0713
Calculating surface distance matrix               ...        done! (  0.0s)
Performing Cholesky decomposition & store         ...        done! (  0.3s)
Overall time for CPCM initialization              ...                 0.3s

----------------------------------------D-I-I-S--------------------------------------------
Iteration    Energy (Eh)           Delta-E    RMSDP     MaxDP     DIISErr   Damp  Time(sec)
-------------------------------------------------------------------------------------------
               ***  Starting incremental Fock matrix formation  ***
                              *** Initializing SOSCF ***
---------------------------------------S-O-S-C-F--------------------------------------
Iteration    Energy (Eh)           Delta-E    RMSDP     MaxDP     MaxGrad    Time(sec)
--------------------------------------------------------------------------------------
    1    -386.2529427684143570     0.00e+00  4.39e-05  1.09e-03  1.48e-04     3.5
               *** Restarting incremental Fock matrix formation ***
    2    -386.2529711363957290    -2.84e-05  2.24e-05  4.16e-04  1.63e-04     3.5
    3    -386.2529719323309223    -7.96e-07  1.40e-05  3.26e-04  3.22e-04     3.0
    4    -386.2529726234492387    -6.91e-07  1.05e-05  1.92e-04  1.70e-04     2.7
    5    -386.2529730944062862    -4.71e-07  4.05e-06  9.47e-05  3.59e-05     2.7
    6    -386.2529731351893929    -4.08e-08  2.36e-06  5.66e-05  2.53e-05     2.9
                 **** Energy Check signals convergence ****

               *****************************************************
               *                     SUCCESS                       *
               *           SCF CONVERGED AFTER   6 CYCLES          *
               *****************************************************


SMD CDS free energy correction energy :                 5.14665     Kcal/mol
Total Energy after SMD CDS correction =              -386.244771425 Eh
             **** ENERGY FILE WAS UPDATED (xtb_opt.en.tmp) ****

----------------
TOTAL SCF ENERGY
----------------

Total Energy       :       -386.24477142529213 Eh          -10510.25456 eV

Components:
Nuclear Repulsion  :        389.58195987257074 Eh           10601.06408 eV
Electronic Energy  :       -775.81862127906572 Eh          -21111.09795 eV
One Electron Energy:      -1296.64368267547593 Eh          -35283.46838 eV
Two Electron Energy:        520.82506139641021 Eh           14172.37043 eV
CPCM Dielectric    :         -0.01631172869441 Eh              -0.44386 eV
SMD CDS (Gcds)     :          0.00820170989728 Eh               0.22318 eV

Virial components:
Potential Energy   :       -770.68970313443037 Eh          -20971.53299 eV
Kinetic Energy     :        384.44493170913825 Eh           10461.27843 eV
Virial Ratio       :          2.00468165806778

DFT components:
N(Alpha)           :       32.000034622873 electrons
N(Beta)            :       32.000034622873 electrons
N(Total)           :       64.000069245747 electrons
E(X)               :      -52.034740024992 Eh       
E(C)               :       -2.035383894168 Eh       
E(XC)              :      -54.070123919160 Eh       

CPCM Solvation Model Properties:
Surface-charge          :         -0.04730108449093
Corrected charge        :          0.00000000000000
Outlying charge corr.   :          0.00016827693932 Eh               0.00458 eV
Free-energy (cav+disp)  :          0.00820170989728 Eh               0.22318 eV

---------------
SCF CONVERGENCE
---------------

  Last Energy change         ...    4.0783e-08  Tolerance :   1.0000e-07
  Last MAX-Density change    ...    5.6648e-05  Tolerance :   1.0000e-07
  Last RMS-Density change    ...    2.3585e-06  Tolerance :   5.0000e-09
  Last DIIS Error            ...    1.8035e-03  Tolerance :   1.0000e-07
  Last Orbital Gradient      ...    2.5251e-05  Tolerance :   1.0000e-04
  Last Orbital Rotation      ...    4.4992e-05  Tolerance :   1.0000e-04


----------------
ORBITAL ENERGIES
----------------

  NO   OCC          E(Eh)            E(eV) 
   0   2.0000     -19.005949      -517.1782 
   1   2.0000     -18.946258      -515.5539 
   2   2.0000     -10.165135      -276.6074 
   3   2.0000     -10.077872      -274.2329 
   4   2.0000     -10.038406      -273.1589 
   5   2.0000     -10.028128      -272.8792 
   6   2.0000     -10.021852      -272.7084 
   7   2.0000     -10.012138      -272.4441 
   8   2.0000      -1.071726       -29.1632 
   9   2.0000      -0.985289       -26.8111 
  10   2.0000      -0.771505       -20.9937 
  11   2.0000      -0.718837       -19.5606 
  12   2.0000      -0.677406       -18.4332 
  13   2.0000      -0.609700       -16.5908 
  14   2.0000      -0.551872       -15.0172 
  15   2.0000      -0.522005       -14.2045 
  16   2.0000      -0.473167       -12.8755 
  17   2.0000      -0.454828       -12.3765 
  18   2.0000      -0.448210       -12.1964 
  19   2.0000      -0.422188       -11.4883 
  20   2.0000      -0.403017       -10.9666 
  21   2.0000      -0.388860       -10.5814 
  22   2.0000      -0.383937       -10.4475 
  23   2.0000      -0.353262        -9.6128 
  24   2.0000      -0.342235        -9.3127 
  25   2.0000      -0.329771        -8.9735 
  26   2.0000      -0.324381        -8.8268 
  27   2.0000      -0.303604        -8.2615 
  28   2.0000      -0.290807        -7.9133 
  29   2.0000      -0.289737        -7.8842 
  30   2.0000      -0.283012        -7.7011 
  31   2.0000      -0.254154        -6.9159 
  32   0.0000      -0.028410        -0.7731 
  33   0.0000       0.065577         1.7844 
  34   0.0000       0.093605         2.5471 
  35   0.0000       0.115157         3.1336 
  36   0.0000       0.122866         3.3434 
  37   0.0000       0.137712         3.7473 
  38   0.0000       0.142439         3.8760 
  39   0.0000       0.148971         4.0537 
  40   0.0000       0.152299         4.1443 
  41   0.0000       0.166877         4.5410 
  42   0.0000       0.170060         4.6276 
*Only the first 10 virtual orbitals were printed.
Total SCF time: 0 days 0 hours 0 min 19 sec 
Finished LeanSCF after  19.5 sec

Maximum memory used throughout the entire LEANSCF-calculation: 30.5 MB


-------------------------------------------------------------------------------
                          DFT DISPERSION CORRECTION                            
                                                                               
                                DFTD4 V3.4.0                                   
-------------------------------------------------------------------------------
-------------------------   ----------------
Dispersion correction           -0.005102192
-------------------------   ----------------

------------------   -----------------
gCP correction             0.011691603
------------------   -----------------

-------------------------   --------------------
FINAL SINGLE POINT ENERGY      -386.238182013672
-------------------------   --------------------

------------------------------------------------------------------------------
                         ORCA SCF GRADIENT CALCULATION
------------------------------------------------------------------------------

Nuc. rep. gradient        (SHARK) ... done (  0.0 sec)
HCore & Overlap gradient  (SHARK) ... done (  0.3 sec)
Split-RIJ-J gradient      (SHARK) ... done (  1.7 sec)
XC gradient                       ... done (  7.2 sec)
CPCM gradient                     ... done (  1.0 sec)
SMD gradient                      ... done (  0.0 sec)
Dispersion correction             ... done (  0.0 sec)

-------------------
DISPERSION GRADIENT
-------------------

   1   C   :   -0.000083704   -0.000035887    0.000019353
   2   C   :   -0.000069266   -0.000029854   -0.000007102
   3   C   :   -0.000042999    0.000042958   -0.000007214
   4   C   :    0.000002161    0.000061606   -0.000039354
   5   C   :    0.000064632    0.000019506    0.000002848
   6   O   :    0.000058015    0.000029590    0.000060593
   7   O   :    0.000078404   -0.000017851   -0.000018176
   8   C   :    0.000081648   -0.000037637    0.000010060
   9   H   :   -0.000029430   -0.000011227    0.000003791
  10   H   :   -0.000024982   -0.000020453    0.000006316
  11   H   :   -0.000031544   -0.000013600    0.000015383
  12   H   :   -0.000031329   -0.000017803    0.000007274
  13   H   :   -0.000032844   -0.000018087   -0.000014997
  14   H   :   -0.000011510    0.000019693    0.000009701
  15   H   :   -0.000019217    0.000020881   -0.000011160
  16   H   :    0.000005147    0.000035624   -0.000010863
  17   H   :    0.000003631    0.000019085   -0.000029730
  18   H   :    0.000025527   -0.000017221   -0.000004229
  19   H   :    0.000033735   -0.000017553    0.000005329
  20   H   :    0.000023924   -0.000011770    0.000002177

Difference to translation invariance:
           :    0.0000000000    0.0000000000   -0.0000000000

Difference to rotation invariance:
           :    0.0000000000   -0.0000000000    0.0000000000

Norm of the Dispersion gradient    ...    0.0002546082
RMS gradient                       ...    0.0000328698
MAX gradient                       ...    0.0000837036
gCP correction                   ... done

------------------
CARTESIAN GRADIENT
------------------

   1   C   :    0.000059739    0.000013628   -0.000043171
   2   C   :    0.000027899    0.000027953    0.000041375
   3   C   :    0.000057544   -0.000036437   -0.000008126
   4   C   :    0.000095245    0.000078988   -0.000013337
   5   C   :   -0.000046928   -0.000197103    0.000364980
   6   O   :    0.000050910   -0.000111072   -0.000462326
   7   O   :   -0.000168966    0.000333366    0.000029782
   8   C   :   -0.000197877    0.000069109   -0.000124181
   9   H   :   -0.000007582   -0.000011317   -0.000012197
  10   H   :    0.000001206   -0.000021016   -0.000029677
  11   H   :   -0.000018852   -0.000029789    0.000008188
  12   H   :   -0.000016852    0.000027203   -0.000020813
  13   H   :    0.000014518   -0.000004070   -0.000004741
  14   H   :   -0.000038703    0.000013116    0.000002307
  15   H   :    0.000037329   -0.000020578   -0.000036905
  16   H   :   -0.000029393   -0.000102057    0.000032536
  17   H   :    0.000012452    0.000049236    0.000057234
  18   H   :   -0.000006257   -0.000151860   -0.000090914
  19   H   :   -0.000049655   -0.000066745    0.000241116
  20   H   :    0.000224222    0.000139443    0.000068870

Difference to translation invariance:
           :    0.0000000000   -0.0000000000    0.0000000000

Difference to rotation invariance:
           :    0.0003913491   -0.0005710630    0.0001589047

Norm of the Cartesian gradient     ...    0.0009113453
RMS gradient                       ...    0.0001176542
MAX gradient                       ...    0.0004623263

-------
TIMINGS
-------

Total SCF gradient time     ....       11.035 sec

Densities                   ....       0.001 sec  (  0.0%)
One electron gradient       ....       0.336 sec  (  3.0%)
RI-J Coulomb gradient       ....       1.698 sec  ( 15.4%)
XC gradient                 ....       7.156 sec  ( 64.8%)
CPCM gradient               ....       0.971 sec  (  8.8%)
   A-Matrix (El+Nuc)        ....       0.074 sec  (  0.7%)
   Potential                ....       0.897 sec  (  8.1%)
SMD gradient                ....       0.014 sec  (  0.1%)

Maximum memory used throughout the entire SCFGRAD-calculation: 35.4 MB

------------------------------------------------------------------------------
                              ORCA PROPERTY CALCULATIONS
------------------------------------------------------------------------------

GBWName                                 ... xtb_opt.gbw
Number of atoms                         ...     20
Number of basis functions               ...    222
Max core memory                         ...   1024 MB

Electric properties:
Dipole moment                           ... YES
Quadrupole moment                       ...  NO
Static polarizability (Dipole/Dipole)   ...  NO
Static polarizability (Dipole/Quad.)    ...  NO
Static polarizability (Quad./Quad.)     ...  NO
Static polarizability (Velocity)        ...  NO

Atomic electric properties:
Dipole moment                           ...  NO
Quadrupole moment                       ...  NO
Static polarizability                   ...  NO

Choice of electric origin               ... Center of mass
Position of electric origin             ...     0.005762    -0.039220    -0.040302

General magnetic properties:
Magnetizability                         ...  NO

EPR properties:
g-Tensor (aka g-matrix)                 ...  NO
Zero-Field splitting spin-orbit         ...  NO
Zero-field splitting spin-spin          ...  NO
Hyperfine couplings                     ...  NO (   0 nuclei)
Quadrupole couplings                    ...  NO (   0 nuclei)
Contact density                         ...  NO (   0 nuclei)

NMR properties:
Chemical shifts                         ...  NO (   0 nuclei)
Spin-rotation constants                 ...  NO (   0 nuclei)
Spin-spin couplings                     ...  NO (   0 nuclei,    0 pairs)

Choice of magnetic origin               ... GIAO
Position of magnetic origin             ...     0.000000     0.000000     0.000000

Properties with geometric perturbations:
SCF Hessian                             ...  NO
IR spectrum                             ...  NO
VCD spectrum                            ...  NO
X-ray spectroscopy properties:
SCF XES/XAS/RIXS spectra                ...  NO


-------------
DIPOLE MOMENT
-------------

Method             : SCF
Type of density    : Electron Density
Multiplicity       :   1
Irrep              :   0
Energy             :  -386.2447714252921287 Eh
Relativity type    : 
Basis              : AO
                                X                 Y                 Z
Electronic contribution:      8.023397280       2.265357955      -0.078413562
Nuclear contribution   :     -7.992176681      -2.607549945      -0.900950149
                        -----------------------------------------
Total Dipole Moment    :      0.031220599      -0.342191990      -0.979363711
                        -----------------------------------------
Magnitude (a.u.)       :      1.037893714
Magnitude (Debye)      :      2.638116167



--------------------
Rotational spectrum 
--------------------
 
Rotational constants in cm-1:             0.126344             0.033068             0.031323 
Rotational constants in MHz :          3787.687755           991.354001           939.026561 

Dipole components along the rotational axes: 
x,y,z [a.u.] :    -0.059919     0.226010     1.011213 
x,y,z [Debye]:    -0.152303     0.574473     2.570300 

 

Dipole moment calculation done in   0.0 sec 

Maximum memory used throughout the entire PROP-calculation: 13.9 MB

--------------------------------
SUGGESTED CITATIONS FOR THIS RUN
--------------------------------

Below you find a list of papers that are relevant to this ORCA run
We neither can nor want to force you to cite these papers, but we appreciate if you do
You receive ORCA, which is the product of decades of hard work by many enthusiastic individuals, for free
The only thing we kindly ask in return is that you cite our papers,
We deeply appreciate it, if you show your appreciation for ORCA by not just citing the generic ORCA reference.

Please note that relegating all ORCA citations to the supporting information does *not* help us.
SI sections are not indexed - citations you put there will not count into any citation statistics
But we need these citations in order to attract the funding resources that allow us to do what we are doing

Therefore, if you are a happy ORCA user, please consider citing a few of the papers listed below in the main body of your paper

In addition to the list printed below, the program has created the file xtb_opt.bibtex that contains the list in bibtex format
You can import this file easily into all common literature databanks and citation aid programs


List of essential papers. We consider these as the minimum necessary citations

  1. Neese,F.
     Software update: the ORCA program system, version 5.0
     WIRES Comput. Molec. Sci., 2022 12(1)e1606
     doi.org/10.1002/wcms.1606
  2. Grimme,S.; Hansen,A.; Ehlert,S.; Mewes,J.
     r2SCAN-3c: A 'Swiss army knife' composite electronic-structure method
     J. Chem. Phys., 2021 154 064103
     doi.org/10.1063/5.0040021

List of papers to cite with high priority. The work reported in these papers was absolutely
necessary for this run to complete.
Our perspective: the developers of density functionals and basis sets usually get cited in chemistry papers
Good! But without the algorithms to do something with them, the functionals or basis sets would not do anything.
Hence, in our opinion, the algorithm design and method developments papers are equally worthy of getting cited

  1. Neese,F.
     An improvement of the resolution of the identity approximation for the formation of the Coulomb matrix
     J. Comp. Chem., 2003 24(14)1740-1747
     doi.org/10.1002/jcc.10318
  2. Garcia-Rates,M.; Neese,F.
     Effect of the Solute Cavity on the Solvation Energy and its Derivatives within the Framework of the Gaussian Charge Scheme
     J. Comput. Chem., 2020 41 922-939
     doi.org/10.1002/jcc.26139
  3. Neese,F.
     The SHARK Integral Generation and Digestion System
     J. Comp. Chem., 2022  1-16
     doi.org/10.1002/jcc.26942
  4. Lehtola,S.; Steigemann,C.; Oliveira,M.; Marques,M.
     Recent developments in Libxc - A comprehensive library of functionals for density functional theory
     Software X, 2018 7 
     doi.org/10.1016/j.softx.2017.11.002
  5. Caldeweyher,E.; Bannwarth,C.; Grimme,S.
     Extension of the D3 dispersion coefficient model
     J. Chem. Phys., 2017 147 034112-XXXX
     doi.org/10.1063/1.4993215
  6. Caldeweyher,E.; Ehlert,S.; Hansen,A.; Neugebauer,H.; Spicher,S.; Bannwarth,C.; Grimme,S.
     A generally applicable atomic-charge dependent London dispersion correction
     J. Chem. Phys., 2019 150 154122-XXXX
     doi.org/10.1063/1.5090222
  7. Caldeweyher,E.; Mewes,J.; Ehlert,S.; Grimme,S.
     Extension and evaluation of the D4 London-dispersion model for periodic systems
     Phys. Chem. Chem. Phys., 2020 22(16)8499-8512
     doi.org/10.1039/D0CP00502A

List of suggested additional citations. These are papers that are important in the 'surrounding' of 
of this run, or papers that preceded the highly important papers. If you like your results we are grateful for a citation.

  1. Neese,F.
     The ORCA program system
     WIRES Comput. Molec. Sci., 2012 2(1)73-78
     doi.org/10.1002/wcms.81
  2. Neese,F.
     Software update: the ORCA program system, version 4.0
     WIRES Comput. Molec. Sci., 2018 8(1)1-6
     doi.org/10.1002/wcms.1327
  3. Neese,F.; Wennmohs,F.; Becker,U.; Riplinger,C.
     The ORCA quantum chemistry program package
     J. Chem. Phys., 2020 152 Art. No. L224108
     doi.org/10.1063/5.0004608

List of optional additional citations

  1. Neese,F.
     Approximate second-order SCF convergence for spin unrestricted wavefunctions
     Chem. Phys. Lett., 2000 325(1-3)93-98
     doi.org/10.1016/s0009-2614(00)00662-x

Timings for individual modules:

Sum of individual times          ...       32.601 sec (=   0.543 min)
Startup calculation              ...        1.250 sec (=   0.021 min)   3.8 %
SCF iterations                   ...       20.097 sec (=   0.335 min)  61.6 %
Property calculations            ...        0.114 sec (=   0.002 min)   0.4 %
SCF Gradient evaluation          ...       11.140 sec (=   0.186 min)  34.2 %
                             ****ORCA TERMINATED NORMALLY****
TOTAL RUN TIME: 0 days 0 hours 0 minutes 33 seconds 685 msec
  ------------------------------------------------------------------------
          * successful ORCA run, taking over control again...
av. E:   -386.2381820 ->   -386.2381820
av. G:      0.0021809 ->      0.0021809
 * total energy  :  -386.2381820 Eh     change       -0.1024612E-04 Eh
   gradient norm :     0.0009102 Eh/a0  converged?    E=F G=T D=F
   step length   :     0.0361441 a0

........................................................................
.............................. CYCLE    3 ..............................
........................................................................
                         * ORCA takes the control...
  ------------------------------------------------------------------------

                                 *****************
                                 * O   R   C   A *
                                 *****************

                                            #,                                       
                                            ###                                      
                                            ####                                     
                                            #####                                    
                                            ######                                   
                                           ########,                                 
                                     ,,################,,,,,                         
                               ,,#################################,,                 
                          ,,##########################################,,             
                       ,#########################################, ''#####,          
                    ,#############################################,,   '####,        
                  ,##################################################,,,,####,       
                ,###########''''           ''''###############################       
              ,#####''   ,,,,##########,,,,          '''####'''          '####       
            ,##' ,,,,###########################,,,                        '##       
           ' ,,###''''                  '''############,,,                           
         ,,##''                                '''############,,,,        ,,,,,,###''
      ,#''                                            '''#######################'''  
     '                                                          ''''####''''         
             ,#######,   #######,   ,#######,      ##                                
            ,#'     '#,  ##    ##  ,#'     '#,    #''#        ,####,   ,####,        
            ##       ##  ##   ,#'  ##            #'  '#       #'       #'  '#        
            ##       ##  #######   ##           ,######,      #####,   #    #        
            '#,     ,#'  ##    ##  '#,     ,#' ,#      #,     #,   #   #,  ,#        
             '#######'   ##     ##  '#######'  #'      '#     '####' # '####'        



                #########################################################
                #                        -***-                          #
                #          Department of theory and spectroscopy        #
                #                                                       #
                #                      Frank Neese                      #
                #                                                       #
                #     Directorship, Architecture, Infrastructure        #
                #                    SHARK, DRIVERS                     #
                #        Core code/Algorithms in most modules           #
                #                                                       #
                #        Max Planck Institute fuer Kohlenforschung      #
                #                Kaiser Wilhelm Platz 1                 #
                #                 D-45470 Muelheim/Ruhr                 #
                #                      Germany                          #
                #                                                       #
                #                  All rights reserved                  #
                #                        -***-                          #
                #########################################################


                         Program Version 6.0.0  -   RELEASE  -


 With contributions from (in alphabetic order):
   Daniel Aravena         : Magnetic Suceptibility
   Michael Atanasov       : Ab Initio Ligand Field Theory (pilot matlab implementation)
   Alexander A. Auer      : GIAO ZORA, VPT2 properties, NMR spectrum
   Ute Becker             : All parallelization in ORCA, NUMFREQ, NUMCALC
   Giovanni Bistoni       : ED, misc. LED, open-shell LED, HFLD
   Martin Brehm           : Molecular dynamics
   Dmytro Bykov           : pre 5.0 version of the SCF Hessian
   Marcos Casanova-Páez   : Triplet and SCS-CIS(D). UHF-(DLPNO)-IP/EA/STEOM-CCSD. UHF-CVS-IP/STEOM-CCSD
   Vijay G. Chilkuri      : MRCI spin determinant printing, contributions to CSF-ICE
   Pauline Colinet        : FMM embedding
   Dipayan Datta          : RHF DLPNO-CCSD density
   Achintya Kumar Dutta   : EOM-CC, STEOM-CC
   Nicolas Foglia         : Exact transition moments, OPA infrastructure, MCD improvements
   Dmitry Ganyushin       : Spin-Orbit,Spin-Spin,Magnetic field MRCI
   Miquel Garcia          : C-PCM and meta-GGA Hessian, CCSD/C-PCM, Gaussian charge scheme
   Tiago L. C. Gouveia    : GS-ROHF, GS-ROCIS
   Yang Guo               : DLPNO-NEVPT2, F12-NEVPT2, CIM, IAO-localization
   Andreas Hansen         : Spin unrestricted coupled pair/coupled cluster methods
   Ingolf Harden          : AUTO-CI MPn and infrastructure 
   Benjamin Helmich-Paris : MC-RPA, TRAH-(SCF,CASSCF), AVAS, COSX integrals, SCF dyn. polar.
   Lee Huntington         : MR-EOM, pCC
   Robert Izsak           : Overlap fitted RIJCOSX, COSX-SCS-MP3, EOM
   Riya Kayal             : Wick's Theorem for AUTO-CI, AUTO-CI UHF-CCSDT
   Emily Kempfer          : AUTO-CI, RHF CISDT and CCSDT
   Christian Kollmar      : KDIIS, OOCD, Brueckner-CCSD(T), CCSD density, CASPT2, CASPT2-K, improved NEVPT2
   Axel Koslowski         : Symmetry handling
   Simone Kossmann        : Meta GGA functionals, TD-DFT gradient, OOMP2, (MP2 Hessian; deprecated post 5.0)
   Lucas Lang             : DCDCAS
   Marvin Lechner         : AUTO-CI (C++ implementation), FIC-MRCC
   Spencer Leger          : CASSCF response
   Dagmar Lenk            : GEPOL surface, SMD, ORCA-2-JSON
   Dimitrios Liakos       : Extrapolation schemes; Compound Job, initial MDCI parallelization
   Dimitrios Manganas     : Further ROCIS development; embedding schemes. LFT, Crystal Embedding
   Dimitrios Pantazis     : SARC Basis sets
   Anastasios Papadopoulos: AUTO-CI, single reference methods and gradients
   Taras Petrenko         : pre 6.0 DFT Hessian and TD-DFT gradient, (ASA, deprecated), ECA, 1-Electron XAS/XES, NRVS
   Peter Pinski           : DLPNO-MP2, DLPNO-MP2 Gradient
   Christoph Reimann      : Effective Core Potentials
   Marius Retegan         : Local ZFS, SOC
   Christoph Riplinger    : Optimizer, TS searches, QM/MM, DLPNO-CCSD(T), (RO)-DLPNO pert. Triples
   Michael Roemelt        : Original ROCIS implementation
   Masaaki Saitow         : Open-shell DLPNO-CCSD energy and density
   Barbara Sandhoefer     : DKH picture change effects
   Kantharuban Sivalingam : CASSCF convergence/infrastructure, NEVPT2 and variants, FIC-MRCI
   Bernardo de Souza      : ESD, SOC TD-DFT
   Georgi Stoychev        : AutoAux, RI-MP2 NMR, DLPNO-MP2 response, X2C
   Van Anh Tran           : RI-MP2 g-tensors
   Willem Van den Heuvel  : Paramagnetic NMR
   Zikuan Wang            : NOTCH, Electric field optimization 
   Frank Wennmohs         : Technical directorship and infrastructure
   Hang Xu                : AUTO-CI-Response properties 


 We gratefully acknowledge several colleagues who have allowed us to
 interface, adapt or use parts of their codes:
   Stefan Grimme, W. Hujo, H. Kruse, P. Pracht,  : VdW corrections, initial TS optimization,
                  C. Bannwarth, S. Ehlert,         DFT functionals, gCP, sTDA/sTD-DF
                  L. Wittmann, M. Mueller
   Ed Valeev, F. Pavosevic, A. Kumar             : LibInt (2-el integral package), F12 methods
   Garnet Chan, S. Sharma, J. Yang, R. Olivares  : DMRG
   Ulf Ekstrom                                   : XCFun DFT Library
   Mihaly Kallay                                 : mrcc  (arbitrary order and MRCC methods)
   Frank Weinhold                                : gennbo (NPA and NBO analysis)
   Simon Mueller                                 : openCOSMO-RS
   Christopher J. Cramer and Donald G. Truhlar   : smd solvation model
   Lars Goerigk                                  : TD-DFT with DH, B97 family of functionals
   V. Asgeirsson, H. Jonsson                     : NEB implementation
   FAccTs GmbH                                   : IRC, NEB, NEB-TS, DLPNO-Multilevel, CI-OPT
                                                   MM, QMMM, 2- and 3-layer-ONIOM, Crystal-QMMM,
                                                   LR-CPCM, SF, NACMEs, symmetry and pop. for TD-DFT,
                                                   nearIR, NL-DFT gradient (VV10), updates on ESD,
                                                   ML-optimized integration grids, MBIS, APM,
                                                   GOAT, DOCKER, SOLVATOR, interface openCOSMO-RS
   S Lehtola, MJT Oliveira, MAL Marques          : LibXC Library
   Liviu Ungur et al                             : ANISO software


 Your calculation uses the libint2 library for the computation of 2-el integrals
 For citations please refer to: http://libint.valeyev.net

 Your ORCA version has been built with support for libXC version: 6.2.2
 For citations please refer to: https://libxc.gitlab.io

 This ORCA versions uses:
   CBLAS   interface :  Fast vector & matrix operations
   LAPACKE interface :  Fast linear algebra routines
   SCALAPACK package :  Parallel linear algebra routines
   Shared memory     :  Shared parallel matrices
   BLAS/LAPACK       :  OpenBLAS 0.3.27  USE64BITINT DYNAMIC_ARCH NO_AFFINITY SkylakeX SINGLE_THREADED
        Core in use  :  SkylakeX
   Copyright (c) 2011-2014, The OpenBLAS Project




***************************************
The coordinates will be read from file: xtb_opt.xyz
***************************************


Your calculation utilizes the geometrical counterpoise correction gCP
Please cite in your paper:
H.Kruse, S. Grimme J.Chem.Phys., 136, (2012), 154101 
   

Your calculation utilizes the atom-pairwise dispersion correction
based on EEQ partial charges (D4)


Your calculation utilizes the SMD solvation module
Please cite in your paper:
A.V. Marenich, C.J. Cramer, D.G. Truhlar J. Phys. Chem. B, 113, (2009), 6378 

================================================================================

----- Orbital basis set information -----
Your calculation utilizes the basis: def2-mTZVPP
   Stefan Grimme, Andreas Hansen, Sebastian Ehlert, and Jan-Michael Mewes 
   J. Chem. Phys. 154, 064103 (2021). DOI: 10.1063/5.0040021

----- AuxJ basis set information -----
Your calculation utilizes the auxiliary basis: def2/J
   F. Weigend, Phys. Chem. Chem. Phys. 8, 1057 (2006).

================================================================================
                                        WARNINGS
                       Please study these warnings very carefully!
================================================================================

WARNING: Old DensityContainer found on disk!
         Will remove this file - 
         If you want to keep old densities, please start your calculation with a different basename. 

Using LibXC functional ID 497 : Re-regularized SCAN exchange by Furness et al
[ 1]  J. W. Furness, A. D. Kaplan, J. Ning, J. P. Perdew, and J. Sun.,  J. Phys. Chem. Lett. 11, 8208-8215 (2020)
[ 2]  J. W. Furness, A. D. Kaplan, J. Ning, J. P. Perdew, and J. Sun.,  J. Phys. Chem. Lett. 11, 9248-9248 (2020)
Using LibXC functional ID 498 : Re-regularized SCAN correlation by Furness et al
[ 1]  J. W. Furness, A. D. Kaplan, J. Ning, J. P. Perdew, and J. Sun.,  J. Phys. Chem. Lett. 11, 8208-8215 (2020)
[ 2]  J. W. Furness, A. D. Kaplan, J. Ning, J. P. Perdew, and J. Sun.,  J. Phys. Chem. Lett. 11, 9248-9248 (2020)
Using LibXC functional ID 497 : Re-regularized SCAN exchange by Furness et al
[ 1]  J. W. Furness, A. D. Kaplan, J. Ning, J. P. Perdew, and J. Sun.,  J. Phys. Chem. Lett. 11, 8208-8215 (2020)
[ 2]  J. W. Furness, A. D. Kaplan, J. Ning, J. P. Perdew, and J. Sun.,  J. Phys. Chem. Lett. 11, 9248-9248 (2020)
Using LibXC functional ID 498 : Re-regularized SCAN correlation by Furness et al
[ 1]  J. W. Furness, A. D. Kaplan, J. Ning, J. P. Perdew, and J. Sun.,  J. Phys. Chem. Lett. 11, 8208-8215 (2020)
[ 2]  J. W. Furness, A. D. Kaplan, J. Ning, J. P. Perdew, and J. Sun.,  J. Phys. Chem. Lett. 11, 9248-9248 (2020)

================================================================================
                                       INPUT FILE
================================================================================
NAME = xtb_opt.inp
|  1> ! r2scan-3c def2/J RI DEFGRID2 scfconv7 ENGRAD tightSCF miniprint
|  2> %cpcm
|  3>     smd true
|  4>     smdsolvent "water"
|  5> end
|  6> * xyzfile 0 1 xtb_opt.xyz
|  7> 
|  8>                          ****END OF INPUT****
================================================================================

                     *******************************
                     * Energy+Gradient Calculation *
                     *******************************

---------------------------------
CARTESIAN COORDINATES (ANGSTROEM)
---------------------------------
  C     -3.293787   -0.835477    0.420458
  C     -1.909360   -0.617518   -0.181221
  C     -1.501447    0.854277   -0.177955
  C     -0.117186    1.084122   -0.795521
  C      0.958561    0.412701    0.010392
  O      1.122440    0.569708    1.210116
  O      1.737237   -0.394929   -0.733458
  C      2.804408   -1.074607   -0.019500
  H     -4.054931   -0.280186   -0.139094
  H     -3.573248   -1.893726    0.406591
  H     -3.327498   -0.492923    1.460632
  H     -1.168640   -1.203863    0.380272
  H     -1.887729   -0.993989   -1.212079
  H     -1.509882    1.241314    0.848051
  H     -2.232059    1.440516   -0.746989
  H      0.118165    2.155138   -0.798454
  H     -0.086422    0.727921   -1.828100
  H      3.301791   -1.692620   -0.766123
  H      2.387486   -1.696717    0.776128
  H      3.501259   -0.344188    0.398922

----------------------------
CARTESIAN COORDINATES (A.U.)
----------------------------
  NO LB      ZA    FRAG     MASS         X           Y           Z
   0 C     6.0000    0    12.011   -6.224356   -1.578823    0.794550
   1 C     6.0000    0    12.011   -3.608167   -1.166940   -0.342457
   2 C     6.0000    0    12.011   -2.837323    1.614349   -0.336286
   3 C     6.0000    0    12.011   -0.221449    2.048693   -1.503318
   4 C     6.0000    0    12.011    1.811419    0.779892    0.019638
   5 O     8.0000    0    15.999    2.121104    1.076591    2.286789
   6 O     8.0000    0    15.999    3.282902   -0.746308   -1.386036
   7 C     6.0000    0    12.011    5.299564   -2.030713   -0.036849
   8 H     1.0000    0     1.008   -7.662708   -0.529475   -0.262849
   9 H     1.0000    0     1.008   -6.752461   -3.578623    0.768346
  10 H     1.0000    0     1.008   -6.288060   -0.931489    2.760194
  11 H     1.0000    0     1.008   -2.208409   -2.274972    0.718610
  12 H     1.0000    0     1.008   -3.567291   -1.878368   -2.290497
  13 H     1.0000    0     1.008   -2.853263    2.345744    1.602585
  14 H     1.0000    0     1.008   -4.217980    2.722181   -1.411604
  15 H     1.0000    0     1.008    0.223300    4.072621   -1.508859
  16 H     1.0000    0     1.008   -0.163315    1.375572   -3.454609
  17 H     1.0000    0     1.008    6.239480   -3.198589   -1.447763
  18 H     1.0000    0     1.008    4.511694   -3.206331    1.466669
  19 H     1.0000    0     1.008    6.616420   -0.650421    0.753853

------------------------------------------------------------------------------
                   ___                                                        
                  /   \      - P O W E R E D   B Y -                         
                 /     \                                                     
                 |  |  |   _    _      __       _____    __    __             
                 |  |  |  | |  | |    /  \     |  _  \  |  |  /  |          
                  \  \/   | |  | |   /    \    | | | |  |  | /  /          
                 / \  \   | |__| |  /  /\  \   | |_| |  |  |/  /          
                |  |  |   |  __  | /  /__\  \  |    /   |      \           
                |  |  |   | |  | | |   __   |  |    \   |  |\   \          
                \     /   | |  | | |  |  |  |  | |\  \  |  | \   \       
                 \___/    |_|  |_| |__|  |__|  |_| \__\ |__|  \__/        
                                                                              
                      - O R C A' S   B I G   F R I E N D -                    
                                      &                                       
                       - I N T E G R A L  F E E D E R -                       
                                                                              
 v1 FN, 2020, v2 2021, v3 2022-2024                                           
------------------------------------------------------------------------------


----------------------
SHARK INTEGRAL PACKAGE
----------------------

Number of atoms                             ...     20
Number of basis functions                   ...    222
Number of shells                            ...    110
Maximum angular momentum                    ...      2
Integral batch strategy                     ... SHARK/LIBINT Hybrid
RI-J (if used) integral strategy            ... SPLIT-RIJ (Revised 2003 algorithm where possible)
Printlevel                                  ...      1
Contraction scheme used                     ... SEGMENTED contraction
Prescreening option                         ... SCHWARTZ
   Thresh                                   ... 3.000e-11
   Tcut                                     ... 1.000e-12
   Tpresel                                  ... 1.000e-12 
Coulomb Range Separation                    ... NOT USED
Exchange Range Separation                   ... NOT USED
Multipole approximations                    ... NOT USED
Finite Nucleus Model                        ... NOT USED
CABS basis                                  ... NOT available
Auxiliary Coulomb fitting basis             ... AVAILABLE
   # of basis functions in Aux-J            ...    524
   # of shells in Aux-J                     ...    180
   Maximum angular momentum in Aux-J        ...      4
Auxiliary J/K fitting basis                 ... NOT available
Auxiliary Correlation fitting basis         ... NOT available
Auxiliary 'external' fitting basis          ... NOT available

Checking pre-screening integrals            ... done (  0.0 sec) Dimension = 110
Check shell pair data                       ... done (  0.0 sec)
Shell pair information
Shell pair cut-off parameter TPreSel        ...   1.0e-12
Total number of shell pairs                 ...      6105
Shell pairs after pre-screening             ...      5355
Total number of primitive shell pairs       ...     21533
Primitive shell pairs kept                  ...     13474
          la=0 lb=0:   1796 shell pairs
          la=1 lb=0:   2021 shell pairs
          la=1 lb=1:    588 shell pairs
          la=2 lb=0:    571 shell pairs
          la=2 lb=1:    327 shell pairs
          la=2 lb=2:     52 shell pairs

Calculating one electron integrals          ... done (  0.0 sec)
Calculating RI/J V-Matrix + Cholesky decomp.... done (  0.1 sec)
Calculating Nuclear repulsion               ... done (  0.0 sec) ENN=    389.557903266568 Eh

Diagonalization of the overlap matrix:
Smallest eigenvalue                        ... 1.466e-04
Time for diagonalization                   ...    0.005 sec
Threshold for overlap eigenvalues          ... 1.000e-07
Number of eigenvalues below threshold      ... 0
Time for construction of square roots      ...    0.016 sec
Total time needed                          ...    0.031 sec

-------------------
DFT GRID GENERATION
-------------------

General Integration Accuracy     IntAcc      ... 4.388
Radial Grid Type                 RadialGrid  ... OptM3 with GC (2021)
Angular Grid (max. ang.)         AngularGrid ... 4 (Lebedev-302)
Angular grid pruning method      GridPruning ... 4 (adaptive)
Weight generation scheme         WeightScheme... mBecke (2022)
Basis function cutoff            BFCut       ... 1.0000e-11
Integration weight cutoff        WCut        ... 1.0000e-14
Partially contracted basis set               ... off
Rotationally invariant grid construction     ... off
Angular grids for H and He will be reduced by one unit
Diffuse basis detected: some atoms will have their outermost
                        angular grid increased by 1.

Total number of grid points                  ...    87372
Total number of batches                      ...     1377
Average number of points per batch           ...       63
Average number of grid points per atom       ...     4369
Initializing property integral containers    ... done (  0.0 sec)

SHARK setup successfully completed in   1.2 seconds

Maximum memory used throughout the entire STARTUP-calculation: 39.5 MB
Occupation numbers will be reassigned to an Aufbau configuration
             **** ENERGY FILE WAS UPDATED (xtb_opt.en.tmp) ****
Finished Guess after   0.3 sec
Maximum memory used throughout the entire GUESS-calculation: 15.1 MB
--------------------
CPCM SOLVATION MODEL
--------------------
CPCM parameters:
  Epsilon                                         ...      78.3550
  Refrac                                          ...       1.3328
  Rsolv                                           ...       1.3000
  Surface type                                    ... GAUSSIAN VDW
  Discretization scheme                           ... Constant charge density
    Threshold for H atoms                         ...       5.0000 (charges/Ang^2)
    Threshold for non-H atoms                     ...       5.0000 (charges/Ang^2)
  Epsilon function type                           ...         CPCM
Solvent:                                          ... WATER
SMD-CDS solvent descriptors:
  Soln                                            ...       1.3328
  Soln25                                          ...       1.3323
  Sola                                            ...       0.0000
  Solb                                            ...       0.0000
  Solg                                            ...       0.0000
  Solc                                            ...       0.0000
  Solh                                            ...       0.0000
Radii:
  Scheme                                          ... Element-dependent radii
  Radius for C  used is    3.4960 Bohr (=   1.8500 Ang.)
  Radius for O  used is    2.8724 Bohr (=   1.5200 Ang.)
  Radius for H  used is    2.2677 Bohr (=   1.2000 Ang.)
Calculating surface                               ...        done! (  0.0s)
Cavity surface points                             ...         1499
Cavity Volume                                     ...     882.9900
Cavity Surface-area                               ...     589.1114
Calculating surface distance matrix               ...        done! (  0.0s)
Performing Cholesky decomposition & store         ...        done! (  0.1s)
Overall time for CPCM initialization              ...                 0.1s

----------------------------------------D-I-I-S--------------------------------------------
Iteration    Energy (Eh)           Delta-E    RMSDP     MaxDP     DIISErr   Damp  Time(sec)
-------------------------------------------------------------------------------------------
               ***  Starting incremental Fock matrix formation  ***
                              *** Initializing SOSCF ***
---------------------------------------S-O-S-C-F--------------------------------------
Iteration    Energy (Eh)           Delta-E    RMSDP     MaxDP     MaxGrad    Time(sec)
--------------------------------------------------------------------------------------
    1    -386.2529553363634136     0.00e+00  4.92e-05  1.29e-03  1.30e-04     3.5
               *** Restarting incremental Fock matrix formation ***
    2    -386.2529858100176057    -3.05e-05  2.27e-05  4.72e-04  1.30e-04     3.5
    3    -386.2529871486411253    -1.34e-06  1.48e-05  3.42e-04  2.62e-04     2.8
    4    -386.2529869592164573     1.89e-07  1.11e-05  2.04e-04  2.27e-04     3.0
    5    -386.2529877878363891    -8.29e-07  9.88e-07  1.77e-05  5.31e-06     2.7
                  *** Gradient check signals convergence ***

               *****************************************************
               *                     SUCCESS                       *
               *           SCF CONVERGED AFTER   5 CYCLES          *
               *****************************************************


SMD CDS free energy correction energy :                 5.15329     Kcal/mol
Total Energy after SMD CDS correction =              -386.244775494 Eh
             **** ENERGY FILE WAS UPDATED (xtb_opt.en.tmp) ****

----------------
TOTAL SCF ENERGY
----------------

Total Energy       :       -386.24477549417264 Eh          -10510.25467 eV

Components:
Nuclear Repulsion  :        389.55790326656751 Eh           10600.40946 eV
Electronic Energy  :       -775.79452810126543 Eh          -21110.44234 eV
One Electron Energy:      -1296.59689253657780 Eh          -35282.19516 eV
Two Electron Energy:        520.80236443531237 Eh           14171.75281 eV
CPCM Dielectric    :         -0.01636295313848 Eh              -0.44526 eV
SMD CDS (Gcds)     :          0.00821229366375 Eh               0.22347 eV

Virial components:
Potential Energy   :       -770.68974732297283 Eh          -20971.53420 eV
Kinetic Energy     :        384.44497182880025 Eh           10461.27952 eV
Virial Ratio       :          2.00468156380564

DFT components:
N(Alpha)           :       32.000036628865 electrons
N(Beta)            :       32.000036628865 electrons
N(Total)           :       64.000073257731 electrons
E(X)               :      -52.034746532327 Eh       
E(C)               :       -2.035370600295 Eh       
E(XC)              :      -54.070117132621 Eh       

CPCM Solvation Model Properties:
Surface-charge          :         -0.04729409809623
Corrected charge        :         -0.00000000000000
Outlying charge corr.   :          0.00016822234257 Eh               0.00458 eV
Free-energy (cav+disp)  :          0.00821229366375 Eh               0.22347 eV

---------------
SCF CONVERGENCE
---------------

  Last Energy change         ...    8.2862e-07  Tolerance :   1.0000e-07
  Last MAX-Density change    ...    1.7746e-05  Tolerance :   1.0000e-07
  Last RMS-Density change    ...    9.8828e-07  Tolerance :   5.0000e-09
  Last DIIS Error            ...    2.1538e-03  Tolerance :   1.0000e-07
  Last Orbital Gradient      ...    5.3108e-06  Tolerance :   1.0000e-04
  Last Orbital Rotation      ...    1.2409e-05  Tolerance :   1.0000e-04


----------------
ORBITAL ENERGIES
----------------

  NO   OCC          E(Eh)            E(eV) 
   0   2.0000     -19.006029      -517.1803 
   1   2.0000     -18.945987      -515.5465 
   2   2.0000     -10.164977      -276.6031 
   3   2.0000     -10.078208      -274.2420 
   4   2.0000     -10.038394      -273.1586 
   5   2.0000     -10.028084      -272.8780 
   6   2.0000     -10.021861      -272.7087 
   7   2.0000     -10.012126      -272.4438 
   8   2.0000      -1.071875       -29.1672 
   9   2.0000      -0.985026       -26.8039 
  10   2.0000      -0.771439       -20.9919 
  11   2.0000      -0.718873       -19.5615 
  12   2.0000      -0.677584       -18.4380 
  13   2.0000      -0.609682       -16.5903 
  14   2.0000      -0.551835       -15.0162 
  15   2.0000      -0.522075       -14.2064 
  16   2.0000      -0.473090       -12.8734 
  17   2.0000      -0.454878       -12.3779 
  18   2.0000      -0.448279       -12.1983 
  19   2.0000      -0.422142       -11.4871 
  20   2.0000      -0.403041       -10.9673 
  21   2.0000      -0.388891       -10.5823 
  22   2.0000      -0.383871       -10.4457 
  23   2.0000      -0.353216        -9.6115 
  24   2.0000      -0.342255        -9.3132 
  25   2.0000      -0.329764        -8.9733 
  26   2.0000      -0.324349        -8.8260 
  27   2.0000      -0.303602        -8.2614 
  28   2.0000      -0.290747        -7.9116 
  29   2.0000      -0.289716        -7.8836 
  30   2.0000      -0.283120        -7.7041 
  31   2.0000      -0.253981        -6.9112 
  32   0.0000      -0.028265        -0.7691 
  33   0.0000       0.065374         1.7789 
  34   0.0000       0.093425         2.5422 
  35   0.0000       0.115117         3.1325 
  36   0.0000       0.122916         3.3447 
  37   0.0000       0.137711         3.7473 
  38   0.0000       0.142510         3.8779 
  39   0.0000       0.148940         4.0529 
  40   0.0000       0.152219         4.1421 
  41   0.0000       0.166905         4.5417 
  42   0.0000       0.170096         4.6285 
*Only the first 10 virtual orbitals were printed.
Total SCF time: 0 days 0 hours 0 min 16 sec 
Finished LeanSCF after  16.2 sec

Maximum memory used throughout the entire LEANSCF-calculation: 30.5 MB


-------------------------------------------------------------------------------
                          DFT DISPERSION CORRECTION                            
                                                                               
                                DFTD4 V3.4.0                                   
-------------------------------------------------------------------------------
-------------------------   ----------------
Dispersion correction           -0.005101509
-------------------------   ----------------

------------------   -----------------
gCP correction             0.011691315
------------------   -----------------

-------------------------   --------------------
FINAL SINGLE POINT ENERGY      -386.238185688238
-------------------------   --------------------

------------------------------------------------------------------------------
                         ORCA SCF GRADIENT CALCULATION
------------------------------------------------------------------------------

Nuc. rep. gradient        (SHARK) ... done (  0.0 sec)
HCore & Overlap gradient  (SHARK) ... done (  0.3 sec)
Split-RIJ-J gradient      (SHARK) ... done (  1.7 sec)
XC gradient                       ... done (  7.1 sec)
CPCM gradient                     ... done (  1.0 sec)
SMD gradient                      ... done (  0.0 sec)
Dispersion correction             ... done (  0.0 sec)

-------------------
DISPERSION GRADIENT
-------------------

   1   C   :   -0.000083651   -0.000035795    0.000019389
   2   C   :   -0.000069318   -0.000029907   -0.000007112
   3   C   :   -0.000043007    0.000042897   -0.000007145
   4   C   :    0.000002155    0.000061543   -0.000039433
   5   C   :    0.000064706    0.000019517    0.000002785
   6   O   :    0.000058020    0.000029777    0.000060481
   7   O   :    0.000078475   -0.000017889   -0.000018129
   8   C   :    0.000081523   -0.000037548    0.000010061
   9   H   :   -0.000029429   -0.000011201    0.000003803
  10   H   :   -0.000024962   -0.000020416    0.000006330
  11   H   :   -0.000031526   -0.000013566    0.000015385
  12   H   :   -0.000031385   -0.000017895    0.000007242
  13   H   :   -0.000032831   -0.000018089   -0.000014982
  14   H   :   -0.000011465    0.000019655    0.000009734
  15   H   :   -0.000019230    0.000020854   -0.000011097
  16   H   :    0.000005150    0.000035597   -0.000010908
  17   H   :    0.000003619    0.000019037   -0.000029762
  18   H   :    0.000025484   -0.000017180   -0.000004205
  19   H   :    0.000033765   -0.000017644    0.000005318
  20   H   :    0.000023908   -0.000011746    0.000002245

Difference to translation invariance:
           :    0.0000000000   -0.0000000000   -0.0000000000

Difference to rotation invariance:
           :   -0.0000000000   -0.0000000000    0.0000000000

Norm of the Dispersion gradient    ...    0.0002545623
RMS gradient                       ...    0.0000328638
MAX gradient                       ...    0.0000836514
gCP correction                   ... done

------------------
CARTESIAN GRADIENT
------------------

   1   C   :    0.000081527    0.000003889   -0.000054246
   2   C   :   -0.000026667    0.000061043    0.000044854
   3   C   :    0.000072703   -0.000023396   -0.000117439
   4   C   :   -0.000175094   -0.000016841    0.000127543
   5   C   :    0.000797464   -0.000361037   -0.000656368
   6   O   :   -0.000088253   -0.000051750    0.000079716
   7   O   :   -0.000749713    0.000683026    0.000329072
   8   C   :    0.000149459   -0.000214644    0.000050007
   9   H   :    0.000004860    0.000000783   -0.000025839
  10   H   :   -0.000014079   -0.000018355   -0.000017677
  11   H   :   -0.000018061   -0.000008148    0.000008632
  12   H   :    0.000000377   -0.000008119   -0.000012715
  13   H   :    0.000017339   -0.000005983   -0.000023533
  14   H   :   -0.000009700    0.000001422    0.000026010
  15   H   :   -0.000014905   -0.000025308    0.000007635
  16   H   :    0.000006640   -0.000108932    0.000079629
  17   H   :   -0.000012429    0.000031458    0.000019268
  18   H   :   -0.000034429   -0.000078884   -0.000090863
  19   H   :   -0.000100569   -0.000027376    0.000174929
  20   H   :    0.000113528    0.000167153    0.000051383

Difference to translation invariance:
           :    0.0000000000   -0.0000000000   -0.0000000000

Difference to rotation invariance:
           :    0.0003867818   -0.0005667263    0.0001580607

Norm of the Cartesian gradient     ...    0.0016216656
RMS gradient                       ...    0.0002093561
MAX gradient                       ...    0.0007974641

-------
TIMINGS
-------

Total SCF gradient time     ....       10.955 sec

Densities                   ....       0.001 sec  (  0.0%)
One electron gradient       ....       0.331 sec  (  3.0%)
RI-J Coulomb gradient       ....       1.695 sec  ( 15.5%)
XC gradient                 ....       7.129 sec  ( 65.1%)
CPCM gradient               ....       0.951 sec  (  8.7%)
   A-Matrix (El+Nuc)        ....       0.077 sec  (  0.7%)
   Potential                ....       0.873 sec  (  8.0%)
SMD gradient                ....       0.014 sec  (  0.1%)

Maximum memory used throughout the entire SCFGRAD-calculation: 35.4 MB

------------------------------------------------------------------------------
                              ORCA PROPERTY CALCULATIONS
------------------------------------------------------------------------------

GBWName                                 ... xtb_opt.gbw
Number of atoms                         ...     20
Number of basis functions               ...    222
Max core memory                         ...   1024 MB

Electric properties:
Dipole moment                           ... YES
Quadrupole moment                       ...  NO
Static polarizability (Dipole/Dipole)   ...  NO
Static polarizability (Dipole/Quad.)    ...  NO
Static polarizability (Quad./Quad.)     ...  NO
Static polarizability (Velocity)        ...  NO

Atomic electric properties:
Dipole moment                           ...  NO
Quadrupole moment                       ...  NO
Static polarizability                   ...  NO

Choice of electric origin               ... Center of mass
Position of electric origin             ...     0.006713    -0.038739    -0.041196

General magnetic properties:
Magnetizability                         ...  NO

EPR properties:
g-Tensor (aka g-matrix)                 ...  NO
Zero-Field splitting spin-orbit         ...  NO
Zero-field splitting spin-spin          ...  NO
Hyperfine couplings                     ...  NO (   0 nuclei)
Quadrupole couplings                    ...  NO (   0 nuclei)
Contact density                         ...  NO (   0 nuclei)

NMR properties:
Chemical shifts                         ...  NO (   0 nuclei)
Spin-rotation constants                 ...  NO (   0 nuclei)
Spin-spin couplings                     ...  NO (   0 nuclei,    0 pairs)

Choice of magnetic origin               ... GIAO
Position of magnetic origin             ...     0.000000     0.000000     0.000000

Properties with geometric perturbations:
SCF Hessian                             ...  NO
IR spectrum                             ...  NO
VCD spectrum                            ...  NO
X-ray spectroscopy properties:
SCF XES/XAS/RIXS spectra                ...  NO


-------------
DIPOLE MOMENT
-------------

Method             : SCF
Type of density    : Electron Density
Multiplicity       :   1
Irrep              :   0
Energy             :  -386.2447754941726430 Eh
Relativity type    : 
Basis              : AO
                                X                 Y                 Z
Electronic contribution:      8.037371272       2.263472400      -0.089464956
Nuclear contribution   :     -8.002052705      -2.611809525      -0.891681048
                        -----------------------------------------
Total Dipole Moment    :      0.035318567      -0.348337125      -0.981146004
                        -----------------------------------------
Magnitude (a.u.)       :      1.041745476
Magnitude (Debye)      :      2.647906566



--------------------
Rotational spectrum 
--------------------
 
Rotational constants in cm-1:             0.126405             0.033049             0.031306 
Rotational constants in MHz :          3789.527614           990.788766           938.538340 

Dipole components along the rotational axes: 
x,y,z [a.u.] :    -0.064069     0.233010     1.013329 
x,y,z [Debye]:    -0.162851     0.592263     2.575677 

 

Dipole moment calculation done in   0.0 sec 

Maximum memory used throughout the entire PROP-calculation: 13.9 MB

--------------------------------
SUGGESTED CITATIONS FOR THIS RUN
--------------------------------

Below you find a list of papers that are relevant to this ORCA run
We neither can nor want to force you to cite these papers, but we appreciate if you do
You receive ORCA, which is the product of decades of hard work by many enthusiastic individuals, for free
The only thing we kindly ask in return is that you cite our papers,
We deeply appreciate it, if you show your appreciation for ORCA by not just citing the generic ORCA reference.

Please note that relegating all ORCA citations to the supporting information does *not* help us.
SI sections are not indexed - citations you put there will not count into any citation statistics
But we need these citations in order to attract the funding resources that allow us to do what we are doing

Therefore, if you are a happy ORCA user, please consider citing a few of the papers listed below in the main body of your paper

In addition to the list printed below, the program has created the file xtb_opt.bibtex that contains the list in bibtex format
You can import this file easily into all common literature databanks and citation aid programs


List of essential papers. We consider these as the minimum necessary citations

  1. Neese,F.
     Software update: the ORCA program system, version 5.0
     WIRES Comput. Molec. Sci., 2022 12(1)e1606
     doi.org/10.1002/wcms.1606
  2. Grimme,S.; Hansen,A.; Ehlert,S.; Mewes,J.
     r2SCAN-3c: A 'Swiss army knife' composite electronic-structure method
     J. Chem. Phys., 2021 154 064103
     doi.org/10.1063/5.0040021

List of papers to cite with high priority. The work reported in these papers was absolutely
necessary for this run to complete.
Our perspective: the developers of density functionals and basis sets usually get cited in chemistry papers
Good! But without the algorithms to do something with them, the functionals or basis sets would not do anything.
Hence, in our opinion, the algorithm design and method developments papers are equally worthy of getting cited

  1. Neese,F.
     An improvement of the resolution of the identity approximation for the formation of the Coulomb matrix
     J. Comp. Chem., 2003 24(14)1740-1747
     doi.org/10.1002/jcc.10318
  2. Garcia-Rates,M.; Neese,F.
     Effect of the Solute Cavity on the Solvation Energy and its Derivatives within the Framework of the Gaussian Charge Scheme
     J. Comput. Chem., 2020 41 922-939
     doi.org/10.1002/jcc.26139
  3. Neese,F.
     The SHARK Integral Generation and Digestion System
     J. Comp. Chem., 2022  1-16
     doi.org/10.1002/jcc.26942
  4. Lehtola,S.; Steigemann,C.; Oliveira,M.; Marques,M.
     Recent developments in Libxc - A comprehensive library of functionals for density functional theory
     Software X, 2018 7 
     doi.org/10.1016/j.softx.2017.11.002
  5. Caldeweyher,E.; Bannwarth,C.; Grimme,S.
     Extension of the D3 dispersion coefficient model
     J. Chem. Phys., 2017 147 034112-XXXX
     doi.org/10.1063/1.4993215
  6. Caldeweyher,E.; Ehlert,S.; Hansen,A.; Neugebauer,H.; Spicher,S.; Bannwarth,C.; Grimme,S.
     A generally applicable atomic-charge dependent London dispersion correction
     J. Chem. Phys., 2019 150 154122-XXXX
     doi.org/10.1063/1.5090222
  7. Caldeweyher,E.; Mewes,J.; Ehlert,S.; Grimme,S.
     Extension and evaluation of the D4 London-dispersion model for periodic systems
     Phys. Chem. Chem. Phys., 2020 22(16)8499-8512
     doi.org/10.1039/D0CP00502A

List of suggested additional citations. These are papers that are important in the 'surrounding' of 
of this run, or papers that preceded the highly important papers. If you like your results we are grateful for a citation.

  1. Neese,F.
     The ORCA program system
     WIRES Comput. Molec. Sci., 2012 2(1)73-78
     doi.org/10.1002/wcms.81
  2. Neese,F.
     Software update: the ORCA program system, version 4.0
     WIRES Comput. Molec. Sci., 2018 8(1)1-6
     doi.org/10.1002/wcms.1327
  3. Neese,F.; Wennmohs,F.; Becker,U.; Riplinger,C.
     The ORCA quantum chemistry program package
     J. Chem. Phys., 2020 152 Art. No. L224108
     doi.org/10.1063/5.0004608

List of optional additional citations

  1. Neese,F.
     Approximate second-order SCF convergence for spin unrestricted wavefunctions
     Chem. Phys. Lett., 2000 325(1-3)93-98
     doi.org/10.1016/s0009-2614(00)00662-x

Timings for individual modules:

Sum of individual times          ...       28.971 sec (=   0.483 min)
Startup calculation              ...        1.268 sec (=   0.021 min)   4.4 %
SCF iterations                   ...       16.532 sec (=   0.276 min)  57.1 %
Property calculations            ...        0.112 sec (=   0.002 min)   0.4 %
SCF Gradient evaluation          ...       11.059 sec (=   0.184 min)  38.2 %
                             ****ORCA TERMINATED NORMALLY****
TOTAL RUN TIME: 0 days 0 hours 0 minutes 30 seconds 21 msec
  ------------------------------------------------------------------------
          * successful ORCA run, taking over control again...
av. E:   -386.2381857 ->   -386.2381857
av. G:      0.0009102 ->      0.0009102
 * total energy  :  -386.2381857 Eh     change       -0.3674566E-05 Eh
   gradient norm :     0.0016210 Eh/a0  converged?    E=T G=F D=F
   step length   :     0.0409924 a0

........................................................................
.............................. CYCLE    4 ..............................
........................................................................
                         * ORCA takes the control...
  ------------------------------------------------------------------------

                                 *****************
                                 * O   R   C   A *
                                 *****************

                                            #,                                       
                                            ###                                      
                                            ####                                     
                                            #####                                    
                                            ######                                   
                                           ########,                                 
                                     ,,################,,,,,                         
                               ,,#################################,,                 
                          ,,##########################################,,             
                       ,#########################################, ''#####,          
                    ,#############################################,,   '####,        
                  ,##################################################,,,,####,       
                ,###########''''           ''''###############################       
              ,#####''   ,,,,##########,,,,          '''####'''          '####       
            ,##' ,,,,###########################,,,                        '##       
           ' ,,###''''                  '''############,,,                           
         ,,##''                                '''############,,,,        ,,,,,,###''
      ,#''                                            '''#######################'''  
     '                                                          ''''####''''         
             ,#######,   #######,   ,#######,      ##                                
            ,#'     '#,  ##    ##  ,#'     '#,    #''#        ,####,   ,####,        
            ##       ##  ##   ,#'  ##            #'  '#       #'       #'  '#        
            ##       ##  #######   ##           ,######,      #####,   #    #        
            '#,     ,#'  ##    ##  '#,     ,#' ,#      #,     #,   #   #,  ,#        
             '#######'   ##     ##  '#######'  #'      '#     '####' # '####'        



                #########################################################
                #                        -***-                          #
                #          Department of theory and spectroscopy        #
                #                                                       #
                #                      Frank Neese                      #
                #                                                       #
                #     Directorship, Architecture, Infrastructure        #
                #                    SHARK, DRIVERS                     #
                #        Core code/Algorithms in most modules           #
                #                                                       #
                #        Max Planck Institute fuer Kohlenforschung      #
                #                Kaiser Wilhelm Platz 1                 #
                #                 D-45470 Muelheim/Ruhr                 #
                #                      Germany                          #
                #                                                       #
                #                  All rights reserved                  #
                #                        -***-                          #
                #########################################################


                         Program Version 6.0.0  -   RELEASE  -


 With contributions from (in alphabetic order):
   Daniel Aravena         : Magnetic Suceptibility
   Michael Atanasov       : Ab Initio Ligand Field Theory (pilot matlab implementation)
   Alexander A. Auer      : GIAO ZORA, VPT2 properties, NMR spectrum
   Ute Becker             : All parallelization in ORCA, NUMFREQ, NUMCALC
   Giovanni Bistoni       : ED, misc. LED, open-shell LED, HFLD
   Martin Brehm           : Molecular dynamics
   Dmytro Bykov           : pre 5.0 version of the SCF Hessian
   Marcos Casanova-Páez   : Triplet and SCS-CIS(D). UHF-(DLPNO)-IP/EA/STEOM-CCSD. UHF-CVS-IP/STEOM-CCSD
   Vijay G. Chilkuri      : MRCI spin determinant printing, contributions to CSF-ICE
   Pauline Colinet        : FMM embedding
   Dipayan Datta          : RHF DLPNO-CCSD density
   Achintya Kumar Dutta   : EOM-CC, STEOM-CC
   Nicolas Foglia         : Exact transition moments, OPA infrastructure, MCD improvements
   Dmitry Ganyushin       : Spin-Orbit,Spin-Spin,Magnetic field MRCI
   Miquel Garcia          : C-PCM and meta-GGA Hessian, CCSD/C-PCM, Gaussian charge scheme
   Tiago L. C. Gouveia    : GS-ROHF, GS-ROCIS
   Yang Guo               : DLPNO-NEVPT2, F12-NEVPT2, CIM, IAO-localization
   Andreas Hansen         : Spin unrestricted coupled pair/coupled cluster methods
   Ingolf Harden          : AUTO-CI MPn and infrastructure 
   Benjamin Helmich-Paris : MC-RPA, TRAH-(SCF,CASSCF), AVAS, COSX integrals, SCF dyn. polar.
   Lee Huntington         : MR-EOM, pCC
   Robert Izsak           : Overlap fitted RIJCOSX, COSX-SCS-MP3, EOM
   Riya Kayal             : Wick's Theorem for AUTO-CI, AUTO-CI UHF-CCSDT
   Emily Kempfer          : AUTO-CI, RHF CISDT and CCSDT
   Christian Kollmar      : KDIIS, OOCD, Brueckner-CCSD(T), CCSD density, CASPT2, CASPT2-K, improved NEVPT2
   Axel Koslowski         : Symmetry handling
   Simone Kossmann        : Meta GGA functionals, TD-DFT gradient, OOMP2, (MP2 Hessian; deprecated post 5.0)
   Lucas Lang             : DCDCAS
   Marvin Lechner         : AUTO-CI (C++ implementation), FIC-MRCC
   Spencer Leger          : CASSCF response
   Dagmar Lenk            : GEPOL surface, SMD, ORCA-2-JSON
   Dimitrios Liakos       : Extrapolation schemes; Compound Job, initial MDCI parallelization
   Dimitrios Manganas     : Further ROCIS development; embedding schemes. LFT, Crystal Embedding
   Dimitrios Pantazis     : SARC Basis sets
   Anastasios Papadopoulos: AUTO-CI, single reference methods and gradients
   Taras Petrenko         : pre 6.0 DFT Hessian and TD-DFT gradient, (ASA, deprecated), ECA, 1-Electron XAS/XES, NRVS
   Peter Pinski           : DLPNO-MP2, DLPNO-MP2 Gradient
   Christoph Reimann      : Effective Core Potentials
   Marius Retegan         : Local ZFS, SOC
   Christoph Riplinger    : Optimizer, TS searches, QM/MM, DLPNO-CCSD(T), (RO)-DLPNO pert. Triples
   Michael Roemelt        : Original ROCIS implementation
   Masaaki Saitow         : Open-shell DLPNO-CCSD energy and density
   Barbara Sandhoefer     : DKH picture change effects
   Kantharuban Sivalingam : CASSCF convergence/infrastructure, NEVPT2 and variants, FIC-MRCI
   Bernardo de Souza      : ESD, SOC TD-DFT
   Georgi Stoychev        : AutoAux, RI-MP2 NMR, DLPNO-MP2 response, X2C
   Van Anh Tran           : RI-MP2 g-tensors
   Willem Van den Heuvel  : Paramagnetic NMR
   Zikuan Wang            : NOTCH, Electric field optimization 
   Frank Wennmohs         : Technical directorship and infrastructure
   Hang Xu                : AUTO-CI-Response properties 


 We gratefully acknowledge several colleagues who have allowed us to
 interface, adapt or use parts of their codes:
   Stefan Grimme, W. Hujo, H. Kruse, P. Pracht,  : VdW corrections, initial TS optimization,
                  C. Bannwarth, S. Ehlert,         DFT functionals, gCP, sTDA/sTD-DF
                  L. Wittmann, M. Mueller
   Ed Valeev, F. Pavosevic, A. Kumar             : LibInt (2-el integral package), F12 methods
   Garnet Chan, S. Sharma, J. Yang, R. Olivares  : DMRG
   Ulf Ekstrom                                   : XCFun DFT Library
   Mihaly Kallay                                 : mrcc  (arbitrary order and MRCC methods)
   Frank Weinhold                                : gennbo (NPA and NBO analysis)
   Simon Mueller                                 : openCOSMO-RS
   Christopher J. Cramer and Donald G. Truhlar   : smd solvation model
   Lars Goerigk                                  : TD-DFT with DH, B97 family of functionals
   V. Asgeirsson, H. Jonsson                     : NEB implementation
   FAccTs GmbH                                   : IRC, NEB, NEB-TS, DLPNO-Multilevel, CI-OPT
                                                   MM, QMMM, 2- and 3-layer-ONIOM, Crystal-QMMM,
                                                   LR-CPCM, SF, NACMEs, symmetry and pop. for TD-DFT,
                                                   nearIR, NL-DFT gradient (VV10), updates on ESD,
                                                   ML-optimized integration grids, MBIS, APM,
                                                   GOAT, DOCKER, SOLVATOR, interface openCOSMO-RS
   S Lehtola, MJT Oliveira, MAL Marques          : LibXC Library
   Liviu Ungur et al                             : ANISO software


 Your calculation uses the libint2 library for the computation of 2-el integrals
 For citations please refer to: http://libint.valeyev.net

 Your ORCA version has been built with support for libXC version: 6.2.2
 For citations please refer to: https://libxc.gitlab.io

 This ORCA versions uses:
   CBLAS   interface :  Fast vector & matrix operations
   LAPACKE interface :  Fast linear algebra routines
   SCALAPACK package :  Parallel linear algebra routines
   Shared memory     :  Shared parallel matrices
   BLAS/LAPACK       :  OpenBLAS 0.3.27  USE64BITINT DYNAMIC_ARCH NO_AFFINITY SkylakeX SINGLE_THREADED
        Core in use  :  SkylakeX
   Copyright (c) 2011-2014, The OpenBLAS Project




***************************************
The coordinates will be read from file: xtb_opt.xyz
***************************************


Your calculation utilizes the geometrical counterpoise correction gCP
Please cite in your paper:
H.Kruse, S. Grimme J.Chem.Phys., 136, (2012), 154101 
   

Your calculation utilizes the atom-pairwise dispersion correction
based on EEQ partial charges (D4)


Your calculation utilizes the SMD solvation module
Please cite in your paper:
A.V. Marenich, C.J. Cramer, D.G. Truhlar J. Phys. Chem. B, 113, (2009), 6378 

================================================================================

----- Orbital basis set information -----
Your calculation utilizes the basis: def2-mTZVPP
   Stefan Grimme, Andreas Hansen, Sebastian Ehlert, and Jan-Michael Mewes 
   J. Chem. Phys. 154, 064103 (2021). DOI: 10.1063/5.0040021

----- AuxJ basis set information -----
Your calculation utilizes the auxiliary basis: def2/J
   F. Weigend, Phys. Chem. Chem. Phys. 8, 1057 (2006).

================================================================================
                                        WARNINGS
                       Please study these warnings very carefully!
================================================================================

WARNING: Old DensityContainer found on disk!
         Will remove this file - 
         If you want to keep old densities, please start your calculation with a different basename. 

Using LibXC functional ID 497 : Re-regularized SCAN exchange by Furness et al
[ 1]  J. W. Furness, A. D. Kaplan, J. Ning, J. P. Perdew, and J. Sun.,  J. Phys. Chem. Lett. 11, 8208-8215 (2020)
[ 2]  J. W. Furness, A. D. Kaplan, J. Ning, J. P. Perdew, and J. Sun.,  J. Phys. Chem. Lett. 11, 9248-9248 (2020)
Using LibXC functional ID 498 : Re-regularized SCAN correlation by Furness et al
[ 1]  J. W. Furness, A. D. Kaplan, J. Ning, J. P. Perdew, and J. Sun.,  J. Phys. Chem. Lett. 11, 8208-8215 (2020)
[ 2]  J. W. Furness, A. D. Kaplan, J. Ning, J. P. Perdew, and J. Sun.,  J. Phys. Chem. Lett. 11, 9248-9248 (2020)
Using LibXC functional ID 497 : Re-regularized SCAN exchange by Furness et al
[ 1]  J. W. Furness, A. D. Kaplan, J. Ning, J. P. Perdew, and J. Sun.,  J. Phys. Chem. Lett. 11, 8208-8215 (2020)
[ 2]  J. W. Furness, A. D. Kaplan, J. Ning, J. P. Perdew, and J. Sun.,  J. Phys. Chem. Lett. 11, 9248-9248 (2020)
Using LibXC functional ID 498 : Re-regularized SCAN correlation by Furness et al
[ 1]  J. W. Furness, A. D. Kaplan, J. Ning, J. P. Perdew, and J. Sun.,  J. Phys. Chem. Lett. 11, 8208-8215 (2020)
[ 2]  J. W. Furness, A. D. Kaplan, J. Ning, J. P. Perdew, and J. Sun.,  J. Phys. Chem. Lett. 11, 9248-9248 (2020)

================================================================================
                                       INPUT FILE
================================================================================
NAME = xtb_opt.inp
|  1> ! r2scan-3c def2/J RI DEFGRID2 scfconv7 ENGRAD tightSCF miniprint
|  2> %cpcm
|  3>     smd true
|  4>     smdsolvent "water"
|  5> end
|  6> * xyzfile 0 1 xtb_opt.xyz
|  7> 
|  8>                          ****END OF INPUT****
================================================================================

                     *******************************
                     * Energy+Gradient Calculation *
                     *******************************

---------------------------------
CARTESIAN COORDINATES (ANGSTROEM)
---------------------------------
  C     -3.294518   -0.834829    0.420917
  C     -1.910259   -0.617517   -0.181570
  C     -1.501282    0.854092   -0.177723
  C     -0.117258    1.083220   -0.796494
  C      0.957740    0.411438    0.010280
  O      1.122493    0.570957    1.209686
  O      1.737678   -0.396111   -0.733268
  C      2.805450   -1.074217   -0.019060
  H     -4.055673   -0.279260   -0.138315
  H     -3.574365   -1.892953    0.407392
  H     -3.327334   -0.492008    1.460998
  H     -1.169565   -1.204613    0.379226
  H     -1.889491   -0.993448   -1.212621
  H     -1.508286    1.240402    0.848541
  H     -2.231983    1.441375   -0.745585
  H      0.118480    2.154333   -0.800707
  H     -0.086959    0.725887   -1.828746
  H      3.307190   -1.687543   -0.766455
  H      2.388590   -1.700953    0.772632
  H      3.498511   -0.343299    0.403940

----------------------------
CARTESIAN COORDINATES (A.U.)
----------------------------
  NO LB      ZA    FRAG     MASS         X           Y           Z
   0 C     6.0000    0    12.011   -6.225736   -1.577597    0.795418
   1 C     6.0000    0    12.011   -3.609867   -1.166937   -0.343118
   2 C     6.0000    0    12.011   -2.837012    1.613999   -0.335849
   3 C     6.0000    0    12.011   -0.221586    2.046989   -1.505155
   4 C     6.0000    0    12.011    1.809867    0.777506    0.019426
   5 O     8.0000    0    15.999    2.121205    1.078952    2.285976
   6 O     8.0000    0    15.999    3.283735   -0.748541   -1.385676
   7 C     6.0000    0    12.011    5.301533   -2.029975   -0.036018
   8 H     1.0000    0     1.008   -7.664111   -0.527725   -0.261377
   9 H     1.0000    0     1.008   -6.754570   -3.577162    0.769859
  10 H     1.0000    0     1.008   -6.287750   -0.929759    2.760887
  11 H     1.0000    0     1.008   -2.210158   -2.276389    0.716634
  12 H     1.0000    0     1.008   -3.570621   -1.877344   -2.291522
  13 H     1.0000    0     1.008   -2.850248    2.344020    1.603511
  14 H     1.0000    0     1.008   -4.217837    2.723804   -1.408952
  15 H     1.0000    0     1.008    0.223895    4.071099   -1.513118
  16 H     1.0000    0     1.008   -0.164329    1.371727   -3.455829
  17 H     1.0000    0     1.008    6.249684   -3.188994   -1.448390
  18 H     1.0000    0     1.008    4.513780   -3.214336    1.460062
  19 H     1.0000    0     1.008    6.611227   -0.648742    0.763337

------------------------------------------------------------------------------
                   ___                                                        
                  /   \      - P O W E R E D   B Y -                         
                 /     \                                                     
                 |  |  |   _    _      __       _____    __    __             
                 |  |  |  | |  | |    /  \     |  _  \  |  |  /  |          
                  \  \/   | |  | |   /    \    | | | |  |  | /  /          
                 / \  \   | |__| |  /  /\  \   | |_| |  |  |/  /          
                |  |  |   |  __  | /  /__\  \  |    /   |      \           
                |  |  |   | |  | | |   __   |  |    \   |  |\   \          
                \     /   | |  | | |  |  |  |  | |\  \  |  | \   \       
                 \___/    |_|  |_| |__|  |__|  |_| \__\ |__|  \__/        
                                                                              
                      - O R C A' S   B I G   F R I E N D -                    
                                      &                                       
                       - I N T E G R A L  F E E D E R -                       
                                                                              
 v1 FN, 2020, v2 2021, v3 2022-2024                                           
------------------------------------------------------------------------------


----------------------
SHARK INTEGRAL PACKAGE
----------------------

Number of atoms                             ...     20
Number of basis functions                   ...    222
Number of shells                            ...    110
Maximum angular momentum                    ...      2
Integral batch strategy                     ... SHARK/LIBINT Hybrid
RI-J (if used) integral strategy            ... SPLIT-RIJ (Revised 2003 algorithm where possible)
Printlevel                                  ...      1
Contraction scheme used                     ... SEGMENTED contraction
Prescreening option                         ... SCHWARTZ
   Thresh                                   ... 3.000e-11
   Tcut                                     ... 1.000e-12
   Tpresel                                  ... 1.000e-12 
Coulomb Range Separation                    ... NOT USED
Exchange Range Separation                   ... NOT USED
Multipole approximations                    ... NOT USED
Finite Nucleus Model                        ... NOT USED
CABS basis                                  ... NOT available
Auxiliary Coulomb fitting basis             ... AVAILABLE
   # of basis functions in Aux-J            ...    524
   # of shells in Aux-J                     ...    180
   Maximum angular momentum in Aux-J        ...      4
Auxiliary J/K fitting basis                 ... NOT available
Auxiliary Correlation fitting basis         ... NOT available
Auxiliary 'external' fitting basis          ... NOT available

Checking pre-screening integrals            ... done (  0.0 sec) Dimension = 110
Check shell pair data                       ... done (  0.0 sec)
Shell pair information
Shell pair cut-off parameter TPreSel        ...   1.0e-12
Total number of shell pairs                 ...      6105
Shell pairs after pre-screening             ...      5355
Total number of primitive shell pairs       ...     21533
Primitive shell pairs kept                  ...     13474
          la=0 lb=0:   1796 shell pairs
          la=1 lb=0:   2021 shell pairs
          la=1 lb=1:    588 shell pairs
          la=2 lb=0:    571 shell pairs
          la=2 lb=1:    327 shell pairs
          la=2 lb=2:     52 shell pairs

Calculating one electron integrals          ... done (  0.0 sec)
Calculating RI/J V-Matrix + Cholesky decomp.... done (  0.1 sec)
Calculating Nuclear repulsion               ... done (  0.0 sec) ENN=    389.522528431392 Eh

Diagonalization of the overlap matrix:
Smallest eigenvalue                        ... 1.466e-04
Time for diagonalization                   ...    0.005 sec
Threshold for overlap eigenvalues          ... 1.000e-07
Number of eigenvalues below threshold      ... 0
Time for construction of square roots      ...    0.014 sec
Total time needed                          ...    0.028 sec

-------------------
DFT GRID GENERATION
-------------------

General Integration Accuracy     IntAcc      ... 4.388
Radial Grid Type                 RadialGrid  ... OptM3 with GC (2021)
Angular Grid (max. ang.)         AngularGrid ... 4 (Lebedev-302)
Angular grid pruning method      GridPruning ... 4 (adaptive)
Weight generation scheme         WeightScheme... mBecke (2022)
Basis function cutoff            BFCut       ... 1.0000e-11
Integration weight cutoff        WCut        ... 1.0000e-14
Partially contracted basis set               ... off
Rotationally invariant grid construction     ... off
Angular grids for H and He will be reduced by one unit
Diffuse basis detected: some atoms will have their outermost
                        angular grid increased by 1.

Total number of grid points                  ...    87377
Total number of batches                      ...     1377
Average number of points per batch           ...       63
Average number of grid points per atom       ...     4369
Initializing property integral containers    ... done (  0.0 sec)

SHARK setup successfully completed in   1.4 seconds

Maximum memory used throughout the entire STARTUP-calculation: 39.5 MB
Occupation numbers will be reassigned to an Aufbau configuration
             **** ENERGY FILE WAS UPDATED (xtb_opt.en.tmp) ****
Finished Guess after   0.3 sec
Maximum memory used throughout the entire GUESS-calculation: 15.1 MB
--------------------
CPCM SOLVATION MODEL
--------------------
CPCM parameters:
  Epsilon                                         ...      78.3550
  Refrac                                          ...       1.3328
  Rsolv                                           ...       1.3000
  Surface type                                    ... GAUSSIAN VDW
  Discretization scheme                           ... Constant charge density
    Threshold for H atoms                         ...       5.0000 (charges/Ang^2)
    Threshold for non-H atoms                     ...       5.0000 (charges/Ang^2)
  Epsilon function type                           ...         CPCM
Solvent:                                          ... WATER
SMD-CDS solvent descriptors:
  Soln                                            ...       1.3328
  Soln25                                          ...       1.3323
  Sola                                            ...       0.0000
  Solb                                            ...       0.0000
  Solg                                            ...       0.0000
  Solc                                            ...       0.0000
  Solh                                            ...       0.0000
Radii:
  Scheme                                          ... Element-dependent radii
  Radius for C  used is    3.4960 Bohr (=   1.8500 Ang.)
  Radius for O  used is    2.8724 Bohr (=   1.5200 Ang.)
  Radius for H  used is    2.2677 Bohr (=   1.2000 Ang.)
Calculating surface                               ...        done! (  0.0s)
Cavity surface points                             ...         1498
Cavity Volume                                     ...     882.9901
Cavity Surface-area                               ...     589.1344
Calculating surface distance matrix               ...        done! (  0.0s)
Performing Cholesky decomposition & store         ...        done! (  0.1s)
Overall time for CPCM initialization              ...                 0.1s

----------------------------------------D-I-I-S--------------------------------------------
Iteration    Energy (Eh)           Delta-E    RMSDP     MaxDP     DIISErr   Damp  Time(sec)
-------------------------------------------------------------------------------------------
               ***  Starting incremental Fock matrix formation  ***
                              *** Initializing SOSCF ***
---------------------------------------S-O-S-C-F--------------------------------------
Iteration    Energy (Eh)           Delta-E    RMSDP     MaxDP     MaxGrad    Time(sec)
--------------------------------------------------------------------------------------
    1    -386.2529742572874056     0.00e+00  2.74e-05  7.48e-04  8.38e-05     3.9
               *** Restarting incremental Fock matrix formation ***
    2    -386.2529861353784781    -1.19e-05  1.22e-05  2.63e-04  7.94e-05     3.5
    3    -386.2529868329314695    -6.98e-07  3.96e-06  9.32e-05  2.91e-05     2.9
    4    -386.2529867885424437     4.44e-08  2.31e-06  6.20e-05  6.74e-05     2.7
                 **** Energy Check signals convergence ****

               *****************************************************
               *                     SUCCESS                       *
               *           SCF CONVERGED AFTER   4 CYCLES          *
               *****************************************************


SMD CDS free energy correction energy :                 5.15122     Kcal/mol
Total Energy after SMD CDS correction =              -386.244777798 Eh
             **** ENERGY FILE WAS UPDATED (xtb_opt.en.tmp) ****

----------------
TOTAL SCF ENERGY
----------------

Total Energy       :       -386.24477779847626 Eh          -10510.25473 eV

Components:
Nuclear Repulsion  :        389.52252843139229 Eh           10599.44686 eV
Electronic Energy  :       -775.75915099533972 Eh          -21109.47968 eV
One Electron Energy:      -1296.52524052141325 Eh          -35280.24541 eV
Two Electron Energy:        520.76608952607353 Eh           14170.76572 eV
CPCM Dielectric    :         -0.01636422459505 Eh              -0.44529 eV
SMD CDS (Gcds)     :          0.00820899006617 Eh               0.22338 eV

Virial components:
Potential Energy   :       -770.68766886616118 Eh          -20971.47764 eV
Kinetic Energy     :        384.44289106768491 Eh           10461.22290 eV
Virial Ratio       :          2.00468700754431

DFT components:
N(Alpha)           :       32.000037355911 electrons
N(Beta)            :       32.000037355911 electrons
N(Total)           :       64.000074711822 electrons
E(X)               :      -52.034352653225 Eh       
E(C)               :       -2.035345228134 Eh       
E(XC)              :      -54.069697881359 Eh       

CPCM Solvation Model Properties:
Surface-charge          :         -0.04729033071150
Corrected charge        :         -0.00000000000000
Outlying charge corr.   :          0.00016818897554 Eh               0.00458 eV
Free-energy (cav+disp)  :          0.00820899006617 Eh               0.22338 eV

---------------
SCF CONVERGENCE
---------------

  Last Energy change         ...   -4.4389e-08  Tolerance :   1.0000e-07
  Last MAX-Density change    ...    6.1994e-05  Tolerance :   1.0000e-07
  Last RMS-Density change    ...    2.3094e-06  Tolerance :   5.0000e-09
  Last DIIS Error            ...    1.3068e-03  Tolerance :   1.0000e-07
  Last Orbital Gradient      ...    6.7427e-05  Tolerance :   1.0000e-04
  Last Orbital Rotation      ...    9.1908e-05  Tolerance :   1.0000e-04


----------------
ORBITAL ENERGIES
----------------

  NO   OCC          E(Eh)            E(eV) 
   0   2.0000     -19.006375      -517.1898 
   1   2.0000     -18.945910      -515.5444 
   2   2.0000     -10.165133      -276.6073 
   3   2.0000     -10.077979      -274.2357 
   4   2.0000     -10.038496      -273.1614 
   5   2.0000     -10.028113      -272.8788 
   6   2.0000     -10.021892      -272.7095 
   7   2.0000     -10.012102      -272.4432 
   8   2.0000      -1.071797       -29.1651 
   9   2.0000      -0.985025       -26.8039 
  10   2.0000      -0.771434       -20.9918 
  11   2.0000      -0.718856       -19.5611 
  12   2.0000      -0.677581       -18.4379 
  13   2.0000      -0.609669       -16.5900 
  14   2.0000      -0.551847       -15.0165 
  15   2.0000      -0.522113       -14.2074 
  16   2.0000      -0.473133       -12.8746 
  17   2.0000      -0.454841       -12.3768 
  18   2.0000      -0.448277       -12.1982 
  19   2.0000      -0.422107       -11.4861 
  20   2.0000      -0.403069       -10.9681 
  21   2.0000      -0.388911       -10.5828 
  22   2.0000      -0.383880       -10.4459 
  23   2.0000      -0.353219        -9.6116 
  24   2.0000      -0.342211        -9.3120 
  25   2.0000      -0.329796        -8.9742 
  26   2.0000      -0.324376        -8.8267 
  27   2.0000      -0.303589        -8.2611 
  28   2.0000      -0.290761        -7.9120 
  29   2.0000      -0.289740        -7.8842 
  30   2.0000      -0.283152        -7.7050 
  31   2.0000      -0.253997        -6.9116 
  32   0.0000      -0.028421        -0.7734 
  33   0.0000       0.065375         1.7790 
  34   0.0000       0.093484         2.5438 
  35   0.0000       0.115105         3.1322 
  36   0.0000       0.122931         3.3451 
  37   0.0000       0.137658         3.7459 
  38   0.0000       0.142506         3.8778 
  39   0.0000       0.148906         4.0519 
  40   0.0000       0.152145         4.1401 
  41   0.0000       0.166848         4.5402 
  42   0.0000       0.170101         4.6287 
*Only the first 10 virtual orbitals were printed.
Total SCF time: 0 days 0 hours 0 min 13 sec 
Finished LeanSCF after  14.0 sec

Maximum memory used throughout the entire LEANSCF-calculation: 30.5 MB


-------------------------------------------------------------------------------
                          DFT DISPERSION CORRECTION                            
                                                                               
                                DFTD4 V3.4.0                                   
-------------------------------------------------------------------------------
-------------------------   ----------------
Dispersion correction           -0.005100984
-------------------------   ----------------

------------------   -----------------
gCP correction             0.011689919
------------------   -----------------

-------------------------   --------------------
FINAL SINGLE POINT ENERGY      -386.238188862700
-------------------------   --------------------

------------------------------------------------------------------------------
                         ORCA SCF GRADIENT CALCULATION
------------------------------------------------------------------------------

Nuc. rep. gradient        (SHARK) ... done (  0.0 sec)
HCore & Overlap gradient  (SHARK) ... done (  0.3 sec)
Split-RIJ-J gradient      (SHARK) ... done (  1.9 sec)
XC gradient                       ... done (  7.2 sec)
CPCM gradient                     ... done (  1.0 sec)
SMD gradient                      ... done (  0.0 sec)
Dispersion correction             ... done (  0.0 sec)

-------------------
DISPERSION GRADIENT
-------------------

   1   C   :   -0.000083635   -0.000035763    0.000019412
   2   C   :   -0.000069299   -0.000029905   -0.000007118
   3   C   :   -0.000042964    0.000042878   -0.000007125
   4   C   :    0.000002148    0.000061496   -0.000039474
   5   C   :    0.000064654    0.000019518    0.000002776
   6   O   :    0.000057995    0.000029857    0.000060457
   7   O   :    0.000078466   -0.000017919   -0.000018118
   8   C   :    0.000081529   -0.000037562    0.000010065
   9   H   :   -0.000029434   -0.000011188    0.000003811
  10   H   :   -0.000024962   -0.000020404    0.000006337
  11   H   :   -0.000031529   -0.000013554    0.000015393
  12   H   :   -0.000031394   -0.000017912    0.000007221
  13   H   :   -0.000032814   -0.000018076   -0.000014975
  14   H   :   -0.000011430    0.000019647    0.000009743
  15   H   :   -0.000019220    0.000020862   -0.000011080
  16   H   :    0.000005150    0.000035577   -0.000010941
  17   H   :    0.000003614    0.000019004   -0.000029776
  18   H   :    0.000025458   -0.000017147   -0.000004200
  19   H   :    0.000033743   -0.000017692    0.000005305
  20   H   :    0.000023925   -0.000011717    0.000002286

Difference to translation invariance:
           :    0.0000000000   -0.0000000000    0.0000000000

Difference to rotation invariance:
           :   -0.0000000000    0.0000000000    0.0000000000

Norm of the Dispersion gradient    ...    0.0002545086
RMS gradient                       ...    0.0000328569
MAX gradient                       ...    0.0000836351
gCP correction                   ... done

------------------
CARTESIAN GRADIENT
------------------

   1   C   :    0.000018488   -0.000020786   -0.000028524
   2   C   :   -0.000015842    0.000007310    0.000008731
   3   C   :    0.000087851   -0.000048975    0.000004903
   4   C   :   -0.000047662    0.000145907    0.000029394
   5   C   :    0.000252070   -0.000760158   -0.000683835
   6   O   :    0.000024818    0.000216962    0.000363063
   7   O   :   -0.000435841    0.000532154    0.000227871
   8   C   :    0.000198652   -0.000140494    0.000118910
   9   H   :    0.000011673    0.000002372   -0.000027368
  10   H   :   -0.000005362   -0.000009876   -0.000017746
  11   H   :   -0.000003585   -0.000003066   -0.000009091
  12   H   :    0.000003459   -0.000010125   -0.000005458
  13   H   :    0.000016856   -0.000000481   -0.000011009
  14   H   :   -0.000005739   -0.000008527    0.000023937
  15   H   :   -0.000003386   -0.000002741    0.000006143
  16   H   :   -0.000018939    0.000036972    0.000016862
  17   H   :    0.000006371    0.000034094   -0.000003461
  18   H   :   -0.000045411   -0.000021648   -0.000015216
  19   H   :   -0.000053306    0.000042738    0.000021974
  20   H   :    0.000014837    0.000008369   -0.000020080

Difference to translation invariance:
           :    0.0000000000   -0.0000000000   -0.0000000000

Difference to rotation invariance:
           :    0.0003777156   -0.0005874694    0.0001684415

Norm of the Cartesian gradient     ...    0.0013921245
RMS gradient                       ...    0.0001797225
MAX gradient                       ...    0.0007601583

-------
TIMINGS
-------

Total SCF gradient time     ....       11.287 sec

Densities                   ....       0.001 sec  (  0.0%)
One electron gradient       ....       0.334 sec  (  3.0%)
RI-J Coulomb gradient       ....       1.911 sec  ( 16.9%)
XC gradient                 ....       7.226 sec  ( 64.0%)
CPCM gradient               ....       0.972 sec  (  8.6%)
   A-Matrix (El+Nuc)        ....       0.074 sec  (  0.7%)
   Potential                ....       0.898 sec  (  8.0%)
SMD gradient                ....       0.015 sec  (  0.1%)

Maximum memory used throughout the entire SCFGRAD-calculation: 35.4 MB

------------------------------------------------------------------------------
                              ORCA PROPERTY CALCULATIONS
------------------------------------------------------------------------------

GBWName                                 ... xtb_opt.gbw
Number of atoms                         ...     20
Number of basis functions               ...    222
Max core memory                         ...   1024 MB

Electric properties:
Dipole moment                           ... YES
Quadrupole moment                       ...  NO
Static polarizability (Dipole/Dipole)   ...  NO
Static polarizability (Dipole/Quad.)    ...  NO
Static polarizability (Quad./Quad.)     ...  NO
Static polarizability (Velocity)        ...  NO

Atomic electric properties:
Dipole moment                           ...  NO
Quadrupole moment                       ...  NO
Static polarizability                   ...  NO

Choice of electric origin               ... Center of mass
Position of electric origin             ...     0.006598    -0.038957    -0.041309

General magnetic properties:
Magnetizability                         ...  NO

EPR properties:
g-Tensor (aka g-matrix)                 ...  NO
Zero-Field splitting spin-orbit         ...  NO
Zero-field splitting spin-spin          ...  NO
Hyperfine couplings                     ...  NO (   0 nuclei)
Quadrupole couplings                    ...  NO (   0 nuclei)
Contact density                         ...  NO (   0 nuclei)

NMR properties:
Chemical shifts                         ...  NO (   0 nuclei)
Spin-rotation constants                 ...  NO (   0 nuclei)
Spin-spin couplings                     ...  NO (   0 nuclei,    0 pairs)

Choice of magnetic origin               ... GIAO
Position of magnetic origin             ...     0.000000     0.000000     0.000000

Properties with geometric perturbations:
SCF Hessian                             ...  NO
IR spectrum                             ...  NO
VCD spectrum                            ...  NO
X-ray spectroscopy properties:
SCF XES/XAS/RIXS spectra                ...  NO


-------------
DIPOLE MOMENT
-------------

Method             : SCF
Type of density    : Electron Density
Multiplicity       :   1
Irrep              :   0
Energy             :  -386.2447777984762638 Eh
Relativity type    : 
Basis              : AO
                                X                 Y                 Z
Electronic contribution:      8.035186409       2.260381325      -0.089863229
Nuclear contribution   :     -8.000586819      -2.609339877      -0.890499935
                        -----------------------------------------
Total Dipole Moment    :      0.034599589      -0.348958553      -0.980363164
                        -----------------------------------------
Magnitude (a.u.)       :      1.041192171
Magnitude (Debye)      :      2.646500177



--------------------
Rotational spectrum 
--------------------
 
Rotational constants in cm-1:             0.126436             0.033035             0.031297 
Rotational constants in MHz :          3790.446861           990.354459           938.248163 

Dipole components along the rotational axes: 
x,y,z [a.u.] :    -0.063385     0.234344     1.012495 
x,y,z [Debye]:    -0.161112     0.595656     2.573558 

 

Dipole moment calculation done in   0.0 sec 

Maximum memory used throughout the entire PROP-calculation: 13.9 MB

--------------------------------
SUGGESTED CITATIONS FOR THIS RUN
--------------------------------

Below you find a list of papers that are relevant to this ORCA run
We neither can nor want to force you to cite these papers, but we appreciate if you do
You receive ORCA, which is the product of decades of hard work by many enthusiastic individuals, for free
The only thing we kindly ask in return is that you cite our papers,
We deeply appreciate it, if you show your appreciation for ORCA by not just citing the generic ORCA reference.

Please note that relegating all ORCA citations to the supporting information does *not* help us.
SI sections are not indexed - citations you put there will not count into any citation statistics
But we need these citations in order to attract the funding resources that allow us to do what we are doing

Therefore, if you are a happy ORCA user, please consider citing a few of the papers listed below in the main body of your paper

In addition to the list printed below, the program has created the file xtb_opt.bibtex that contains the list in bibtex format
You can import this file easily into all common literature databanks and citation aid programs


List of essential papers. We consider these as the minimum necessary citations

  1. Neese,F.
     Software update: the ORCA program system, version 5.0
     WIRES Comput. Molec. Sci., 2022 12(1)e1606
     doi.org/10.1002/wcms.1606
  2. Grimme,S.; Hansen,A.; Ehlert,S.; Mewes,J.
     r2SCAN-3c: A 'Swiss army knife' composite electronic-structure method
     J. Chem. Phys., 2021 154 064103
     doi.org/10.1063/5.0040021

List of papers to cite with high priority. The work reported in these papers was absolutely
necessary for this run to complete.
Our perspective: the developers of density functionals and basis sets usually get cited in chemistry papers
Good! But without the algorithms to do something with them, the functionals or basis sets would not do anything.
Hence, in our opinion, the algorithm design and method developments papers are equally worthy of getting cited

  1. Neese,F.
     An improvement of the resolution of the identity approximation for the formation of the Coulomb matrix
     J. Comp. Chem., 2003 24(14)1740-1747
     doi.org/10.1002/jcc.10318
  2. Garcia-Rates,M.; Neese,F.
     Effect of the Solute Cavity on the Solvation Energy and its Derivatives within the Framework of the Gaussian Charge Scheme
     J. Comput. Chem., 2020 41 922-939
     doi.org/10.1002/jcc.26139
  3. Neese,F.
     The SHARK Integral Generation and Digestion System
     J. Comp. Chem., 2022  1-16
     doi.org/10.1002/jcc.26942
  4. Lehtola,S.; Steigemann,C.; Oliveira,M.; Marques,M.
     Recent developments in Libxc - A comprehensive library of functionals for density functional theory
     Software X, 2018 7 
     doi.org/10.1016/j.softx.2017.11.002
  5. Caldeweyher,E.; Bannwarth,C.; Grimme,S.
     Extension of the D3 dispersion coefficient model
     J. Chem. Phys., 2017 147 034112-XXXX
     doi.org/10.1063/1.4993215
  6. Caldeweyher,E.; Ehlert,S.; Hansen,A.; Neugebauer,H.; Spicher,S.; Bannwarth,C.; Grimme,S.
     A generally applicable atomic-charge dependent London dispersion correction
     J. Chem. Phys., 2019 150 154122-XXXX
     doi.org/10.1063/1.5090222
  7. Caldeweyher,E.; Mewes,J.; Ehlert,S.; Grimme,S.
     Extension and evaluation of the D4 London-dispersion model for periodic systems
     Phys. Chem. Chem. Phys., 2020 22(16)8499-8512
     doi.org/10.1039/D0CP00502A

List of suggested additional citations. These are papers that are important in the 'surrounding' of 
of this run, or papers that preceded the highly important papers. If you like your results we are grateful for a citation.

  1. Neese,F.
     The ORCA program system
     WIRES Comput. Molec. Sci., 2012 2(1)73-78
     doi.org/10.1002/wcms.81
  2. Neese,F.
     Software update: the ORCA program system, version 4.0
     WIRES Comput. Molec. Sci., 2018 8(1)1-6
     doi.org/10.1002/wcms.1327
  3. Neese,F.; Wennmohs,F.; Becker,U.; Riplinger,C.
     The ORCA quantum chemistry program package
     J. Chem. Phys., 2020 152 Art. No. L224108
     doi.org/10.1063/5.0004608

List of optional additional citations

  1. Neese,F.
     Approximate second-order SCF convergence for spin unrestricted wavefunctions
     Chem. Phys. Lett., 2000 325(1-3)93-98
     doi.org/10.1016/s0009-2614(00)00662-x

Timings for individual modules:

Sum of individual times          ...       27.399 sec (=   0.457 min)
Startup calculation              ...        1.471 sec (=   0.025 min)   5.4 %
SCF iterations                   ...       14.424 sec (=   0.240 min)  52.6 %
Property calculations            ...        0.112 sec (=   0.002 min)   0.4 %
SCF Gradient evaluation          ...       11.392 sec (=   0.190 min)  41.6 %
                             ****ORCA TERMINATED NORMALLY****
TOTAL RUN TIME: 0 days 0 hours 0 minutes 28 seconds 363 msec
  ------------------------------------------------------------------------
          * successful ORCA run, taking over control again...
av. E:   -386.2381889 ->   -386.2381889
av. G:      0.0016210 ->      0.0016210
 * total energy  :  -386.2381889 Eh     change       -0.3174462E-05 Eh
   gradient norm :     0.0013914 Eh/a0  converged?    E=T G=F D=F
   step length   :     0.0238827 a0

........................................................................
.............................. CYCLE    5 ..............................
........................................................................
                         * ORCA takes the control...
  ------------------------------------------------------------------------

                                 *****************
                                 * O   R   C   A *
                                 *****************

                                            #,                                       
                                            ###                                      
                                            ####                                     
                                            #####                                    
                                            ######                                   
                                           ########,                                 
                                     ,,################,,,,,                         
                               ,,#################################,,                 
                          ,,##########################################,,             
                       ,#########################################, ''#####,          
                    ,#############################################,,   '####,        
                  ,##################################################,,,,####,       
                ,###########''''           ''''###############################       
              ,#####''   ,,,,##########,,,,          '''####'''          '####       
            ,##' ,,,,###########################,,,                        '##       
           ' ,,###''''                  '''############,,,                           
         ,,##''                                '''############,,,,        ,,,,,,###''
      ,#''                                            '''#######################'''  
     '                                                          ''''####''''         
             ,#######,   #######,   ,#######,      ##                                
            ,#'     '#,  ##    ##  ,#'     '#,    #''#        ,####,   ,####,        
            ##       ##  ##   ,#'  ##            #'  '#       #'       #'  '#        
            ##       ##  #######   ##           ,######,      #####,   #    #        
            '#,     ,#'  ##    ##  '#,     ,#' ,#      #,     #,   #   #,  ,#        
             '#######'   ##     ##  '#######'  #'      '#     '####' # '####'        



                #########################################################
                #                        -***-                          #
                #          Department of theory and spectroscopy        #
                #                                                       #
                #                      Frank Neese                      #
                #                                                       #
                #     Directorship, Architecture, Infrastructure        #
                #                    SHARK, DRIVERS                     #
                #        Core code/Algorithms in most modules           #
                #                                                       #
                #        Max Planck Institute fuer Kohlenforschung      #
                #                Kaiser Wilhelm Platz 1                 #
                #                 D-45470 Muelheim/Ruhr                 #
                #                      Germany                          #
                #                                                       #
                #                  All rights reserved                  #
                #                        -***-                          #
                #########################################################


                         Program Version 6.0.0  -   RELEASE  -


 With contributions from (in alphabetic order):
   Daniel Aravena         : Magnetic Suceptibility
   Michael Atanasov       : Ab Initio Ligand Field Theory (pilot matlab implementation)
   Alexander A. Auer      : GIAO ZORA, VPT2 properties, NMR spectrum
   Ute Becker             : All parallelization in ORCA, NUMFREQ, NUMCALC
   Giovanni Bistoni       : ED, misc. LED, open-shell LED, HFLD
   Martin Brehm           : Molecular dynamics
   Dmytro Bykov           : pre 5.0 version of the SCF Hessian
   Marcos Casanova-Páez   : Triplet and SCS-CIS(D). UHF-(DLPNO)-IP/EA/STEOM-CCSD. UHF-CVS-IP/STEOM-CCSD
   Vijay G. Chilkuri      : MRCI spin determinant printing, contributions to CSF-ICE
   Pauline Colinet        : FMM embedding
   Dipayan Datta          : RHF DLPNO-CCSD density
   Achintya Kumar Dutta   : EOM-CC, STEOM-CC
   Nicolas Foglia         : Exact transition moments, OPA infrastructure, MCD improvements
   Dmitry Ganyushin       : Spin-Orbit,Spin-Spin,Magnetic field MRCI
   Miquel Garcia          : C-PCM and meta-GGA Hessian, CCSD/C-PCM, Gaussian charge scheme
   Tiago L. C. Gouveia    : GS-ROHF, GS-ROCIS
   Yang Guo               : DLPNO-NEVPT2, F12-NEVPT2, CIM, IAO-localization
   Andreas Hansen         : Spin unrestricted coupled pair/coupled cluster methods
   Ingolf Harden          : AUTO-CI MPn and infrastructure 
   Benjamin Helmich-Paris : MC-RPA, TRAH-(SCF,CASSCF), AVAS, COSX integrals, SCF dyn. polar.
   Lee Huntington         : MR-EOM, pCC
   Robert Izsak           : Overlap fitted RIJCOSX, COSX-SCS-MP3, EOM
   Riya Kayal             : Wick's Theorem for AUTO-CI, AUTO-CI UHF-CCSDT
   Emily Kempfer          : AUTO-CI, RHF CISDT and CCSDT
   Christian Kollmar      : KDIIS, OOCD, Brueckner-CCSD(T), CCSD density, CASPT2, CASPT2-K, improved NEVPT2
   Axel Koslowski         : Symmetry handling
   Simone Kossmann        : Meta GGA functionals, TD-DFT gradient, OOMP2, (MP2 Hessian; deprecated post 5.0)
   Lucas Lang             : DCDCAS
   Marvin Lechner         : AUTO-CI (C++ implementation), FIC-MRCC
   Spencer Leger          : CASSCF response
   Dagmar Lenk            : GEPOL surface, SMD, ORCA-2-JSON
   Dimitrios Liakos       : Extrapolation schemes; Compound Job, initial MDCI parallelization
   Dimitrios Manganas     : Further ROCIS development; embedding schemes. LFT, Crystal Embedding
   Dimitrios Pantazis     : SARC Basis sets
   Anastasios Papadopoulos: AUTO-CI, single reference methods and gradients
   Taras Petrenko         : pre 6.0 DFT Hessian and TD-DFT gradient, (ASA, deprecated), ECA, 1-Electron XAS/XES, NRVS
   Peter Pinski           : DLPNO-MP2, DLPNO-MP2 Gradient
   Christoph Reimann      : Effective Core Potentials
   Marius Retegan         : Local ZFS, SOC
   Christoph Riplinger    : Optimizer, TS searches, QM/MM, DLPNO-CCSD(T), (RO)-DLPNO pert. Triples
   Michael Roemelt        : Original ROCIS implementation
   Masaaki Saitow         : Open-shell DLPNO-CCSD energy and density
   Barbara Sandhoefer     : DKH picture change effects
   Kantharuban Sivalingam : CASSCF convergence/infrastructure, NEVPT2 and variants, FIC-MRCI
   Bernardo de Souza      : ESD, SOC TD-DFT
   Georgi Stoychev        : AutoAux, RI-MP2 NMR, DLPNO-MP2 response, X2C
   Van Anh Tran           : RI-MP2 g-tensors
   Willem Van den Heuvel  : Paramagnetic NMR
   Zikuan Wang            : NOTCH, Electric field optimization 
   Frank Wennmohs         : Technical directorship and infrastructure
   Hang Xu                : AUTO-CI-Response properties 


 We gratefully acknowledge several colleagues who have allowed us to
 interface, adapt or use parts of their codes:
   Stefan Grimme, W. Hujo, H. Kruse, P. Pracht,  : VdW corrections, initial TS optimization,
                  C. Bannwarth, S. Ehlert,         DFT functionals, gCP, sTDA/sTD-DF
                  L. Wittmann, M. Mueller
   Ed Valeev, F. Pavosevic, A. Kumar             : LibInt (2-el integral package), F12 methods
   Garnet Chan, S. Sharma, J. Yang, R. Olivares  : DMRG
   Ulf Ekstrom                                   : XCFun DFT Library
   Mihaly Kallay                                 : mrcc  (arbitrary order and MRCC methods)
   Frank Weinhold                                : gennbo (NPA and NBO analysis)
   Simon Mueller                                 : openCOSMO-RS
   Christopher J. Cramer and Donald G. Truhlar   : smd solvation model
   Lars Goerigk                                  : TD-DFT with DH, B97 family of functionals
   V. Asgeirsson, H. Jonsson                     : NEB implementation
   FAccTs GmbH                                   : IRC, NEB, NEB-TS, DLPNO-Multilevel, CI-OPT
                                                   MM, QMMM, 2- and 3-layer-ONIOM, Crystal-QMMM,
                                                   LR-CPCM, SF, NACMEs, symmetry and pop. for TD-DFT,
                                                   nearIR, NL-DFT gradient (VV10), updates on ESD,
                                                   ML-optimized integration grids, MBIS, APM,
                                                   GOAT, DOCKER, SOLVATOR, interface openCOSMO-RS
   S Lehtola, MJT Oliveira, MAL Marques          : LibXC Library
   Liviu Ungur et al                             : ANISO software


 Your calculation uses the libint2 library for the computation of 2-el integrals
 For citations please refer to: http://libint.valeyev.net

 Your ORCA version has been built with support for libXC version: 6.2.2
 For citations please refer to: https://libxc.gitlab.io

 This ORCA versions uses:
   CBLAS   interface :  Fast vector & matrix operations
   LAPACKE interface :  Fast linear algebra routines
   SCALAPACK package :  Parallel linear algebra routines
   Shared memory     :  Shared parallel matrices
   BLAS/LAPACK       :  OpenBLAS 0.3.27  USE64BITINT DYNAMIC_ARCH NO_AFFINITY SkylakeX SINGLE_THREADED
        Core in use  :  SkylakeX
   Copyright (c) 2011-2014, The OpenBLAS Project




***************************************
The coordinates will be read from file: xtb_opt.xyz
***************************************


Your calculation utilizes the geometrical counterpoise correction gCP
Please cite in your paper:
H.Kruse, S. Grimme J.Chem.Phys., 136, (2012), 154101 
   

Your calculation utilizes the atom-pairwise dispersion correction
based on EEQ partial charges (D4)


Your calculation utilizes the SMD solvation module
Please cite in your paper:
A.V. Marenich, C.J. Cramer, D.G. Truhlar J. Phys. Chem. B, 113, (2009), 6378 

================================================================================

----- Orbital basis set information -----
Your calculation utilizes the basis: def2-mTZVPP
   Stefan Grimme, Andreas Hansen, Sebastian Ehlert, and Jan-Michael Mewes 
   J. Chem. Phys. 154, 064103 (2021). DOI: 10.1063/5.0040021

----- AuxJ basis set information -----
Your calculation utilizes the auxiliary basis: def2/J
   F. Weigend, Phys. Chem. Chem. Phys. 8, 1057 (2006).

================================================================================
                                        WARNINGS
                       Please study these warnings very carefully!
================================================================================

WARNING: Old DensityContainer found on disk!
         Will remove this file - 
         If you want to keep old densities, please start your calculation with a different basename. 

Using LibXC functional ID 497 : Re-regularized SCAN exchange by Furness et al
[ 1]  J. W. Furness, A. D. Kaplan, J. Ning, J. P. Perdew, and J. Sun.,  J. Phys. Chem. Lett. 11, 8208-8215 (2020)
[ 2]  J. W. Furness, A. D. Kaplan, J. Ning, J. P. Perdew, and J. Sun.,  J. Phys. Chem. Lett. 11, 9248-9248 (2020)
Using LibXC functional ID 498 : Re-regularized SCAN correlation by Furness et al
[ 1]  J. W. Furness, A. D. Kaplan, J. Ning, J. P. Perdew, and J. Sun.,  J. Phys. Chem. Lett. 11, 8208-8215 (2020)
[ 2]  J. W. Furness, A. D. Kaplan, J. Ning, J. P. Perdew, and J. Sun.,  J. Phys. Chem. Lett. 11, 9248-9248 (2020)
Using LibXC functional ID 497 : Re-regularized SCAN exchange by Furness et al
[ 1]  J. W. Furness, A. D. Kaplan, J. Ning, J. P. Perdew, and J. Sun.,  J. Phys. Chem. Lett. 11, 8208-8215 (2020)
[ 2]  J. W. Furness, A. D. Kaplan, J. Ning, J. P. Perdew, and J. Sun.,  J. Phys. Chem. Lett. 11, 9248-9248 (2020)
Using LibXC functional ID 498 : Re-regularized SCAN correlation by Furness et al
[ 1]  J. W. Furness, A. D. Kaplan, J. Ning, J. P. Perdew, and J. Sun.,  J. Phys. Chem. Lett. 11, 8208-8215 (2020)
[ 2]  J. W. Furness, A. D. Kaplan, J. Ning, J. P. Perdew, and J. Sun.,  J. Phys. Chem. Lett. 11, 9248-9248 (2020)

================================================================================
                                       INPUT FILE
================================================================================
NAME = xtb_opt.inp
|  1> ! r2scan-3c def2/J RI DEFGRID2 scfconv7 ENGRAD tightSCF miniprint
|  2> %cpcm
|  3>     smd true
|  4>     smdsolvent "water"
|  5> end
|  6> * xyzfile 0 1 xtb_opt.xyz
|  7> 
|  8>                          ****END OF INPUT****
================================================================================

                     *******************************
                     * Energy+Gradient Calculation *
                     *******************************

---------------------------------
CARTESIAN COORDINATES (ANGSTROEM)
---------------------------------
  C     -3.295669   -0.833856    0.421876
  C     -1.911794   -0.617177   -0.182051
  C     -1.501586    0.854215   -0.177974
  C     -0.117235    1.081632   -0.797457
  C      0.957701    0.411312    0.010558
  O      1.121679    0.570285    1.209783
  O      1.738899   -0.397630   -0.733183
  C      2.806948   -1.073649   -0.018814
  H     -4.057273   -0.278097   -0.136496
  H     -3.575663   -1.891900    0.408606
  H     -3.327108   -0.491050    1.461944
  H     -1.170938   -1.204944    0.377887
  H     -1.892284   -0.992657   -1.213255
  H     -1.507156    1.240175    0.848360
  H     -2.231989    1.442631   -0.745040
  H      0.118820    2.152844   -0.803664
  H     -0.087010    0.722460   -1.829128
  H      3.315317   -1.680220   -0.767177
  H      2.390771   -1.707336    0.767391
  H      3.494727   -0.342084    0.410902

----------------------------
CARTESIAN COORDINATES (A.U.)
----------------------------
  NO LB      ZA    FRAG     MASS         X           Y           Z
   0 C     6.0000    0    12.011   -6.227912   -1.575759    0.797230
   1 C     6.0000    0    12.011   -3.612767   -1.166295   -0.344026
   2 C     6.0000    0    12.011   -2.837585    1.614233   -0.336322
   3 C     6.0000    0    12.011   -0.221542    2.043988   -1.506974
   4 C     6.0000    0    12.011    1.809792    0.777266    0.019953
   5 O     8.0000    0    15.999    2.119666    1.077683    2.286158
   6 O     8.0000    0    15.999    3.286043   -0.751412   -1.385515
   7 C     6.0000    0    12.011    5.304363   -2.028902   -0.035554
   8 H     1.0000    0     1.008   -7.667134   -0.525527   -0.257940
   9 H     1.0000    0     1.008   -6.757023   -3.575173    0.772153
  10 H     1.0000    0     1.008   -6.287324   -0.927950    2.762673
  11 H     1.0000    0     1.008   -2.212752   -2.277014    0.714102
  12 H     1.0000    0     1.008   -3.575898   -1.875850   -2.292719
  13 H     1.0000    0     1.008   -2.848111    2.343591    1.603168
  14 H     1.0000    0     1.008   -4.217849    2.726177   -1.407921
  15 H     1.0000    0     1.008    0.224538    4.068285   -1.518705
  16 H     1.0000    0     1.008   -0.164425    1.365252   -3.456551
  17 H     1.0000    0     1.008    6.265041   -3.175155   -1.449755
  18 H     1.0000    0     1.008    4.517903   -3.226397    1.450159
  19 H     1.0000    0     1.008    6.604077   -0.646444    0.776493

------------------------------------------------------------------------------
                   ___                                                        
                  /   \      - P O W E R E D   B Y -                         
                 /     \                                                     
                 |  |  |   _    _      __       _____    __    __             
                 |  |  |  | |  | |    /  \     |  _  \  |  |  /  |          
                  \  \/   | |  | |   /    \    | | | |  |  | /  /          
                 / \  \   | |__| |  /  /\  \   | |_| |  |  |/  /          
                |  |  |   |  __  | /  /__\  \  |    /   |      \           
                |  |  |   | |  | | |   __   |  |    \   |  |\   \          
                \     /   | |  | | |  |  |  |  | |\  \  |  | \   \       
                 \___/    |_|  |_| |__|  |__|  |_| \__\ |__|  \__/        
                                                                              
                      - O R C A' S   B I G   F R I E N D -                    
                                      &                                       
                       - I N T E G R A L  F E E D E R -                       
                                                                              
 v1 FN, 2020, v2 2021, v3 2022-2024                                           
------------------------------------------------------------------------------


----------------------
SHARK INTEGRAL PACKAGE
----------------------

Number of atoms                             ...     20
Number of basis functions                   ...    222
Number of shells                            ...    110
Maximum angular momentum                    ...      2
Integral batch strategy                     ... SHARK/LIBINT Hybrid
RI-J (if used) integral strategy            ... SPLIT-RIJ (Revised 2003 algorithm where possible)
Printlevel                                  ...      1
Contraction scheme used                     ... SEGMENTED contraction
Prescreening option                         ... SCHWARTZ
   Thresh                                   ... 3.000e-11
   Tcut                                     ... 1.000e-12
   Tpresel                                  ... 1.000e-12 
Coulomb Range Separation                    ... NOT USED
Exchange Range Separation                   ... NOT USED
Multipole approximations                    ... NOT USED
Finite Nucleus Model                        ... NOT USED
CABS basis                                  ... NOT available
Auxiliary Coulomb fitting basis             ... AVAILABLE
   # of basis functions in Aux-J            ...    524
   # of shells in Aux-J                     ...    180
   Maximum angular momentum in Aux-J        ...      4
Auxiliary J/K fitting basis                 ... NOT available
Auxiliary Correlation fitting basis         ... NOT available
Auxiliary 'external' fitting basis          ... NOT available

Checking pre-screening integrals            ... done (  0.0 sec) Dimension = 110
Check shell pair data                       ... done (  0.0 sec)
Shell pair information
Shell pair cut-off parameter TPreSel        ...   1.0e-12
Total number of shell pairs                 ...      6105
Shell pairs after pre-screening             ...      5355
Total number of primitive shell pairs       ...     21533
Primitive shell pairs kept                  ...     13474
          la=0 lb=0:   1796 shell pairs
          la=1 lb=0:   2021 shell pairs
          la=1 lb=1:    588 shell pairs
          la=2 lb=0:    571 shell pairs
          la=2 lb=1:    327 shell pairs
          la=2 lb=2:     52 shell pairs

Calculating one electron integrals          ... done (  0.0 sec)
Calculating RI/J V-Matrix + Cholesky decomp.... done (  0.1 sec)
Calculating Nuclear repulsion               ... done (  0.0 sec) ENN=    389.458384532965 Eh

Diagonalization of the overlap matrix:
Smallest eigenvalue                        ... 1.466e-04
Time for diagonalization                   ...    0.005 sec
Threshold for overlap eigenvalues          ... 1.000e-07
Number of eigenvalues below threshold      ... 0
Time for construction of square roots      ...    0.015 sec
Total time needed                          ...    0.029 sec

-------------------
DFT GRID GENERATION
-------------------

General Integration Accuracy     IntAcc      ... 4.388
Radial Grid Type                 RadialGrid  ... OptM3 with GC (2021)
Angular Grid (max. ang.)         AngularGrid ... 4 (Lebedev-302)
Angular grid pruning method      GridPruning ... 4 (adaptive)
Weight generation scheme         WeightScheme... mBecke (2022)
Basis function cutoff            BFCut       ... 1.0000e-11
Integration weight cutoff        WCut        ... 1.0000e-14
Partially contracted basis set               ... off
Rotationally invariant grid construction     ... off
Angular grids for H and He will be reduced by one unit
Diffuse basis detected: some atoms will have their outermost
                        angular grid increased by 1.

Total number of grid points                  ...    87378
Total number of batches                      ...     1377
Average number of points per batch           ...       63
Average number of grid points per atom       ...     4369
Initializing property integral containers    ... done (  0.0 sec)

SHARK setup successfully completed in   1.2 seconds

Maximum memory used throughout the entire STARTUP-calculation: 39.5 MB
Occupation numbers will be reassigned to an Aufbau configuration
             **** ENERGY FILE WAS UPDATED (xtb_opt.en.tmp) ****
Finished Guess after   0.3 sec
Maximum memory used throughout the entire GUESS-calculation: 15.1 MB
--------------------
CPCM SOLVATION MODEL
--------------------
CPCM parameters:
  Epsilon                                         ...      78.3550
  Refrac                                          ...       1.3328
  Rsolv                                           ...       1.3000
  Surface type                                    ... GAUSSIAN VDW
  Discretization scheme                           ... Constant charge density
    Threshold for H atoms                         ...       5.0000 (charges/Ang^2)
    Threshold for non-H atoms                     ...       5.0000 (charges/Ang^2)
  Epsilon function type                           ...         CPCM
Solvent:                                          ... WATER
SMD-CDS solvent descriptors:
  Soln                                            ...       1.3328
  Soln25                                          ...       1.3323
  Sola                                            ...       0.0000
  Solb                                            ...       0.0000
  Solg                                            ...       0.0000
  Solc                                            ...       0.0000
  Solh                                            ...       0.0000
Radii:
  Scheme                                          ... Element-dependent radii
  Radius for C  used is    3.4960 Bohr (=   1.8500 Ang.)
  Radius for O  used is    2.8724 Bohr (=   1.5200 Ang.)
  Radius for H  used is    2.2677 Bohr (=   1.2000 Ang.)
Calculating surface                               ...        done! (  0.0s)
Cavity surface points                             ...         1499
Cavity Volume                                     ...     882.9857
Cavity Surface-area                               ...     589.1638
Calculating surface distance matrix               ...        done! (  0.0s)
Performing Cholesky decomposition & store         ...        done! (  0.1s)
Overall time for CPCM initialization              ...                 0.1s

----------------------------------------D-I-I-S--------------------------------------------
Iteration    Energy (Eh)           Delta-E    RMSDP     MaxDP     DIISErr   Damp  Time(sec)
-------------------------------------------------------------------------------------------
               ***  Starting incremental Fock matrix formation  ***
                              *** Initializing SOSCF ***
---------------------------------------S-O-S-C-F--------------------------------------
Iteration    Energy (Eh)           Delta-E    RMSDP     MaxDP     MaxGrad    Time(sec)
--------------------------------------------------------------------------------------
    1    -386.2529609413255685     0.00e+00  3.76e-05  1.07e-03  1.15e-04     3.5
               *** Restarting incremental Fock matrix formation ***
    2    -386.2529805970199277    -1.97e-05  1.80e-05  3.76e-04  1.35e-04     3.7
    3    -386.2529811669064657    -5.70e-07  1.18e-05  2.73e-04  2.73e-04     2.8
    4    -386.2529815019387343    -3.35e-07  8.50e-06  1.74e-04  1.38e-04     2.9
    5    -386.2529818903584555    -3.88e-07  2.00e-06  5.00e-05  1.65e-05     2.9
                  *** Gradient check signals convergence ***

               *****************************************************
               *                     SUCCESS                       *
               *           SCF CONVERGED AFTER   5 CYCLES          *
               *****************************************************


SMD CDS free energy correction energy :                 5.14634     Kcal/mol
Total Energy after SMD CDS correction =              -386.244780683 Eh
             **** ENERGY FILE WAS UPDATED (xtb_opt.en.tmp) ****

----------------
TOTAL SCF ENERGY
----------------

Total Energy       :       -386.24478068335327 Eh          -10510.25481 eV

Components:
Nuclear Repulsion  :        389.45838453296540 Eh           10597.70142 eV
Electronic Energy  :       -775.69504953816647 Eh          -21107.73539 eV
One Electron Energy:      -1296.39831492726626 Eh          -35276.79159 eV
Two Electron Energy:        520.70326538909978 Eh           14169.05619 eV
CPCM Dielectric    :         -0.01631688515734 Eh              -0.44401 eV
SMD CDS (Gcds)     :          0.00820120700520 Eh               0.22317 eV

Virial components:
Potential Energy   :       -770.68640197888396 Eh          -20971.44317 eV
Kinetic Energy     :        384.44162129553069 Eh           10461.18835 eV
Virial Ratio       :          2.00469033342890

DFT components:
N(Alpha)           :       32.000038178262 electrons
N(Beta)            :       32.000038178262 electrons
N(Total)           :       64.000076356524 electrons
E(X)               :      -52.033992664045 Eh       
E(C)               :       -2.035304659201 Eh       
E(XC)              :      -54.069297323246 Eh       

CPCM Solvation Model Properties:
Surface-charge          :         -0.04729019794437
Corrected charge        :          0.00000000000000
Outlying charge corr.   :          0.00016817636691 Eh               0.00458 eV
Free-energy (cav+disp)  :          0.00820120700520 Eh               0.22317 eV

---------------
SCF CONVERGENCE
---------------

  Last Energy change         ...    3.8842e-07  Tolerance :   1.0000e-07
  Last MAX-Density change    ...    4.9988e-05  Tolerance :   1.0000e-07
  Last RMS-Density change    ...    2.0035e-06  Tolerance :   5.0000e-09
  Last DIIS Error            ...    1.9137e-03  Tolerance :   1.0000e-07
  Last Orbital Gradient      ...    1.6514e-05  Tolerance :   1.0000e-04
  Last Orbital Rotation      ...    1.7982e-05  Tolerance :   1.0000e-04


----------------
ORBITAL ENERGIES
----------------

  NO   OCC          E(Eh)            E(eV) 
   0   2.0000     -19.005875      -517.1762 
   1   2.0000     -18.946323      -515.5557 
   2   2.0000     -10.165262      -276.6108 
   3   2.0000     -10.077802      -274.2309 
   4   2.0000     -10.038536      -273.1625 
   5   2.0000     -10.028151      -272.8799 
   6   2.0000     -10.021898      -272.7097 
   7   2.0000     -10.012130      -272.4439 
   8   2.0000      -1.071397       -29.1542 
   9   2.0000      -0.985183       -26.8082 
  10   2.0000      -0.771386       -20.9905 
  11   2.0000      -0.718773       -19.5588 
  12   2.0000      -0.677416       -18.4334 
  13   2.0000      -0.609695       -16.5906 
  14   2.0000      -0.551830       -15.0161 
  15   2.0000      -0.522006       -14.2045 
  16   2.0000      -0.473176       -12.8758 
  17   2.0000      -0.454737       -12.3740 
  18   2.0000      -0.448126       -12.1941 
  19   2.0000      -0.422089       -11.4856 
  20   2.0000      -0.403080       -10.9684 
  21   2.0000      -0.388914       -10.5829 
  22   2.0000      -0.383935       -10.4474 
  23   2.0000      -0.353307        -9.6140 
  24   2.0000      -0.342148        -9.3103 
  25   2.0000      -0.329803        -8.9744 
  26   2.0000      -0.324353        -8.8261 
  27   2.0000      -0.303583        -8.2609 
  28   2.0000      -0.290757        -7.9119 
  29   2.0000      -0.289777        -7.8852 
  30   2.0000      -0.282985        -7.7004 
  31   2.0000      -0.254184        -6.9167 
  32   0.0000      -0.028597        -0.7782 
  33   0.0000       0.065459         1.7812 
  34   0.0000       0.093635         2.5479 
  35   0.0000       0.115117         3.1325 
  36   0.0000       0.122967         3.3461 
  37   0.0000       0.137629         3.7451 
  38   0.0000       0.142480         3.8771 
  39   0.0000       0.148885         4.0514 
  40   0.0000       0.152096         4.1387 
  41   0.0000       0.166795         4.5387 
  42   0.0000       0.170049         4.6273 
*Only the first 10 virtual orbitals were printed.
Total SCF time: 0 days 0 hours 0 min 16 sec 
Finished LeanSCF after  16.7 sec

Maximum memory used throughout the entire LEANSCF-calculation: 30.5 MB


-------------------------------------------------------------------------------
                          DFT DISPERSION CORRECTION                            
                                                                               
                                DFTD4 V3.4.0                                   
-------------------------------------------------------------------------------
-------------------------   ----------------
Dispersion correction           -0.005099920
-------------------------   ----------------

------------------   -----------------
gCP correction             0.011688573
------------------   -----------------

-------------------------   --------------------
FINAL SINGLE POINT ENERGY      -386.238192029991
-------------------------   --------------------

------------------------------------------------------------------------------
                         ORCA SCF GRADIENT CALCULATION
------------------------------------------------------------------------------

Nuc. rep. gradient        (SHARK) ... done (  0.0 sec)
HCore & Overlap gradient  (SHARK) ... done (  0.3 sec)
Split-RIJ-J gradient      (SHARK) ... done (  1.6 sec)
XC gradient                       ... done (  7.0 sec)
CPCM gradient                     ... done (  1.0 sec)
SMD gradient                      ... done (  0.0 sec)
Dispersion correction             ... done (  0.0 sec)

-------------------
DISPERSION GRADIENT
-------------------

   1   C   :   -0.000083605   -0.000035726    0.000019447
   2   C   :   -0.000069283   -0.000029890   -0.000007131
   3   C   :   -0.000042916    0.000042872   -0.000007133
   4   C   :    0.000002140    0.000061421   -0.000039519
   5   C   :    0.000064599    0.000019562    0.000002781
   6   O   :    0.000057966    0.000029863    0.000060471
   7   O   :    0.000078423   -0.000017928   -0.000018124
   8   C   :    0.000081590   -0.000037595    0.000010091
   9   H   :   -0.000029429   -0.000011169    0.000003827
  10   H   :   -0.000024960   -0.000020390    0.000006350
  11   H   :   -0.000031530   -0.000013540    0.000015409
  12   H   :   -0.000031398   -0.000017913    0.000007198
  13   H   :   -0.000032798   -0.000018060   -0.000014971
  14   H   :   -0.000011393    0.000019640    0.000009739
  15   H   :   -0.000019201    0.000020879   -0.000011080
  16   H   :    0.000005146    0.000035554   -0.000010988
  17   H   :    0.000003609    0.000018946   -0.000029782
  18   H   :    0.000025411   -0.000017092   -0.000004193
  19   H   :    0.000033694   -0.000017750    0.000005274
  20   H   :    0.000023934   -0.000011684    0.000002335

Difference to translation invariance:
           :   -0.0000000000    0.0000000000    0.0000000000

Difference to rotation invariance:
           :   -0.0000000000    0.0000000000   -0.0000000000

Norm of the Dispersion gradient    ...    0.0002544464
RMS gradient                       ...    0.0000328489
MAX gradient                       ...    0.0000836047
gCP correction                   ... done

------------------
CARTESIAN GRADIENT
------------------

   1   C   :   -0.000079271   -0.000021524    0.000020510
   2   C   :    0.000023376   -0.000065767   -0.000057059
   3   C   :   -0.000082331    0.000043527    0.000077879
   4   C   :   -0.000003719   -0.000009102   -0.000012123
   5   C   :   -0.000078469    0.000096557    0.000060917
   6   O   :   -0.000063191    0.000116190    0.000172630
   7   O   :    0.000215691   -0.000251612   -0.000119574
   8   C   :    0.000086301   -0.000031008    0.000170512
   9   H   :    0.000013147   -0.000011412   -0.000013013
  10   H   :    0.000022132    0.000013202   -0.000023756
  11   H   :    0.000006022   -0.000010271   -0.000043675
  12   H   :    0.000019381   -0.000017903    0.000014232
  13   H   :    0.000019065    0.000005913   -0.000006894
  14   H   :    0.000018474   -0.000018518   -0.000012718
  15   H   :   -0.000025525    0.000020619    0.000028378
  16   H   :   -0.000001048    0.000125031    0.000018113
  17   H   :    0.000004049    0.000021151   -0.000056485
  18   H   :   -0.000029403    0.000025114    0.000055308
  19   H   :    0.000042083    0.000107999   -0.000152606
  20   H   :   -0.000106764   -0.000138182   -0.000120575

Difference to translation invariance:
           :    0.0000000000   -0.0000000000   -0.0000000000

Difference to rotation invariance:
           :    0.0003926764   -0.0005780215    0.0001633733

Norm of the Cartesian gradient     ...    0.0006100190
RMS gradient                       ...    0.0000787531
MAX gradient                       ...    0.0002516124

-------
TIMINGS
-------

Total SCF gradient time     ....       10.782 sec

Densities                   ....       0.001 sec  (  0.0%)
One electron gradient       ....       0.323 sec  (  3.0%)
RI-J Coulomb gradient       ....       1.639 sec  ( 15.2%)
XC gradient                 ....       6.997 sec  ( 64.9%)
CPCM gradient               ....       0.983 sec  (  9.1%)
   A-Matrix (El+Nuc)        ....       0.072 sec  (  0.7%)
   Potential                ....       0.911 sec  (  8.4%)
SMD gradient                ....       0.013 sec  (  0.1%)

Maximum memory used throughout the entire SCFGRAD-calculation: 35.4 MB

------------------------------------------------------------------------------
                              ORCA PROPERTY CALCULATIONS
------------------------------------------------------------------------------

GBWName                                 ... xtb_opt.gbw
Number of atoms                         ...     20
Number of basis functions               ...    222
Max core memory                         ...   1024 MB

Electric properties:
Dipole moment                           ... YES
Quadrupole moment                       ...  NO
Static polarizability (Dipole/Dipole)   ...  NO
Static polarizability (Dipole/Quad.)    ...  NO
Static polarizability (Quad./Quad.)     ...  NO
Static polarizability (Velocity)        ...  NO

Atomic electric properties:
Dipole moment                           ...  NO
Quadrupole moment                       ...  NO
Static polarizability                   ...  NO

Choice of electric origin               ... Center of mass
Position of electric origin             ...     0.006427    -0.039440    -0.041302

General magnetic properties:
Magnetizability                         ...  NO

EPR properties:
g-Tensor (aka g-matrix)                 ...  NO
Zero-Field splitting spin-orbit         ...  NO
Zero-field splitting spin-spin          ...  NO
Hyperfine couplings                     ...  NO (   0 nuclei)
Quadrupole couplings                    ...  NO (   0 nuclei)
Contact density                         ...  NO (   0 nuclei)

NMR properties:
Chemical shifts                         ...  NO (   0 nuclei)
Spin-rotation constants                 ...  NO (   0 nuclei)
Spin-spin couplings                     ...  NO (   0 nuclei,    0 pairs)

Choice of magnetic origin               ... GIAO
Position of magnetic origin             ...     0.000000     0.000000     0.000000

Properties with geometric perturbations:
SCF Hessian                             ...  NO
IR spectrum                             ...  NO
VCD spectrum                            ...  NO
X-ray spectroscopy properties:
SCF XES/XAS/RIXS spectra                ...  NO


-------------
DIPOLE MOMENT
-------------

Method             : SCF
Type of density    : Electron Density
Multiplicity       :   1
Irrep              :   0
Energy             :  -386.2447806833532695 Eh
Relativity type    : 
Basis              : AO
                                X                 Y                 Z
Electronic contribution:      8.030882111       2.260721218      -0.087184286
Nuclear contribution   :     -7.998527002      -2.604706741      -0.890510532
                        -----------------------------------------
Total Dipole Moment    :      0.032355109      -0.343985523      -0.977694818
                        -----------------------------------------
Magnitude (a.u.)       :      1.036947467
Magnitude (Debye)      :      2.635710998



--------------------
Rotational spectrum 
--------------------
 
Rotational constants in cm-1:             0.126489             0.033007             0.031280 
Rotational constants in MHz :          3792.040821           989.537657           937.736668 

Dipole components along the rotational axes: 
x,y,z [a.u.] :    -0.061188     0.229001     1.009492 
x,y,z [Debye]:    -0.155526     0.582074     2.565926 

 

Dipole moment calculation done in   0.0 sec 

Maximum memory used throughout the entire PROP-calculation: 13.9 MB

--------------------------------
SUGGESTED CITATIONS FOR THIS RUN
--------------------------------

Below you find a list of papers that are relevant to this ORCA run
We neither can nor want to force you to cite these papers, but we appreciate if you do
You receive ORCA, which is the product of decades of hard work by many enthusiastic individuals, for free
The only thing we kindly ask in return is that you cite our papers,
We deeply appreciate it, if you show your appreciation for ORCA by not just citing the generic ORCA reference.

Please note that relegating all ORCA citations to the supporting information does *not* help us.
SI sections are not indexed - citations you put there will not count into any citation statistics
But we need these citations in order to attract the funding resources that allow us to do what we are doing

Therefore, if you are a happy ORCA user, please consider citing a few of the papers listed below in the main body of your paper

In addition to the list printed below, the program has created the file xtb_opt.bibtex that contains the list in bibtex format
You can import this file easily into all common literature databanks and citation aid programs


List of essential papers. We consider these as the minimum necessary citations

  1. Neese,F.
     Software update: the ORCA program system, version 5.0
     WIRES Comput. Molec. Sci., 2022 12(1)e1606
     doi.org/10.1002/wcms.1606
  2. Grimme,S.; Hansen,A.; Ehlert,S.; Mewes,J.
     r2SCAN-3c: A 'Swiss army knife' composite electronic-structure method
     J. Chem. Phys., 2021 154 064103
     doi.org/10.1063/5.0040021

List of papers to cite with high priority. The work reported in these papers was absolutely
necessary for this run to complete.
Our perspective: the developers of density functionals and basis sets usually get cited in chemistry papers
Good! But without the algorithms to do something with them, the functionals or basis sets would not do anything.
Hence, in our opinion, the algorithm design and method developments papers are equally worthy of getting cited

  1. Neese,F.
     An improvement of the resolution of the identity approximation for the formation of the Coulomb matrix
     J. Comp. Chem., 2003 24(14)1740-1747
     doi.org/10.1002/jcc.10318
  2. Garcia-Rates,M.; Neese,F.
     Effect of the Solute Cavity on the Solvation Energy and its Derivatives within the Framework of the Gaussian Charge Scheme
     J. Comput. Chem., 2020 41 922-939
     doi.org/10.1002/jcc.26139
  3. Neese,F.
     The SHARK Integral Generation and Digestion System
     J. Comp. Chem., 2022  1-16
     doi.org/10.1002/jcc.26942
  4. Lehtola,S.; Steigemann,C.; Oliveira,M.; Marques,M.
     Recent developments in Libxc - A comprehensive library of functionals for density functional theory
     Software X, 2018 7 
     doi.org/10.1016/j.softx.2017.11.002
  5. Caldeweyher,E.; Bannwarth,C.; Grimme,S.
     Extension of the D3 dispersion coefficient model
     J. Chem. Phys., 2017 147 034112-XXXX
     doi.org/10.1063/1.4993215
  6. Caldeweyher,E.; Ehlert,S.; Hansen,A.; Neugebauer,H.; Spicher,S.; Bannwarth,C.; Grimme,S.
     A generally applicable atomic-charge dependent London dispersion correction
     J. Chem. Phys., 2019 150 154122-XXXX
     doi.org/10.1063/1.5090222
  7. Caldeweyher,E.; Mewes,J.; Ehlert,S.; Grimme,S.
     Extension and evaluation of the D4 London-dispersion model for periodic systems
     Phys. Chem. Chem. Phys., 2020 22(16)8499-8512
     doi.org/10.1039/D0CP00502A

List of suggested additional citations. These are papers that are important in the 'surrounding' of 
of this run, or papers that preceded the highly important papers. If you like your results we are grateful for a citation.

  1. Neese,F.
     The ORCA program system
     WIRES Comput. Molec. Sci., 2012 2(1)73-78
     doi.org/10.1002/wcms.81
  2. Neese,F.
     Software update: the ORCA program system, version 4.0
     WIRES Comput. Molec. Sci., 2018 8(1)1-6
     doi.org/10.1002/wcms.1327
  3. Neese,F.; Wennmohs,F.; Becker,U.; Riplinger,C.
     The ORCA quantum chemistry program package
     J. Chem. Phys., 2020 152 Art. No. L224108
     doi.org/10.1063/5.0004608

List of optional additional citations

  1. Neese,F.
     Approximate second-order SCF convergence for spin unrestricted wavefunctions
     Chem. Phys. Lett., 2000 325(1-3)93-98
     doi.org/10.1016/s0009-2614(00)00662-x

Timings for individual modules:

Sum of individual times          ...       29.309 sec (=   0.488 min)
Startup calculation              ...        1.267 sec (=   0.021 min)   4.3 %
SCF iterations                   ...       17.033 sec (=   0.284 min)  58.1 %
Property calculations            ...        0.122 sec (=   0.002 min)   0.4 %
SCF Gradient evaluation          ...       10.887 sec (=   0.181 min)  37.1 %
                             ****ORCA TERMINATED NORMALLY****
TOTAL RUN TIME: 0 days 0 hours 0 minutes 30 seconds 324 msec
  ------------------------------------------------------------------------
          * successful ORCA run, taking over control again...
av. E:   -386.2381920 ->   -386.2381920
av. G:      0.0013914 ->      0.0013914
 * total energy  :  -386.2381920 Eh     change       -0.3167291E-05 Eh
   gradient norm :     0.0006085 Eh/a0  converged?    E=T G=T D=F
   step length   :     0.0341582 a0

   *** GEOMETRY OPTIMIZATION CONVERGED AFTER 5 CYCLES ***

------------------------------------------------------------------------
 total energy gain   :        -0.0000325 Eh       -0.0204 kcal/mol
 total RMSD          :         0.0323456 a0        0.0171 Å
 total power (kW/mol):        -0.0170409 (step)   -0.0006 (real)
------------------------------------------------------------------------

 L-ANCopt (total)              0 d,  0 h,  2 min, 32.815 sec
 setup                          ...        0 min,  0.005 sec (  0.003%)
 model hessian                  ...        0 min,  0.036 sec (  0.024%)
 ANC generation                 ...        0 min,  0.015 sec (  0.010%)
 coordinate transformation      ...        0 min,  0.000 sec (  0.000%)
 Rational function              ...        0 min,  0.000 sec (  0.000%)
 singlepoint calculation        ...        2 min, 32.756 sec ( 99.962%)
 optimization log               ...        0 min,  0.001 sec (  0.001%)
 hessian update                 ...        0 min,  0.000 sec (  0.000%)

================
 final structure:
================
$coord
       -6.22791207243344       -1.57575887610776        0.79723003756122      C
       -3.61276736454862       -1.16629478183062       -0.34402646453024      C
       -2.83758537908398        1.61423251960156       -0.33632177274336      C
       -0.22154202417240        2.04398821749130       -1.50697443118956      C
        1.80979215363489        0.77726641183707        0.01995253081537      C
        2.11966587379608        1.07768292893260        2.28615763773707      O
        3.28604344671917       -0.75141172909616       -1.38551500068718      O
        5.30436264186605       -2.02890237503327       -0.03555399477984      C
       -7.66713432235055       -0.52552704625835       -0.25794038591474      H
       -6.75702301249882       -3.57517332998775        0.77215263394193      H
       -6.28732384942551       -0.92795005840674        2.76267293780009      H
       -2.21275199438505       -2.27701439569727        0.71410216434046      H
       -3.57589775179928       -1.87584964643216       -2.29271932679468      H
       -2.84811142600958        2.34359049328510        1.60316770419136      H
       -4.21784867530311        2.72617698114614       -1.40792099592422      H
        0.22453779453256        4.06828507620270       -1.51870459623793      H
       -0.16442469876258        1.36525224479592       -3.45655105809084      H
        6.26504080625418       -3.17515518963775       -1.44975524379350      H
        4.51790304848225       -3.22639695289927        1.45015903116284      H
        6.60407708771547       -0.64644415644124        0.77649298769936      H
$end
 
 Bond Distances (Angstroems)
 ---------------------------
C1-C2=1.5254         C1-H9=1.0958         C1-H10=1.0945        C1-H11=1.0956        C2-C1=1.5254         C2-C3=1.5275         
C2-H12=1.0990        C2-H13=1.0976        C3-C2=1.5275         C3-C4=1.5336         C3-H14=1.0965        C3-H15=1.0960        
C4-C3=1.5336         C4-C5=1.5026         C4-H16=1.0969        C4-H17=1.0928        C5-C4=1.5026         C5-O6=1.2208         
C5-O7=1.3483         O6-C5=1.2208         O7-C5=1.3483         O7-C8=1.4519         C8-O7=1.4519         C8-H18=1.0892        
C8-H19=1.0922        C8-H20=1.0922        H9-C1=1.0958         H10-C1=1.0945        H11-C1=1.0956        H12-C2=1.0990        
H13-C2=1.0976        H14-C3=1.0965        H15-C3=1.0960        H16-C4=1.0969        H17-C4=1.0928        H18-C8=1.0892        
H19-C8=1.0922        H20-C8=1.0922        
 C  H  Rav=1.0949 sigma=0.0027  Rmin=1.0892  Rmax=1.0990    12
 C  C  Rav=1.5223 sigma=0.0118  Rmin=1.5026  Rmax=1.5336     4
 O  C  Rav=1.3403 sigma=0.0945  Rmin=1.2208  Rmax=1.4519     3
 
 selected bond angles (degree)
 --------------------
H9-C1-C2=110.90                H10-C1-C2=111.38               H10-C1-H9=107.84               H11-C1-C2=110.94               
H11-C1-H9=107.77               H11-C1-H10=107.86              C3-C2-C1=112.30                H12-C2-C1=109.50               
H12-C2-C3=109.44               H13-C2-C1=109.85               H13-C2-C3=109.10               H13-C2-H12=106.48              
C4-C3-C2=112.59                H14-C3-C2=109.89               H14-C3-C4=109.30               H15-C3-C2=109.68               
H15-C3-C4=108.24               H15-C3-H14=106.97              C5-C4-C3=111.25                H16-C4-C3=109.96               
H16-C4-C5=106.54               H17-C4-C3=110.95               H17-C4-C5=109.95               H17-C4-H16=108.04              
O6-C5-C4=124.49                O7-C5-C4=112.68                O7-C5-O6=122.83                C8-O7-C5=115.73                
H18-C8-O7=105.34               H19-C8-O7=110.12               H19-C8-H18=110.45              H20-C8-O7=110.18               
H20-C8-H18=110.45              H20-C8-H19=110.20              
 
 selected dihedral angles (degree)
 ---------------------------------
C3-C2-C1-H9= 59.71            C3-C2-C1-H10=179.82           C3-C2-C1-H11=299.99           H12-C2-C1-H9=181.50           
H12-C2-C1-H10=301.61          H12-C2-C1-H11= 61.78          H13-C2-C1-H9=298.11           H13-C2-C1-H10= 58.22          
H13-C2-C1-H11=178.38          C4-C3-C2-C1=180.61            C4-C3-C2-H12= 58.78           C4-C3-C2-H13=302.64           
H14-C3-C2-C1= 58.53           H14-C3-C2-H12=296.70          H14-C3-C2-H13=180.55          H15-C3-C2-C1=301.20           
H15-C3-C2-H12=179.37          H15-C3-C2-H13= 63.23          C5-C4-C3-C2=295.87            C5-C4-C3-H14= 58.28           
C5-C4-C3-H15=174.45           H16-C4-C3-C2=178.07           H16-C4-C3-H14=300.49          H16-C4-C3-H15= 56.66          
H17-C4-C3-C2= 58.61           H17-C4-C3-H14=181.03          H17-C4-C3-H15=297.20          O6-C5-C4-C3=306.92            
O6-C5-C4-H16= 66.76           O6-C5-C4-H17=183.60           O7-C5-C4-C3=126.97            O7-C5-C4-H16=246.81           
O7-C5-C4-H17=  3.65           C8-O7-C5-C4=179.62            C8-O7-C5-O6=359.66            H18-C8-O7-C5=179.39           
H19-C8-O7-C5= 60.30           H20-C8-O7-C5=298.53           
           -------------------------------------------------
          |                Final Singlepoint                |
           -------------------------------------------------
                         * ORCA takes the control...
  ------------------------------------------------------------------------

                                 *****************
                                 * O   R   C   A *
                                 *****************

                                            #,                                       
                                            ###                                      
                                            ####                                     
                                            #####                                    
                                            ######                                   
                                           ########,                                 
                                     ,,################,,,,,                         
                               ,,#################################,,                 
                          ,,##########################################,,             
                       ,#########################################, ''#####,          
                    ,#############################################,,   '####,        
                  ,##################################################,,,,####,       
                ,###########''''           ''''###############################       
              ,#####''   ,,,,##########,,,,          '''####'''          '####       
            ,##' ,,,,###########################,,,                        '##       
           ' ,,###''''                  '''############,,,                           
         ,,##''                                '''############,,,,        ,,,,,,###''
      ,#''                                            '''#######################'''  
     '                                                          ''''####''''         
             ,#######,   #######,   ,#######,      ##                                
            ,#'     '#,  ##    ##  ,#'     '#,    #''#        ,####,   ,####,        
            ##       ##  ##   ,#'  ##            #'  '#       #'       #'  '#        
            ##       ##  #######   ##           ,######,      #####,   #    #        
            '#,     ,#'  ##    ##  '#,     ,#' ,#      #,     #,   #   #,  ,#        
             '#######'   ##     ##  '#######'  #'      '#     '####' # '####'        



                #########################################################
                #                        -***-                          #
                #          Department of theory and spectroscopy        #
                #                                                       #
                #                      Frank Neese                      #
                #                                                       #
                #     Directorship, Architecture, Infrastructure        #
                #                    SHARK, DRIVERS                     #
                #        Core code/Algorithms in most modules           #
                #                                                       #
                #        Max Planck Institute fuer Kohlenforschung      #
                #                Kaiser Wilhelm Platz 1                 #
                #                 D-45470 Muelheim/Ruhr                 #
                #                      Germany                          #
                #                                                       #
                #                  All rights reserved                  #
                #                        -***-                          #
                #########################################################


                         Program Version 6.0.0  -   RELEASE  -


 With contributions from (in alphabetic order):
   Daniel Aravena         : Magnetic Suceptibility
   Michael Atanasov       : Ab Initio Ligand Field Theory (pilot matlab implementation)
   Alexander A. Auer      : GIAO ZORA, VPT2 properties, NMR spectrum
   Ute Becker             : All parallelization in ORCA, NUMFREQ, NUMCALC
   Giovanni Bistoni       : ED, misc. LED, open-shell LED, HFLD
   Martin Brehm           : Molecular dynamics
   Dmytro Bykov           : pre 5.0 version of the SCF Hessian
   Marcos Casanova-Páez   : Triplet and SCS-CIS(D). UHF-(DLPNO)-IP/EA/STEOM-CCSD. UHF-CVS-IP/STEOM-CCSD
   Vijay G. Chilkuri      : MRCI spin determinant printing, contributions to CSF-ICE
   Pauline Colinet        : FMM embedding
   Dipayan Datta          : RHF DLPNO-CCSD density
   Achintya Kumar Dutta   : EOM-CC, STEOM-CC
   Nicolas Foglia         : Exact transition moments, OPA infrastructure, MCD improvements
   Dmitry Ganyushin       : Spin-Orbit,Spin-Spin,Magnetic field MRCI
   Miquel Garcia          : C-PCM and meta-GGA Hessian, CCSD/C-PCM, Gaussian charge scheme
   Tiago L. C. Gouveia    : GS-ROHF, GS-ROCIS
   Yang Guo               : DLPNO-NEVPT2, F12-NEVPT2, CIM, IAO-localization
   Andreas Hansen         : Spin unrestricted coupled pair/coupled cluster methods
   Ingolf Harden          : AUTO-CI MPn and infrastructure 
   Benjamin Helmich-Paris : MC-RPA, TRAH-(SCF,CASSCF), AVAS, COSX integrals, SCF dyn. polar.
   Lee Huntington         : MR-EOM, pCC
   Robert Izsak           : Overlap fitted RIJCOSX, COSX-SCS-MP3, EOM
   Riya Kayal             : Wick's Theorem for AUTO-CI, AUTO-CI UHF-CCSDT
   Emily Kempfer          : AUTO-CI, RHF CISDT and CCSDT
   Christian Kollmar      : KDIIS, OOCD, Brueckner-CCSD(T), CCSD density, CASPT2, CASPT2-K, improved NEVPT2
   Axel Koslowski         : Symmetry handling
   Simone Kossmann        : Meta GGA functionals, TD-DFT gradient, OOMP2, (MP2 Hessian; deprecated post 5.0)
   Lucas Lang             : DCDCAS
   Marvin Lechner         : AUTO-CI (C++ implementation), FIC-MRCC
   Spencer Leger          : CASSCF response
   Dagmar Lenk            : GEPOL surface, SMD, ORCA-2-JSON
   Dimitrios Liakos       : Extrapolation schemes; Compound Job, initial MDCI parallelization
   Dimitrios Manganas     : Further ROCIS development; embedding schemes. LFT, Crystal Embedding
   Dimitrios Pantazis     : SARC Basis sets
   Anastasios Papadopoulos: AUTO-CI, single reference methods and gradients
   Taras Petrenko         : pre 6.0 DFT Hessian and TD-DFT gradient, (ASA, deprecated), ECA, 1-Electron XAS/XES, NRVS
   Peter Pinski           : DLPNO-MP2, DLPNO-MP2 Gradient
   Christoph Reimann      : Effective Core Potentials
   Marius Retegan         : Local ZFS, SOC
   Christoph Riplinger    : Optimizer, TS searches, QM/MM, DLPNO-CCSD(T), (RO)-DLPNO pert. Triples
   Michael Roemelt        : Original ROCIS implementation
   Masaaki Saitow         : Open-shell DLPNO-CCSD energy and density
   Barbara Sandhoefer     : DKH picture change effects
   Kantharuban Sivalingam : CASSCF convergence/infrastructure, NEVPT2 and variants, FIC-MRCI
   Bernardo de Souza      : ESD, SOC TD-DFT
   Georgi Stoychev        : AutoAux, RI-MP2 NMR, DLPNO-MP2 response, X2C
   Van Anh Tran           : RI-MP2 g-tensors
   Willem Van den Heuvel  : Paramagnetic NMR
   Zikuan Wang            : NOTCH, Electric field optimization 
   Frank Wennmohs         : Technical directorship and infrastructure
   Hang Xu                : AUTO-CI-Response properties 


 We gratefully acknowledge several colleagues who have allowed us to
 interface, adapt or use parts of their codes:
   Stefan Grimme, W. Hujo, H. Kruse, P. Pracht,  : VdW corrections, initial TS optimization,
                  C. Bannwarth, S. Ehlert,         DFT functionals, gCP, sTDA/sTD-DF
                  L. Wittmann, M. Mueller
   Ed Valeev, F. Pavosevic, A. Kumar             : LibInt (2-el integral package), F12 methods
   Garnet Chan, S. Sharma, J. Yang, R. Olivares  : DMRG
   Ulf Ekstrom                                   : XCFun DFT Library
   Mihaly Kallay                                 : mrcc  (arbitrary order and MRCC methods)
   Frank Weinhold                                : gennbo (NPA and NBO analysis)
   Simon Mueller                                 : openCOSMO-RS
   Christopher J. Cramer and Donald G. Truhlar   : smd solvation model
   Lars Goerigk                                  : TD-DFT with DH, B97 family of functionals
   V. Asgeirsson, H. Jonsson                     : NEB implementation
   FAccTs GmbH                                   : IRC, NEB, NEB-TS, DLPNO-Multilevel, CI-OPT
                                                   MM, QMMM, 2- and 3-layer-ONIOM, Crystal-QMMM,
                                                   LR-CPCM, SF, NACMEs, symmetry and pop. for TD-DFT,
                                                   nearIR, NL-DFT gradient (VV10), updates on ESD,
                                                   ML-optimized integration grids, MBIS, APM,
                                                   GOAT, DOCKER, SOLVATOR, interface openCOSMO-RS
   S Lehtola, MJT Oliveira, MAL Marques          : LibXC Library
   Liviu Ungur et al                             : ANISO software


 Your calculation uses the libint2 library for the computation of 2-el integrals
 For citations please refer to: http://libint.valeyev.net

 Your ORCA version has been built with support for libXC version: 6.2.2
 For citations please refer to: https://libxc.gitlab.io

 This ORCA versions uses:
   CBLAS   interface :  Fast vector & matrix operations
   LAPACKE interface :  Fast linear algebra routines
   SCALAPACK package :  Parallel linear algebra routines
   Shared memory     :  Shared parallel matrices
   BLAS/LAPACK       :  OpenBLAS 0.3.27  USE64BITINT DYNAMIC_ARCH NO_AFFINITY SkylakeX SINGLE_THREADED
        Core in use  :  SkylakeX
   Copyright (c) 2011-2014, The OpenBLAS Project




***************************************
The coordinates will be read from file: xtb_opt.xyz
***************************************


Your calculation utilizes the geometrical counterpoise correction gCP
Please cite in your paper:
H.Kruse, S. Grimme J.Chem.Phys., 136, (2012), 154101 
   

Your calculation utilizes the atom-pairwise dispersion correction
based on EEQ partial charges (D4)


Your calculation utilizes the SMD solvation module
Please cite in your paper:
A.V. Marenich, C.J. Cramer, D.G. Truhlar J. Phys. Chem. B, 113, (2009), 6378 

================================================================================

----- Orbital basis set information -----
Your calculation utilizes the basis: def2-mTZVPP
   Stefan Grimme, Andreas Hansen, Sebastian Ehlert, and Jan-Michael Mewes 
   J. Chem. Phys. 154, 064103 (2021). DOI: 10.1063/5.0040021

----- AuxJ basis set information -----
Your calculation utilizes the auxiliary basis: def2/J
   F. Weigend, Phys. Chem. Chem. Phys. 8, 1057 (2006).

================================================================================
                                        WARNINGS
                       Please study these warnings very carefully!
================================================================================

WARNING: Old DensityContainer found on disk!
         Will remove this file - 
         If you want to keep old densities, please start your calculation with a different basename. 

Using LibXC functional ID 497 : Re-regularized SCAN exchange by Furness et al
[ 1]  J. W. Furness, A. D. Kaplan, J. Ning, J. P. Perdew, and J. Sun.,  J. Phys. Chem. Lett. 11, 8208-8215 (2020)
[ 2]  J. W. Furness, A. D. Kaplan, J. Ning, J. P. Perdew, and J. Sun.,  J. Phys. Chem. Lett. 11, 9248-9248 (2020)
Using LibXC functional ID 498 : Re-regularized SCAN correlation by Furness et al
[ 1]  J. W. Furness, A. D. Kaplan, J. Ning, J. P. Perdew, and J. Sun.,  J. Phys. Chem. Lett. 11, 8208-8215 (2020)
[ 2]  J. W. Furness, A. D. Kaplan, J. Ning, J. P. Perdew, and J. Sun.,  J. Phys. Chem. Lett. 11, 9248-9248 (2020)
Using LibXC functional ID 497 : Re-regularized SCAN exchange by Furness et al
[ 1]  J. W. Furness, A. D. Kaplan, J. Ning, J. P. Perdew, and J. Sun.,  J. Phys. Chem. Lett. 11, 8208-8215 (2020)
[ 2]  J. W. Furness, A. D. Kaplan, J. Ning, J. P. Perdew, and J. Sun.,  J. Phys. Chem. Lett. 11, 9248-9248 (2020)
Using LibXC functional ID 498 : Re-regularized SCAN correlation by Furness et al
[ 1]  J. W. Furness, A. D. Kaplan, J. Ning, J. P. Perdew, and J. Sun.,  J. Phys. Chem. Lett. 11, 8208-8215 (2020)
[ 2]  J. W. Furness, A. D. Kaplan, J. Ning, J. P. Perdew, and J. Sun.,  J. Phys. Chem. Lett. 11, 9248-9248 (2020)

================================================================================
                                       INPUT FILE
================================================================================
NAME = xtb_opt.inp
|  1> ! r2scan-3c def2/J RI DEFGRID2 scfconv7 ENGRAD tightSCF miniprint
|  2> %cpcm
|  3>     smd true
|  4>     smdsolvent "water"
|  5> end
|  6> * xyzfile 0 1 xtb_opt.xyz
|  7> 
|  8>                          ****END OF INPUT****
================================================================================

                     *******************************
                     * Energy+Gradient Calculation *
                     *******************************

---------------------------------
CARTESIAN COORDINATES (ANGSTROEM)
---------------------------------
  C     -3.295669   -0.833856    0.421876
  C     -1.911794   -0.617177   -0.182051
  C     -1.501586    0.854215   -0.177974
  C     -0.117235    1.081632   -0.797457
  C      0.957701    0.411312    0.010558
  O      1.121679    0.570285    1.209783
  O      1.738899   -0.397630   -0.733183
  C      2.806948   -1.073649   -0.018814
  H     -4.057273   -0.278097   -0.136496
  H     -3.575663   -1.891900    0.408606
  H     -3.327108   -0.491050    1.461944
  H     -1.170938   -1.204944    0.377887
  H     -1.892284   -0.992657   -1.213255
  H     -1.507156    1.240175    0.848360
  H     -2.231989    1.442631   -0.745040
  H      0.118820    2.152844   -0.803664
  H     -0.087010    0.722460   -1.829128
  H      3.315317   -1.680220   -0.767177
  H      2.390771   -1.707336    0.767391
  H      3.494727   -0.342084    0.410902

----------------------------
CARTESIAN COORDINATES (A.U.)
----------------------------
  NO LB      ZA    FRAG     MASS         X           Y           Z
   0 C     6.0000    0    12.011   -6.227912   -1.575759    0.797230
   1 C     6.0000    0    12.011   -3.612767   -1.166295   -0.344026
   2 C     6.0000    0    12.011   -2.837585    1.614233   -0.336322
   3 C     6.0000    0    12.011   -0.221542    2.043988   -1.506974
   4 C     6.0000    0    12.011    1.809792    0.777266    0.019953
   5 O     8.0000    0    15.999    2.119666    1.077683    2.286158
   6 O     8.0000    0    15.999    3.286043   -0.751412   -1.385515
   7 C     6.0000    0    12.011    5.304363   -2.028902   -0.035554
   8 H     1.0000    0     1.008   -7.667134   -0.525527   -0.257940
   9 H     1.0000    0     1.008   -6.757023   -3.575173    0.772153
  10 H     1.0000    0     1.008   -6.287324   -0.927950    2.762673
  11 H     1.0000    0     1.008   -2.212752   -2.277014    0.714102
  12 H     1.0000    0     1.008   -3.575898   -1.875850   -2.292719
  13 H     1.0000    0     1.008   -2.848111    2.343591    1.603168
  14 H     1.0000    0     1.008   -4.217849    2.726177   -1.407921
  15 H     1.0000    0     1.008    0.224538    4.068285   -1.518705
  16 H     1.0000    0     1.008   -0.164425    1.365252   -3.456551
  17 H     1.0000    0     1.008    6.265041   -3.175155   -1.449755
  18 H     1.0000    0     1.008    4.517903   -3.226397    1.450159
  19 H     1.0000    0     1.008    6.604077   -0.646444    0.776493

------------------------------------------------------------------------------
                   ___                                                        
                  /   \      - P O W E R E D   B Y -                         
                 /     \                                                     
                 |  |  |   _    _      __       _____    __    __             
                 |  |  |  | |  | |    /  \     |  _  \  |  |  /  |          
                  \  \/   | |  | |   /    \    | | | |  |  | /  /          
                 / \  \   | |__| |  /  /\  \   | |_| |  |  |/  /          
                |  |  |   |  __  | /  /__\  \  |    /   |      \           
                |  |  |   | |  | | |   __   |  |    \   |  |\   \          
                \     /   | |  | | |  |  |  |  | |\  \  |  | \   \       
                 \___/    |_|  |_| |__|  |__|  |_| \__\ |__|  \__/        
                                                                              
                      - O R C A' S   B I G   F R I E N D -                    
                                      &                                       
                       - I N T E G R A L  F E E D E R -                       
                                                                              
 v1 FN, 2020, v2 2021, v3 2022-2024                                           
------------------------------------------------------------------------------


----------------------
SHARK INTEGRAL PACKAGE
----------------------

Number of atoms                             ...     20
Number of basis functions                   ...    222
Number of shells                            ...    110
Maximum angular momentum                    ...      2
Integral batch strategy                     ... SHARK/LIBINT Hybrid
RI-J (if used) integral strategy            ... SPLIT-RIJ (Revised 2003 algorithm where possible)
Printlevel                                  ...      1
Contraction scheme used                     ... SEGMENTED contraction
Prescreening option                         ... SCHWARTZ
   Thresh                                   ... 3.000e-11
   Tcut                                     ... 1.000e-12
   Tpresel                                  ... 1.000e-12 
Coulomb Range Separation                    ... NOT USED
Exchange Range Separation                   ... NOT USED
Multipole approximations                    ... NOT USED
Finite Nucleus Model                        ... NOT USED
CABS basis                                  ... NOT available
Auxiliary Coulomb fitting basis             ... AVAILABLE
   # of basis functions in Aux-J            ...    524
   # of shells in Aux-J                     ...    180
   Maximum angular momentum in Aux-J        ...      4
Auxiliary J/K fitting basis                 ... NOT available
Auxiliary Correlation fitting basis         ... NOT available
Auxiliary 'external' fitting basis          ... NOT available

Checking pre-screening integrals            ... done (  0.0 sec) Dimension = 110
Check shell pair data                       ... done (  0.0 sec)
Shell pair information
Shell pair cut-off parameter TPreSel        ...   1.0e-12
Total number of shell pairs                 ...      6105
Shell pairs after pre-screening             ...      5355
Total number of primitive shell pairs       ...     21533
Primitive shell pairs kept                  ...     13474
          la=0 lb=0:   1796 shell pairs
          la=1 lb=0:   2021 shell pairs
          la=1 lb=1:    588 shell pairs
          la=2 lb=0:    571 shell pairs
          la=2 lb=1:    327 shell pairs
          la=2 lb=2:     52 shell pairs

Calculating one electron integrals          ... done (  0.0 sec)
Calculating RI/J V-Matrix + Cholesky decomp.... done (  0.1 sec)
Calculating Nuclear repulsion               ... done (  0.0 sec) ENN=    389.458384532965 Eh

Diagonalization of the overlap matrix:
Smallest eigenvalue                        ... 1.466e-04
Time for diagonalization                   ...    0.005 sec
Threshold for overlap eigenvalues          ... 1.000e-07
Number of eigenvalues below threshold      ... 0
Time for construction of square roots      ...    0.015 sec
Total time needed                          ...    0.029 sec

-------------------
DFT GRID GENERATION
-------------------

General Integration Accuracy     IntAcc      ... 4.388
Radial Grid Type                 RadialGrid  ... OptM3 with GC (2021)
Angular Grid (max. ang.)         AngularGrid ... 4 (Lebedev-302)
Angular grid pruning method      GridPruning ... 4 (adaptive)
Weight generation scheme         WeightScheme... mBecke (2022)
Basis function cutoff            BFCut       ... 1.0000e-11
Integration weight cutoff        WCut        ... 1.0000e-14
Partially contracted basis set               ... off
Rotationally invariant grid construction     ... off
Angular grids for H and He will be reduced by one unit
Diffuse basis detected: some atoms will have their outermost
                        angular grid increased by 1.

Total number of grid points                  ...    87378
Total number of batches                      ...     1377
Average number of points per batch           ...       63
Average number of grid points per atom       ...     4369
Initializing property integral containers    ... done (  0.0 sec)

SHARK setup successfully completed in   1.4 seconds

Maximum memory used throughout the entire STARTUP-calculation: 39.5 MB
Occupation numbers will be reassigned to an Aufbau configuration
             **** ENERGY FILE WAS UPDATED (xtb_opt.en.tmp) ****
Finished Guess after   0.4 sec
Maximum memory used throughout the entire GUESS-calculation: 15.1 MB
--------------------
CPCM SOLVATION MODEL
--------------------
CPCM parameters:
  Epsilon                                         ...      78.3550
  Refrac                                          ...       1.3328
  Rsolv                                           ...       1.3000
  Surface type                                    ... GAUSSIAN VDW
  Discretization scheme                           ... Constant charge density
    Threshold for H atoms                         ...       5.0000 (charges/Ang^2)
    Threshold for non-H atoms                     ...       5.0000 (charges/Ang^2)
  Epsilon function type                           ...         CPCM
Solvent:                                          ... WATER
SMD-CDS solvent descriptors:
  Soln                                            ...       1.3328
  Soln25                                          ...       1.3323
  Sola                                            ...       0.0000
  Solb                                            ...       0.0000
  Solg                                            ...       0.0000
  Solc                                            ...       0.0000
  Solh                                            ...       0.0000
Radii:
  Scheme                                          ... Element-dependent radii
  Radius for C  used is    3.4960 Bohr (=   1.8500 Ang.)
  Radius for O  used is    2.8724 Bohr (=   1.5200 Ang.)
  Radius for H  used is    2.2677 Bohr (=   1.2000 Ang.)
Calculating surface                               ...        done! (  0.0s)
Cavity surface points                             ...         1499
Cavity Volume                                     ...     882.9857
Cavity Surface-area                               ...     589.1638
Calculating surface distance matrix               ...        done! (  0.0s)
Performing Cholesky decomposition & store         ...        done! (  0.1s)
Overall time for CPCM initialization              ...                 0.1s

----------------------------------------D-I-I-S--------------------------------------------
Iteration    Energy (Eh)           Delta-E    RMSDP     MaxDP     DIISErr   Damp  Time(sec)
-------------------------------------------------------------------------------------------
               ***  Starting incremental Fock matrix formation  ***
                              *** Initializing SOSCF ***
---------------------------------------S-O-S-C-F--------------------------------------
Iteration    Energy (Eh)           Delta-E    RMSDP     MaxDP     MaxGrad    Time(sec)
--------------------------------------------------------------------------------------
    1    -386.2529818925113432     0.00e+00  1.65e-06  5.17e-05  3.98e-06     3.6
               *** Restarting incremental Fock matrix formation ***
    2    -386.2529818974358022    -4.92e-09  1.85e-06  5.33e-05  1.35e-05     3.6
                  *** Gradient check signals convergence ***

               *****************************************************
               *                     SUCCESS                       *
               *           SCF CONVERGED AFTER   2 CYCLES          *
               *****************************************************


SMD CDS free energy correction energy :                 5.14634     Kcal/mol
Total Energy after SMD CDS correction =              -386.244780690 Eh
             **** ENERGY FILE WAS UPDATED (xtb_opt.en.tmp) ****

----------------
TOTAL SCF ENERGY
----------------

Total Energy       :       -386.24478069043062 Eh          -10510.25481 eV

Components:
Nuclear Repulsion  :        389.45838453296540 Eh           10597.70142 eV
Electronic Energy  :       -775.69504940799038 Eh          -21107.73539 eV
One Electron Energy:      -1296.39830060681584 Eh          -35276.79120 eV
Two Electron Energy:        520.70325119882546 Eh           14169.05581 eV
CPCM Dielectric    :         -0.01631702241081 Eh              -0.44401 eV
SMD CDS (Gcds)     :          0.00820120700520 Eh               0.22317 eV

Virial components:
Potential Energy   :       -770.68666853615707 Eh          -20971.45042 eV
Kinetic Energy     :        384.44188784572646 Eh           10461.19561 eV
Virial Ratio       :          2.00468963685203

DFT components:
N(Alpha)           :       32.000038177199 electrons
N(Beta)            :       32.000038177199 electrons
N(Total)           :       64.000076354398 electrons
E(X)               :      -52.033979365053 Eh       
E(C)               :       -2.035304677053 Eh       
E(XC)              :      -54.069284042107 Eh       

CPCM Solvation Model Properties:
Surface-charge          :         -0.04729034325617
Corrected charge        :          0.00000000000000
Outlying charge corr.   :          0.00016817740044 Eh               0.00458 eV
Free-energy (cav+disp)  :          0.00820120700520 Eh               0.22317 eV

---------------
SCF CONVERGENCE
---------------

  Last Energy change         ...    4.9245e-09  Tolerance :   1.0000e-07
  Last MAX-Density change    ...    5.3310e-05  Tolerance :   1.0000e-07
  Last RMS-Density change    ...    1.8508e-06  Tolerance :   5.0000e-09
  Last DIIS Error            ...    5.8130e-05  Tolerance :   1.0000e-07
  Last Orbital Gradient      ...    1.3484e-05  Tolerance :   1.0000e-04
  Last Orbital Rotation      ...    2.0871e-05  Tolerance :   1.0000e-04


----------------
ORBITAL ENERGIES
----------------

  NO   OCC          E(Eh)            E(eV) 
   0   2.0000     -19.005907      -517.1770 
   1   2.0000     -18.946315      -515.5554 
   2   2.0000     -10.165238      -276.6102 
   3   2.0000     -10.077826      -274.2316 
   4   2.0000     -10.038538      -273.1625 
   5   2.0000     -10.028144      -272.8797 
   6   2.0000     -10.021893      -272.7096 
   7   2.0000     -10.012131      -272.4439 
   8   2.0000      -1.071399       -29.1543 
   9   2.0000      -0.985181       -26.8081 
  10   2.0000      -0.771383       -20.9904 
  11   2.0000      -0.718774       -19.5588 
  12   2.0000      -0.677421       -18.4336 
  13   2.0000      -0.609694       -16.5906 
  14   2.0000      -0.551830       -15.0161 
  15   2.0000      -0.522010       -14.2046 
  16   2.0000      -0.473173       -12.8757 
  17   2.0000      -0.454738       -12.3740 
  18   2.0000      -0.448128       -12.1942 
  19   2.0000      -0.422088       -11.4856 
  20   2.0000      -0.403083       -10.9684 
  21   2.0000      -0.388913       -10.5829 
  22   2.0000      -0.383937       -10.4475 
  23   2.0000      -0.353306        -9.6139 
  24   2.0000      -0.342148        -9.3103 
  25   2.0000      -0.329804        -8.9744 
  26   2.0000      -0.324356        -8.8262 
  27   2.0000      -0.303582        -8.2609 
  28   2.0000      -0.290755        -7.9118 
  29   2.0000      -0.289775        -7.8852 
  30   2.0000      -0.282990        -7.7006 
  31   2.0000      -0.254181        -6.9166 
  32   0.0000      -0.028592        -0.7780 
  33   0.0000       0.065456         1.7812 
  34   0.0000       0.093632         2.5479 
  35   0.0000       0.115117         3.1325 
  36   0.0000       0.122966         3.3461 
  37   0.0000       0.137629         3.7451 
  38   0.0000       0.142481         3.8771 
  39   0.0000       0.148885         4.0514 
  40   0.0000       0.152097         4.1388 
  41   0.0000       0.166795         4.5387 
  42   0.0000       0.170047         4.6272 
*Only the first 10 virtual orbitals were printed.
Total SCF time: 0 days 0 hours 0 min 7 sec 
Finished LeanSCF after   8.0 sec

Maximum memory used throughout the entire LEANSCF-calculation: 30.5 MB


-------------------------------------------------------------------------------
                          DFT DISPERSION CORRECTION                            
                                                                               
                                DFTD4 V3.4.0                                   
-------------------------------------------------------------------------------
-------------------------   ----------------
Dispersion correction           -0.005099920
-------------------------   ----------------

------------------   -----------------
gCP correction             0.011688573
------------------   -----------------

-------------------------   --------------------
FINAL SINGLE POINT ENERGY      -386.238192037068
-------------------------   --------------------

------------------------------------------------------------------------------
                         ORCA SCF GRADIENT CALCULATION
------------------------------------------------------------------------------

Nuc. rep. gradient        (SHARK) ... done (  0.0 sec)
HCore & Overlap gradient  (SHARK) ... done (  0.3 sec)
Split-RIJ-J gradient      (SHARK) ... done (  1.7 sec)
XC gradient                       ... done (  6.9 sec)
CPCM gradient                     ... done (  1.0 sec)
SMD gradient                      ... done (  0.0 sec)
Dispersion correction             ... done (  0.0 sec)

-------------------
DISPERSION GRADIENT
-------------------

   1   C   :   -0.000083605   -0.000035726    0.000019447
   2   C   :   -0.000069283   -0.000029890   -0.000007131
   3   C   :   -0.000042916    0.000042872   -0.000007133
   4   C   :    0.000002140    0.000061421   -0.000039519
   5   C   :    0.000064599    0.000019562    0.000002781
   6   O   :    0.000057966    0.000029863    0.000060471
   7   O   :    0.000078423   -0.000017928   -0.000018124
   8   C   :    0.000081590   -0.000037595    0.000010091
   9   H   :   -0.000029429   -0.000011169    0.000003827
  10   H   :   -0.000024960   -0.000020390    0.000006350
  11   H   :   -0.000031530   -0.000013540    0.000015409
  12   H   :   -0.000031398   -0.000017913    0.000007198
  13   H   :   -0.000032798   -0.000018060   -0.000014971
  14   H   :   -0.000011393    0.000019640    0.000009739
  15   H   :   -0.000019201    0.000020879   -0.000011080
  16   H   :    0.000005146    0.000035554   -0.000010988
  17   H   :    0.000003609    0.000018946   -0.000029782
  18   H   :    0.000025411   -0.000017092   -0.000004193
  19   H   :    0.000033694   -0.000017750    0.000005274
  20   H   :    0.000023934   -0.000011684    0.000002335

Difference to translation invariance:
           :   -0.0000000000    0.0000000000    0.0000000000

Difference to rotation invariance:
           :   -0.0000000000    0.0000000000   -0.0000000000

Norm of the Dispersion gradient    ...    0.0002544464
RMS gradient                       ...    0.0000328489
MAX gradient                       ...    0.0000836047
gCP correction                   ... done

------------------
CARTESIAN GRADIENT
------------------

   1   C   :   -0.000079264   -0.000021795    0.000019801
   2   C   :    0.000023569   -0.000065893   -0.000056343
   3   C   :   -0.000082531    0.000043321    0.000076295
   4   C   :   -0.000006356   -0.000007445   -0.000011352
   5   C   :   -0.000071601    0.000081148    0.000036159
   6   O   :   -0.000060857    0.000121434    0.000189225
   7   O   :    0.000211869   -0.000243780   -0.000110968
   8   C   :    0.000081903   -0.000029902    0.000165933
   9   H   :    0.000013184   -0.000011366   -0.000013373
  10   H   :    0.000022234    0.000013158   -0.000023857
  11   H   :    0.000005811   -0.000010162   -0.000043501
  12   H   :    0.000019911   -0.000017983    0.000014865
  13   H   :    0.000019403    0.000005877   -0.000006883
  14   H   :    0.000018231   -0.000018338   -0.000012400
  15   H   :   -0.000025260    0.000020139    0.000028373
  16   H   :   -0.000000988    0.000125711    0.000019053
  17   H   :    0.000004358    0.000021593   -0.000055805
  18   H   :   -0.000031364    0.000023663    0.000057883
  19   H   :    0.000042910    0.000110192   -0.000150618
  20   H   :   -0.000105163   -0.000139571   -0.000122488

Difference to translation invariance:
           :   -0.0000000000   -0.0000000000   -0.0000000000

Difference to rotation invariance:
           :    0.0003834188   -0.0005737704    0.0001583551

Norm of the Cartesian gradient     ...    0.0006030660
RMS gradient                       ...    0.0000778555
MAX gradient                       ...    0.0002437804

-------
TIMINGS
-------

Total SCF gradient time     ....       10.751 sec

Densities                   ....       0.001 sec  (  0.0%)
One electron gradient       ....       0.329 sec  (  3.1%)
RI-J Coulomb gradient       ....       1.695 sec  ( 15.8%)
XC gradient                 ....       6.896 sec  ( 64.1%)
CPCM gradient               ....       0.976 sec  (  9.1%)
   A-Matrix (El+Nuc)        ....       0.081 sec  (  0.8%)
   Potential                ....       0.895 sec  (  8.3%)
SMD gradient                ....       0.013 sec  (  0.1%)

Maximum memory used throughout the entire SCFGRAD-calculation: 35.4 MB

------------------------------------------------------------------------------
                              ORCA PROPERTY CALCULATIONS
------------------------------------------------------------------------------

GBWName                                 ... xtb_opt.gbw
Number of atoms                         ...     20
Number of basis functions               ...    222
Max core memory                         ...   1024 MB

Electric properties:
Dipole moment                           ... YES
Quadrupole moment                       ...  NO
Static polarizability (Dipole/Dipole)   ...  NO
Static polarizability (Dipole/Quad.)    ...  NO
Static polarizability (Quad./Quad.)     ...  NO
Static polarizability (Velocity)        ...  NO

Atomic electric properties:
Dipole moment                           ...  NO
Quadrupole moment                       ...  NO
Static polarizability                   ...  NO

Choice of electric origin               ... Center of mass
Position of electric origin             ...     0.006427    -0.039440    -0.041302

General magnetic properties:
Magnetizability                         ...  NO

EPR properties:
g-Tensor (aka g-matrix)                 ...  NO
Zero-Field splitting spin-orbit         ...  NO
Zero-field splitting spin-spin          ...  NO
Hyperfine couplings                     ...  NO (   0 nuclei)
Quadrupole couplings                    ...  NO (   0 nuclei)
Contact density                         ...  NO (   0 nuclei)

NMR properties:
Chemical shifts                         ...  NO (   0 nuclei)
Spin-rotation constants                 ...  NO (   0 nuclei)
Spin-spin couplings                     ...  NO (   0 nuclei,    0 pairs)

Choice of magnetic origin               ... GIAO
Position of magnetic origin             ...     0.000000     0.000000     0.000000

Properties with geometric perturbations:
SCF Hessian                             ...  NO
IR spectrum                             ...  NO
VCD spectrum                            ...  NO
X-ray spectroscopy properties:
SCF XES/XAS/RIXS spectra                ...  NO


-------------
DIPOLE MOMENT
-------------

Method             : SCF
Type of density    : Electron Density
Multiplicity       :   1
Irrep              :   0
Energy             :  -386.2447806904306162 Eh
Relativity type    : 
Basis              : AO
                                X                 Y                 Z
Electronic contribution:      8.030821535       2.260792710      -0.087048667
Nuclear contribution   :     -7.998527002      -2.604706741      -0.890510532
                        -----------------------------------------
Total Dipole Moment    :      0.032294534      -0.343914031      -0.977559199
                        -----------------------------------------
Magnitude (a.u.)       :      1.036793994
Magnitude (Debye)      :      2.635320899



--------------------
Rotational spectrum 
--------------------
 
Rotational constants in cm-1:             0.126489             0.033007             0.031280 
Rotational constants in MHz :          3792.040821           989.537657           937.736668 

Dipole components along the rotational axes: 
x,y,z [a.u.] :    -0.061123     0.228946     1.009351 
x,y,z [Debye]:    -0.155361     0.581935     2.565566 

 

Dipole moment calculation done in   0.0 sec 

Maximum memory used throughout the entire PROP-calculation: 13.9 MB

--------------------------------
SUGGESTED CITATIONS FOR THIS RUN
--------------------------------

Below you find a list of papers that are relevant to this ORCA run
We neither can nor want to force you to cite these papers, but we appreciate if you do
You receive ORCA, which is the product of decades of hard work by many enthusiastic individuals, for free
The only thing we kindly ask in return is that you cite our papers,
We deeply appreciate it, if you show your appreciation for ORCA by not just citing the generic ORCA reference.

Please note that relegating all ORCA citations to the supporting information does *not* help us.
SI sections are not indexed - citations you put there will not count into any citation statistics
But we need these citations in order to attract the funding resources that allow us to do what we are doing

Therefore, if you are a happy ORCA user, please consider citing a few of the papers listed below in the main body of your paper

In addition to the list printed below, the program has created the file xtb_opt.bibtex that contains the list in bibtex format
You can import this file easily into all common literature databanks and citation aid programs


List of essential papers. We consider these as the minimum necessary citations

  1. Neese,F.
     Software update: the ORCA program system, version 5.0
     WIRES Comput. Molec. Sci., 2022 12(1)e1606
     doi.org/10.1002/wcms.1606
  2. Grimme,S.; Hansen,A.; Ehlert,S.; Mewes,J.
     r2SCAN-3c: A 'Swiss army knife' composite electronic-structure method
     J. Chem. Phys., 2021 154 064103
     doi.org/10.1063/5.0040021

List of papers to cite with high priority. The work reported in these papers was absolutely
necessary for this run to complete.
Our perspective: the developers of density functionals and basis sets usually get cited in chemistry papers
Good! But without the algorithms to do something with them, the functionals or basis sets would not do anything.
Hence, in our opinion, the algorithm design and method developments papers are equally worthy of getting cited

  1. Neese,F.
     An improvement of the resolution of the identity approximation for the formation of the Coulomb matrix
     J. Comp. Chem., 2003 24(14)1740-1747
     doi.org/10.1002/jcc.10318
  2. Garcia-Rates,M.; Neese,F.
     Effect of the Solute Cavity on the Solvation Energy and its Derivatives within the Framework of the Gaussian Charge Scheme
     J. Comput. Chem., 2020 41 922-939
     doi.org/10.1002/jcc.26139
  3. Neese,F.
     The SHARK Integral Generation and Digestion System
     J. Comp. Chem., 2022  1-16
     doi.org/10.1002/jcc.26942
  4. Lehtola,S.; Steigemann,C.; Oliveira,M.; Marques,M.
     Recent developments in Libxc - A comprehensive library of functionals for density functional theory
     Software X, 2018 7 
     doi.org/10.1016/j.softx.2017.11.002
  5. Caldeweyher,E.; Bannwarth,C.; Grimme,S.
     Extension of the D3 dispersion coefficient model
     J. Chem. Phys., 2017 147 034112-XXXX
     doi.org/10.1063/1.4993215
  6. Caldeweyher,E.; Ehlert,S.; Hansen,A.; Neugebauer,H.; Spicher,S.; Bannwarth,C.; Grimme,S.
     A generally applicable atomic-charge dependent London dispersion correction
     J. Chem. Phys., 2019 150 154122-XXXX
     doi.org/10.1063/1.5090222
  7. Caldeweyher,E.; Mewes,J.; Ehlert,S.; Grimme,S.
     Extension and evaluation of the D4 London-dispersion model for periodic systems
     Phys. Chem. Chem. Phys., 2020 22(16)8499-8512
     doi.org/10.1039/D0CP00502A

List of suggested additional citations. These are papers that are important in the 'surrounding' of 
of this run, or papers that preceded the highly important papers. If you like your results we are grateful for a citation.

  1. Neese,F.
     The ORCA program system
     WIRES Comput. Molec. Sci., 2012 2(1)73-78
     doi.org/10.1002/wcms.81
  2. Neese,F.
     Software update: the ORCA program system, version 4.0
     WIRES Comput. Molec. Sci., 2018 8(1)1-6
     doi.org/10.1002/wcms.1327
  3. Neese,F.; Wennmohs,F.; Becker,U.; Riplinger,C.
     The ORCA quantum chemistry program package
     J. Chem. Phys., 2020 152 Art. No. L224108
     doi.org/10.1063/5.0004608

List of optional additional citations

  1. Neese,F.
     Approximate second-order SCF convergence for spin unrestricted wavefunctions
     Chem. Phys. Lett., 2000 325(1-3)93-98
     doi.org/10.1016/s0009-2614(00)00662-x

Timings for individual modules:

Sum of individual times          ...       20.916 sec (=   0.349 min)
Startup calculation              ...        1.464 sec (=   0.024 min)   7.0 %
SCF iterations                   ...        8.474 sec (=   0.141 min)  40.5 %
Property calculations            ...        0.120 sec (=   0.002 min)   0.6 %
SCF Gradient evaluation          ...       10.858 sec (=   0.181 min)  51.9 %
                             ****ORCA TERMINATED NORMALLY****
TOTAL RUN TIME: 0 days 0 hours 0 minutes 22 seconds 3 msec
  ------------------------------------------------------------------------
          * successful ORCA run, taking over control again...

         :::::::::::::::::::::::::::::::::::::::::::::::::::::
         ::                  ORCA SUMMARY                   ::
         :::::::::::::::::::::::::::::::::::::::::::::::::::::
         :: total energy            -386.238192037068 Eh    ::
         :: gradient norm              0.000603065988 Eh/a0 ::
         :: HOMO-LUMO gap              0.000000000000 eV    ::
         :::::::::::::::::::::::::::::::::::::::::::::::::::::

           -------------------------------------------------
          |                Property Printout                |
           -------------------------------------------------
           -------------------------------------------------
          |                Geometry Summary                 |
           -------------------------------------------------

      molecular mass/u    :      116.1585142
   center of mass at/Å    :        0.0034224      -0.0208683      -0.0218526
  moments of inertia/u·Å² :        0.1332716E+03   0.5107132E+03   0.5389232E+03
rotational constants/cm⁻¹ :        0.1264908E+00   0.3300802E-01   0.3128021E-01

 * 17 selected distances

     #   Z          #   Z                                           value/Å
     1   6 C        2   6 C                                       1.5253812
     2   6 C        3   6 C                                       1.5275083
     3   6 C        4   6 C                                       1.5335919 (max)
     5   6 C        6   8 O                                       1.2207785
     5   6 C        7   8 O                                       1.3482616
     1   6 C        9   1 H                                       1.0957589
     1   6 C       10   1 H                                       1.0945460
     1   6 C       11   1 H                                       1.0955569
     2   6 C       12   1 H                                       1.0990309
     2   6 C       13   1 H                                       1.0976100
     3   6 C       14   1 H                                       1.0965203
     3   6 C       15   1 H                                       1.0960323
     4   6 C       16   1 H                                       1.0969300
     4   6 C       17   1 H                                       1.0928239
     8   6 C       18   1 H                                       1.0892267 (min)
     8   6 C       19   1 H                                       1.0921910
     8   6 C       20   1 H                                       1.0921927

 * 3 distinct bonds (by element types)

   Z      Z             #   av. dist./Å        max./Å        min./Å
   1 H    6 C          12     1.0948683     1.0990309     1.0892267
   6 C    6 C           3     1.5288272     1.5335919     1.5253812
   6 C    8 O           2     1.2845200     1.3482616     1.2207785


optimized geometry written to: xtbopt.coord


           -------------------------------------------------
          | TOTAL ENERGY             -386.238192037068 Eh   |
          | GRADIENT NORM               0.000603065988 Eh/α |
           -------------------------------------------------

------------------------------------------------------------------------
 * finished run on 2025/04/11 at 16:57:02.513     
------------------------------------------------------------------------
 total:
 * wall-time:     0 d,  0 h,  3 min, 21.440 sec
 *  cpu-time:     0 d,  0 h,  0 min,  1.686 sec
 * ratio c/w:     0.008 speedup
 SCF:
 * wall-time:     0 d,  0 h,  0 min, 26.496 sec
 *  cpu-time:     0 d,  0 h,  0 min,  0.271 sec
 * ratio c/w:     0.010 speedup
 ANC optimizer:
 * wall-time:     0 d,  0 h,  2 min, 54.894 sec
 *  cpu-time:     0 d,  0 h,  0 min,  1.263 sec
 * ratio c/w:     0.007 speedup

