19
 xtb: 6.7.1 (edcfbbe)
C            2.40567355260918       -0.73112941777967       -0.21466355535329
C            1.62489618964718        0.51841794691487       -0.61664445839951
C            0.81619381272620        1.13375405469547        0.52850822527622
C           -0.24184557080149        0.18478484883907        1.12228915804830
C           -1.23226757632752       -0.29522779942537        0.09478793339360
O           -1.36925586290409       -1.49181175578513       -0.15203794327032
C           -2.03521486119391        0.74424426880036       -0.63108948768351
H            3.03637166887484       -1.07840606441470       -1.03909900500316
H            3.05592433520717       -0.52716167092058        0.64366250855017
H            1.73907092679429       -1.55548428840012        0.05821204169856
H            0.95551953474992        0.27782478697224       -1.45391755671012
H            2.32233636511137        1.27744425724568       -0.99028137948684
H            0.32798014026534        2.05133824380072        0.18177670636100
H            1.49458884921446        1.42399891093048        1.33934555914010
H            0.22670739215721       -0.68596169592059        1.58841853118330
H           -0.80347566225445        0.72614484578917        1.89447906809471
H           -2.37609300559898        1.52754435999996        0.05217310707504
H           -1.39075836499519        1.22836048981952       -1.37546059821629
H           -2.88088809828446        0.28576128862214       -1.14629619332076
