      -----------------------------------------------------------      
     |                   =====================                   |     
     |                           x T B                           |     
     |                   =====================                   |     
     |                         S. Grimme                         |     
     |          Mulliken Center for Theoretical Chemistry        |     
     |                    University of Bonn                     |     
      -----------------------------------------------------------      

   * xtb version 6.7.1 (edcfbbe) compiled by 'albert@albert-system' on 2024-07-22

   xtb is free software: you can redistribute it and/or modify it under
   the terms of the GNU Lesser General Public License as published by
   the Free Software Foundation, either version 3 of the License, or
   (at your option) any later version.
   
   xtb is distributed in the hope that it will be useful,
   but WITHOUT ANY WARRANTY; without even the implied warranty of
   MERCHANTABILITY or FITNESS FOR A PARTICULAR PURPOSE.  See the
   GNU Lesser General Public License for more details.
   
   Cite this work as:
   * C. Bannwarth, E. Caldeweyher, S. Ehlert, A. Hansen, P. Pracht,
     J. Seibert, S. Spicher, S. Grimme, WIREs Comput. Mol. Sci., 2020, 11,
     e01493. DOI: 10.1002/wcms.1493
   
   for GFN2-xTB:
   * C. Bannwarth, S. Ehlert and S. Grimme., J. Chem. Theory Comput., 2019,
     15, 1652-1671. DOI: 10.1021/acs.jctc.8b01176
   for GFN1-xTB:
   * S. Grimme, C. Bannwarth, P. Shushkov, J. Chem. Theory Comput., 2017,
     13, 1989-2009. DOI: 10.1021/acs.jctc.7b00118
   for GFN0-xTB:
   * P. Pracht, E. Caldeweyher, S. Ehlert, S. Grimme, ChemRxiv, 2019, preprint.
     DOI: 10.26434/chemrxiv.8326202.v1
   for GFN-FF:
   * S. Spicher and S. Grimme, Angew. Chem. Int. Ed., 2020, 59, 15665-15673.
     DOI: 10.1002/anie.202004239
   
   for ALPB and GBSA implicit solvation:
   * S. Ehlert, M. Stahn, S. Spicher, S. Grimme, J. Chem. Theory Comput.,
     2021, 17, 4250-4261. DOI: 10.1021/acs.jctc.1c00471
   
   for ddCOSMO and CPCM-X implicit solvation:
   * M. Stahn, S. Ehlert, S. Grimme, J. Phys. Chem. A,
     2023, XX, XXXX-XXXX. DOI: 10.1021/acs.jpca.3c04382
   
   for DFT-D4:
   * E. Caldeweyher, C. Bannwarth and S. Grimme, J. Chem. Phys., 2017,
     147, 034112. DOI: 10.1063/1.4993215
   * E. Caldeweyher, S. Ehlert, A. Hansen, H. Neugebauer, S. Spicher,
     C. Bannwarth and S. Grimme, J. Chem. Phys., 2019, 150, 154122.
     DOI: 10.1063/1.5090222
   * E. Caldeweyher, J.-M. Mewes, S. Ehlert and S. Grimme, Phys. Chem. Chem. Phys.
     2020, 22, 8499-8512. DOI: 10.1039/D0CP00502A
   
   for sTDA-xTB:
   * S. Grimme and C. Bannwarth, J. Chem. Phys., 2016, 145, 054103.
     DOI: 10.1063/1.4959605
   
   in the mass-spec context:
   * V. Asgeirsson, C. Bauer and S. Grimme, Chem. Sci., 2017, 8, 4879.
     DOI: 10.1039/c7sc00601b
   * J. Koopman and S. Grimme, ACS Omega 2019, 4, 12, 15120-15133.
     DOI: 10.1021/acsomega.9b02011
   
   for metadynamics refer to:
   * S. Grimme, J. Chem. Theory Comput., 2019, 155, 2847-2862
     DOI: 10.1021/acs.jctc.9b00143
   
   for SPH calculations refer to:
   * S. Spicher and S. Grimme, J. Chem. Theory Comput., 2021, 17, 1701-1714
     DOI: 10.1021/acs.jctc.0c01306
   
   for ONIOM refer to:
   * C. Plett, A. Katbashev, S. Ehlert, S. Grimme, M. Bursch,
     Phys. Chem. Chem. Phys., 2023, 25, 17860-17868. DOI: 10.1039/D3CP02178E
   
   for DIPRO refer to:
   * J. Kohn, N. Gildemeister, S. Grimme, D. Fazzi, A. Hansen,
     J. Chem. Phys., 2023, just accepted.
   
   for PTB refer to:
   * S. Grimme, M. Mueller, A. Hansen, J. Chem. Phys., 2023, 158, 124111.
     DOI: 10.1063/5.0137838
   
   with help from (in alphabetical order)
   P. Atkinson, C. Bannwarth, F. Bohle, G. Brandenburg, E. Caldeweyher
   M. Checinski, S. Dohm, S. Ehlert, S. Ehrlich, I. Gerasimov, C. Hölzer
   A. Katbashev, J. Kohn, J. Koopman, C. Lavigne, S. Lehtola, F. März, M. Müller,
   F. Musil, H. Neugebauer, J. Pisarek, C. Plett, P. Pracht, F. Pultar,
   J. Seibert, P. Shushkov, S. Spicher, M. Stahn, M. Steiner, T. Strunk,
   J. Stückrath, T. Rose, and J. Unsleber
   
 * started run on 2025/04/11 at 14:20:51.981     
   ID    Z sym.   atoms
    1    6 C      1-7
    2    1 H      8-23

           -------------------------------------------------
          |                Calculation Setup                |
           -------------------------------------------------

          program call               : /software/projects/pawsey0265/mwang1/xtb/bin/xtb xtb_rrho.coord --gfn2 --bhess vtight --chrg 0 --enso --norestart -I rrho-xcontrol-inp --parallel 1 --alpb water
          hostname                   : nid001220
          coordinate file            : xtb_rrho.coord
          omp threads                :                     1


           -------------------------------------------------
          |                 G F N 2 - x T B                 |
           -------------------------------------------------

        Reference                      10.1021/acs.jctc.8b01176
      * Hamiltonian:
        H0-scaling (s, p, d)           1.850000    2.230000    2.230000
        zeta-weighting                 0.500000
      * Dispersion:
        s8                             2.700000
        a1                             0.520000
        a2                             5.000000
        s9                             5.000000
      * Repulsion:
        kExp                           1.500000    1.000000
        rExp                           1.000000
      * Coulomb:
        alpha                          2.000000
        third order                    shell-resolved
        anisotropic                    true
        a3                             3.000000
        a5                             4.000000
        cn-shift                       1.200000
        cn-exp                         4.000000
        max-rad                        5.000000

      * Solvation model:               ALPB
        Solvent                        water
        Parameter file                 internal GFN2-xTB/ALPB
        Dielectric constant                8.0200E+01
        Reference state                gsolv [1 M gas/solution]
        Free energy shift                  1.0808E-03 Eh       6.7819E-01 kcal/mol
        Temperature                        2.9815E+02 K
        Density                            1.0000E+00 kg/L
        Solvent mass                       1.8000E+01 g/mol
        Interaction kernel             P16
        Born radius scaling (c1)           1.4744E+00
        Born radii integrator          GBOBC
        Born offset                        0.0000E+00 a0       0.0000E+00 AA
        H-bond correction              true
        Ion screening                  false
        Surface tension                    1.0000E-05 Eh       1.5569E+01 dyn/cm
        Grid points                               974 per atom

          ...................................................
          :                      SETUP                      :
          :.................................................:
          :  # basis functions                  44          :
          :  # atomic orbitals                  44          :
          :  # shells                           30          :
          :  # electrons                        44          :
          :  max. iterations                   250          :
          :  Hamiltonian                  GFN2-xTB          :
          :  restarted?                      false          :
          :  GBSA solvation                   true          :
          :  PC potential                    false          :
          :  electronic temp.          300.0000000     K    :
          :  accuracy                    1.0000000          :
          :  -> integral cutoff          0.2500000E+02      :
          :  -> integral neglect         0.1000000E-07      :
          :  -> SCF convergence          0.1000000E-05 Eh   :
          :  -> wf. convergence          0.1000000E-03 e    :
          :  Broyden damping             0.4000000          :
          :  net charge                          0          :
          :  unpaired electrons                  0          :
          ...................................................

 iter      E             dE          RMSdq      gap      omega  full diag
   1    -23.4481764 -0.234482E+02  0.233E+00   12.99       0.0  T
   2    -23.4894647 -0.412883E-01  0.124E+00   12.81       1.0  T
   3    -23.4905753 -0.111064E-02  0.602E-01   12.78       1.0  T
   4    -23.4907236 -0.148285E-03  0.990E-02   12.79       1.0  T
   5    -23.4907581 -0.344774E-04  0.516E-02   12.79       1.0  T
   6    -23.4907585 -0.425177E-06  0.315E-03   12.79       6.6  T
   7    -23.4907586 -0.888776E-07  0.109E-03   12.79      19.2  T
   8    -23.4907586 -0.932079E-09  0.403E-04   12.79      51.8  T
   9    -23.4907586 -0.342002E-09  0.113E-04   12.79     184.1  T

   *** convergence criteria satisfied after 9 iterations ***

         #    Occupation            Energy/Eh            Energy/eV
      -------------------------------------------------------------
         1        2.0000           -0.6214561             -16.9107
       ...           ...                  ...                  ...
        16        2.0000           -0.4475938             -12.1796
        17        2.0000           -0.4434844             -12.0678
        18        2.0000           -0.4317929             -11.7497
        19        2.0000           -0.4285007             -11.6601
        20        2.0000           -0.4180318             -11.3752
        21        2.0000           -0.4124636             -11.2237
        22        2.0000           -0.4094602             -11.1420 (HOMO)
        23                          0.0605978               1.6489 (LUMO)
        24                          0.0827347               2.2513
        25                          0.0914193               2.4876
        26                          0.1053533               2.8668
        27                          0.1163398               3.1658
       ...                                ...                  ...
        44                          0.3191405               8.6843
      -------------------------------------------------------------
                  HL-Gap            0.4700580 Eh           12.7909 eV
             Fermi-level           -0.1744312 Eh           -4.7465 eV

 SCC (total)                   0 d,  0 h,  0 min,  0.055 sec
 SCC setup                      ...        0 min,  0.002 sec (  3.769%)
 Dispersion                     ...        0 min,  0.000 sec (  0.367%)
 classical contributions        ...        0 min,  0.000 sec (  0.099%)
 integral evaluation            ...        0 min,  0.003 sec (  4.768%)
 iterations                     ...        0 min,  0.030 sec ( 53.797%)
 molecular gradient             ...        0 min,  0.020 sec ( 36.892%)
 printout                       ...        0 min,  0.000 sec (  0.258%)

         :::::::::::::::::::::::::::::::::::::::::::::::::::::
         ::                     SUMMARY                     ::
         :::::::::::::::::::::::::::::::::::::::::::::::::::::
         :: total energy             -23.155083313451 Eh    ::
         :: total w/o Gsasa/hb       -23.154762619107 Eh    ::
         :: gradient norm              0.022404868249 Eh/a0 ::
         :: HOMO-LUMO gap             12.790928816651 eV    ::
         ::.................................................::
         :: SCC energy               -23.490679695319 Eh    ::
         :: -> isotropic ES            0.005105356110 Eh    ::
         :: -> anisotropic ES          0.008411685000 Eh    ::
         :: -> anisotropic XC          0.014736346044 Eh    ::
         :: -> dispersion             -0.014164006780 Eh    ::
         :: -> Gsolv                  -0.000472716274 Eh    ::
         ::    -> Gelec               -0.000152021930 Eh    ::
         ::    -> Gsasa               -0.000941731386 Eh    ::
         ::    -> Ghb                 -0.000459722657 Eh    ::
         ::    -> Gshift               0.001080759698 Eh    ::
         :: repulsion energy           0.335596381868 Eh    ::
         :: add. restraining           0.000000000000 Eh    ::
         :: total charge               0.000000000000 e     ::
         :::::::::::::::::::::::::::::::::::::::::::::::::::::

metadynamics with 1 initial structures loaded
           -------------------------------------------------
          |           Optimal kpush determination           |
           -------------------------------------------------
      ----------------------------------------------------------- 
     |                   =====================                   |
     |                        A N C O P T                        |
     |                   =====================                   |
     |               Approximate Normal Coordinate               |
     |                Rational Function Optimizer                |
      ----------------------------------------------------------- 
target rmsd / Å         0.100000
unbiased initial rmsd   0.016511
 
iter. min.        max.        rmsd       kpush
final kpush:  0.000000
           -------------------------------------------------
          |            Biased Numerical Hessian             |
           -------------------------------------------------
kpush                :   0.00000
alpha                :   1.00000
step length          :   0.00500
SCC accuracy         :   0.30000
Hessian scale factor :   1.00000
frozen atoms in %    :   0.00000    0
RMS gradient         :   0.00003
estimated CPU  time      0.02 min
estimated wall time      0.02 min

writing file <hessian>.

 projected vibrational frequencies (cm⁻¹)
eigval :       -0.00    -0.00    -0.00     0.00     0.00     0.00
eigval :       69.97    79.11    95.74   199.17   229.04   247.73
eigval :      262.92   268.72   338.37   379.82   428.53   550.28
eigval :      766.74   822.88   867.35   902.26   938.90   953.32
eigval :      982.51   992.86  1045.45  1085.22  1094.67  1105.68
eigval :     1154.86  1168.76  1210.43  1232.16  1255.83  1285.90
eigval :     1306.49  1330.27  1339.26  1358.60  1374.87  1406.22
eigval :     1412.18  1419.33  1484.37  1491.21  1495.66  1497.35
eigval :     1501.58  1503.14  1504.34  1509.87  1513.53  2901.98
eigval :     2951.34  2958.92  2963.51  2977.25  2994.17  2998.12
eigval :     3021.04  3021.62  3025.53  3025.80  3027.46  3031.24
eigval :     3036.09  3040.03  3043.83
           -------------------------------------------------
          |                Property Printout                |
           -------------------------------------------------

    * Orbital Energies and Occupations

         #    Occupation            Energy/Eh            Energy/eV
      -------------------------------------------------------------
         1        2.0000           -0.6225628             -16.9408
       ...           ...                  ...                  ...
        10        2.0000           -0.4967583             -13.5175
        11        2.0000           -0.4895978             -13.3226
        12        2.0000           -0.4797779             -13.0554
        13        2.0000           -0.4705982             -12.8056
        14        2.0000           -0.4557625             -12.4019
        15        2.0000           -0.4552503             -12.3880
        16        2.0000           -0.4477807             -12.1847
        17        2.0000           -0.4430710             -12.0566
        18        2.0000           -0.4314088             -11.7392
        19        2.0000           -0.4285477             -11.6614
        20        2.0000           -0.4174713             -11.3600
        21        2.0000           -0.4122229             -11.2172
        22        2.0000           -0.4097866             -11.1509 (HOMO)
        23                          0.0693668               1.8876 (LUMO)
        24                          0.0911238               2.4796
        25                          0.0979452               2.6652
        26                          0.1121964               3.0530
        27                          0.1259632               3.4276
        28                          0.1342675               3.6536
        29                          0.1436506               3.9089
        30                          0.1566321               4.2622
        31                          0.1664532               4.5294
        32                          0.1834912               4.9931
        33                          0.1900953               5.1728
       ...                                ...                  ...
        44                          0.3342634               9.0958
      -------------------------------------------------------------
                  HL-Gap            0.4791534 Eh           13.0384 eV
             Fermi-level           -0.1702099 Eh           -4.6316 eV

     #   Z          covCN         q      C6AA      α(0)
     1   6 C        3.752    -0.110    22.660     6.788
     2   6 C        3.800    -0.058    21.620     6.620
     3   6 C        3.801    -0.061    21.678     6.629
     4   6 C        3.802    -0.067    21.785     6.645
     5   6 C        3.848    -0.013    20.770     6.482
     6   6 C        3.755    -0.112    22.696     6.793
     7   6 C        3.755    -0.110    22.664     6.788
     8   1 H        0.925     0.034     2.526     2.486
     9   1 H        0.925     0.034     2.533     2.489
    10   1 H        0.925     0.036     2.510     2.477
    11   1 H        0.924     0.026     2.640     2.541
    12   1 H        0.924     0.036     2.506     2.475
    13   1 H        0.924     0.028     2.622     2.532
    14   1 H        0.924     0.037     2.495     2.470
    15   1 H        0.924     0.031     2.566     2.505
    16   1 H        0.924     0.030     2.586     2.515
    17   1 H        0.924     0.024     2.668     2.554
    18   1 H        0.925     0.037     2.490     2.468
    19   1 H        0.925     0.036     2.509     2.477
    20   1 H        0.925     0.034     2.527     2.486
    21   1 H        0.925     0.041     2.437     2.441
    22   1 H        0.925     0.034     2.529     2.487
    23   1 H        0.925     0.034     2.532     2.489

 Mol. C6AA /au·bohr⁶  :       3391.223769
 Mol. C8AA /au·bohr⁸  :      70117.437876
 Mol. α(0) /au        :         86.638742


Wiberg/Mayer (AO) data.
largest (>0.10) Wiberg bond orders for each atom

 ---------------------------------------------------------------------------
     #   Z sym  total        # sym  WBO       # sym  WBO       # sym  WBO
 ---------------------------------------------------------------------------
     1   6 C    3.997 --     2 C    1.019     8 H    0.988     9 H    0.988
                            10 H    0.987
     2   6 C    3.997 --     1 C    1.019     3 C    1.009    11 H    0.979
                            12 H    0.976
     3   6 C    3.997 --     2 C    1.009     4 C    1.004    13 H    0.980
                            14 H    0.972
     4   6 C    3.997 --     3 C    1.004     5 C    0.996    16 H    0.979
                            15 H    0.977
     5   6 C    3.996 --     7 C    1.010     6 C    1.010     4 C    0.996
                            17 H    0.969
     6   6 C    3.997 --     5 C    1.010    20 H    0.987    19 H    0.987
                            18 H    0.983
     7   6 C    3.997 --     5 C    1.010    22 H    0.986    23 H    0.986
                            21 H    0.984
     8   1 H    0.999 --     1 C    0.988
     9   1 H    0.999 --     1 C    0.988
    10   1 H    0.999 --     1 C    0.987
    11   1 H    0.999 --     2 C    0.979
    12   1 H    0.999 --     2 C    0.976
    13   1 H    0.999 --     3 C    0.980
    14   1 H    0.999 --     3 C    0.972
    15   1 H    0.999 --     4 C    0.977
    16   1 H    0.999 --     4 C    0.979
    17   1 H    0.999 --     5 C    0.969
    18   1 H    0.999 --     6 C    0.983
    19   1 H    0.999 --     6 C    0.987
    20   1 H    0.999 --     6 C    0.987
    21   1 H    0.998 --     7 C    0.984
    22   1 H    0.999 --     7 C    0.986
    23   1 H    0.999 --     7 C    0.986
 ---------------------------------------------------------------------------

Topologies differ in total number of bonds
Writing topology from bond orders to xtbtopo.mol

molecular dipole:
                 x           y           z       tot (Debye)
 q only:       -0.016       0.002      -0.046
   full:       -0.013       0.003      -0.033       0.090
molecular quadrupole (traceless):
                xx          xy          yy          xz          yz          zz
 q only:       -0.088      -0.073       0.080      -0.105       0.030       0.008
  q+dip:       -0.510       0.173       0.036       0.429      -0.130       0.474
   full:       -0.224       0.055       0.009       0.180      -0.050       0.215

           -------------------------------------------------
          |                Geometry Summary                 |
           -------------------------------------------------

      molecular mass/u    :      100.2022033
   center of mass at/Å    :        0.0000111      -0.0000131       0.0000923
  moments of inertia/u·Å² :        0.1142600E+03   0.4002177E+03   0.4268349E+03
rotational constants/cm⁻¹ :        0.1475374E+00   0.4212116E-01   0.3949450E-01

 * 22 selected distances

     #   Z          #   Z                                           value/Å
     1   6 C        2   6 C                                       1.5245244
     2   6 C        3   6 C                                       1.5285186
     3   6 C        4   6 C                                       1.5355693
     4   6 C        5   6 C                                       1.5371550 (max)
     5   6 C        6   6 C                                       1.5281270
     5   6 C        7   6 C                                       1.5265834
     1   6 C        8   1 H                                       1.0879555
     1   6 C        9   1 H                                       1.0879526
     1   6 C       10   1 H                                       1.0873152
     2   6 C       11   1 H                                       1.0927552
     2   6 C       12   1 H                                       1.0903970
     3   6 C       13   1 H                                       1.0924711
     3   6 C       14   1 H                                       1.0904101
     4   6 C       15   1 H                                       1.0925431
     4   6 C       16   1 H                                       1.0924054
     5   6 C       17   1 H                                       1.0973014
     6   6 C       18   1 H                                       1.0870711
     6   6 C       19   1 H                                       1.0875996
     6   6 C       20   1 H                                       1.0875422
     7   6 C       21   1 H                                       1.0867367 (min)
     7   6 C       22   1 H                                       1.0879641
     7   6 C       23   1 H                                       1.0875551

 * 2 distinct bonds (by element types)

   Z      Z             #   av. dist./Å        max./Å        min./Å
   1 H    6 C          16     1.0897485     1.0973014     1.0867367
   6 C    6 C           6     1.5300796     1.5371550     1.5245244

           -------------------------------------------------
          |               Frequency Printout                |
           -------------------------------------------------
 projected vibrational frequencies (cm⁻¹)
eigval :       -0.00    -0.00    -0.00     0.00     0.00     0.00
eigval :       69.97    79.11    95.74   199.17   229.04   247.73
eigval :      262.92   268.72   338.37   379.82   428.53   550.28
eigval :      766.74   822.88   867.35   902.26   938.90   953.32
eigval :      982.51   992.86  1045.45  1085.22  1094.67  1105.68
eigval :     1154.86  1168.76  1210.43  1232.16  1255.83  1285.90
eigval :     1306.49  1330.27  1339.26  1358.60  1374.87  1406.22
eigval :     1412.18  1419.33  1484.37  1491.21  1495.66  1497.35
eigval :     1501.58  1503.14  1504.34  1509.87  1513.53  2901.98
eigval :     2951.34  2958.92  2963.51  2977.25  2994.17  2998.12
eigval :     3021.04  3021.62  3025.53  3025.80  3027.46  3031.24
eigval :     3036.09  3040.03  3043.83
 reduced masses (amu)
   1: 10.16   2:  9.63   3: 10.04   4:  9.63   5:  9.66   6:  8.43   7:  5.97   8:  8.51
   9:  7.34  10:  2.14  11:  2.52  12:  6.99  13:  2.39  14:  8.02  15:  7.39  16:  7.47
  17:  7.92  18:  7.57  19:  3.04  20:  6.81  21:  6.66  22:  3.87  23:  4.13  24:  3.47
  25:  6.12  26:  4.64  27:  6.53  28:  6.09  29:  7.28  30:  5.24  31:  6.69  32:  7.60
  33:  7.01  34:  3.95  35:  2.79  36:  2.27  37:  3.35  38:  5.27  39:  4.67  40:  4.14
  41:  4.80  42:  3.43  43:  3.19  44:  3.17  45:  1.91  46:  1.74  47:  1.65  48:  1.80
  49:  1.53  50:  1.62  51:  1.59  52:  1.60  53:  1.63  54:  1.74  55:  1.90  56:  1.89
  57:  1.83  58:  1.55  59:  1.60  60:  1.62  61:  1.94  62:  1.95  63:  1.91  64:  1.92
  65:  1.90  66:  1.77  67:  1.29  68:  1.30  69:  1.41
 IR intensities (km·mol⁻¹)
   1:  0.00   2:  0.00   3:  0.00   4:  0.00   5:  0.00   6:  0.00   7:  0.01   8:  0.05
   9:  0.02  10:  0.09  11:  0.02  12:  0.32  13:  0.08  14:  0.22  15:  0.31  16:  0.39
  17:  0.38  18:  4.07  19:  8.20  20:  3.09  21:  0.78  22:  0.25  23:  6.74  24:  0.93
  25:  0.93  26:  0.92  27:  2.07  28:  5.44  29:  2.04  30:  2.94  31:  5.37  32:  1.62
  33:  4.98  34:  0.30  35:  1.25  36:  1.54  37:  5.58  38:  7.64  39: 10.98  40:  6.22
  41:  2.95  42:  1.68  43:  0.28  44:  2.38  45:  1.56  46:  0.63  47:  0.43  48:  0.71
  49:  1.00  50:  0.39  51:  0.64  52:  1.60  53:  0.88  54:110.00  55: 21.56  56: 88.46
  57: 73.24  58:146.60  59: 50.20  60: 70.56  61:105.80  62: 47.56  63: 83.00  64:155.69
  65: 52.25  66: 76.60  67: 47.76  68: 41.71  69: 62.38
 Raman intensities (Ä⁴*amu⁻¹)
   1:  0.00   2:  0.00   3:  0.00   4:  0.00   5:  0.00   6:  0.00   7:  0.00   8:  0.00
   9:  0.00  10:  0.00  11:  0.00  12:  0.00  13:  0.00  14:  0.00  15:  0.00  16:  0.00
  17:  0.00  18:  0.00  19:  0.00  20:  0.00  21:  0.00  22:  0.00  23:  0.00  24:  0.00
  25:  0.00  26:  0.00  27:  0.00  28:  0.00  29:  0.00  30:  0.00  31:  0.00  32:  0.00
  33:  0.00  34:  0.00  35:  0.00  36:  0.00  37:  0.00  38:  0.00  39:  0.00  40:  0.00
  41:  0.00  42:  0.00  43:  0.00  44:  0.00  45:  0.00  46:  0.00  47:  0.00  48:  0.00
  49:  0.00  50:  0.00  51:  0.00  52:  0.00  53:  0.00  54:  0.00  55:  0.00  56:  0.00
  57:  0.00  58:  0.00  59:  0.00  60:  0.00  61:  0.00  62:  0.00  63:  0.00  64:  0.00
  65:  0.00  66:  0.00  67:  0.00  68:  0.00  69:  0.00
 output can be read by thermo (or use thermo option).
 writing <g98.out> molden fake output.
 recommended (thermochemical) frequency scaling factor: 1.0
           -------------------------------------------------
          |             Thermodynamic Functions             |
           -------------------------------------------------

Molecule has no symmetry elements
It seems to be the C1 point group
c1  symmetry found (for desy threshold:  0.10E+00) used in thermo

          ...................................................
          :                      SETUP                      :
          :.................................................:
          :  # frequencies                          63      :
          :  # imaginary freq.                       0      :
          :  linear?                             false      :
          :  only rotor calc.                    false      :
          :  symmetry                               c1      :
          :  rotational number                       1      :
          :  scaling factor                  1.0000000      :
          :  rotor cutoff                    0.0000000 cm⁻¹ :
          :  imag. cutoff                 -100.0000000 cm⁻¹ :
          :.................................................:

    mode    ω/cm⁻¹     T·S(HO)/kcal·mol⁻¹    T·S(FR)/kcal·mol⁻¹   T·S(vib)
   ------------------------------------------------------------------------
       1     69.97    -1.23861 (100.00%)    -0.95679 (  0.00%)    -1.23861
       2     79.11    -1.16664 (100.00%)    -0.92044 (  0.00%)    -1.16664
       3     95.74    -1.05521 (100.00%)    -0.86394 (  0.00%)    -1.05521
       4    199.17    -0.63825 (100.00%)    -0.64702 (  0.00%)    -0.63825
       5    229.04    -0.56244 (100.00%)    -0.60563 (  0.00%)    -0.56244
       6    247.73    -0.52078 (100.00%)    -0.58241 (  0.00%)    -0.52078
       7    262.92    -0.48965 (100.00%)    -0.56478 (  0.00%)    -0.48965
       8    268.72    -0.47836 (100.00%)    -0.55832 (  0.00%)    -0.47836
   ------------------------------------------------------------------------

   temp. (K)  partition function   enthalpy   heat capacity  entropy
                                   cal/mol     cal/K/mol   cal/K/mol   J/K/mol
 298.15  VIB   425.                 4231.956     28.427     26.222
         ROT  0.337E+06              888.752      2.981     28.277
         INT  0.144E+09             5120.708     31.408     54.499
         TR   0.970E+27             1481.254      4.968     39.706
         TOT                        6601.9620    36.3764    94.2054   394.1554

       T/K    H(0)-H(T)+PV         H(T)/Eh          T*S/Eh         G(T)/Eh
   ------------------------------------------------------------------------
    298.15    0.105209E-01    0.225765E+00    0.447600E-01    0.181005E+00
   ------------------------------------------------------------------------

         :::::::::::::::::::::::::::::::::::::::::::::::::::::
         ::                  THERMODYNAMIC                  ::
         :::::::::::::::::::::::::::::::::::::::::::::::::::::
         :: total free energy         -22.974923771701 Eh   ::
         ::.................................................::
         :: total energy              -23.155929038295 Eh   ::
         :: zero point energy           0.215244399865 Eh   ::
         :: G(RRHO) w/o ZPVE           -0.034239133270 Eh   ::
         :: G(RRHO) contrib.            0.181005266594 Eh   ::
         :::::::::::::::::::::::::::::::::::::::::::::::::::::

optimized geometry written to: xtbopt.coord


           -------------------------------------------------
          | TOTAL ENERGY              -23.155929038295 Eh   |
          | TOTAL ENTHALPY            -22.930163742326 Eh   |
          | TOTAL FREE ENERGY         -22.974923771701 Eh   |
          | GRADIENT NORM               0.000026728774 Eh/α |
          | HOMO-LUMO GAP              13.038426607755 eV   |
           -------------------------------------------------

------------------------------------------------------------------------
 * finished run on 2025/04/11 at 14:20:53.429     
------------------------------------------------------------------------
 total:
 * wall-time:     0 d,  0 h,  0 min,  1.447 sec
 *  cpu-time:     0 d,  0 h,  0 min,  1.371 sec
 * ratio c/w:     0.948 speedup
 SCF:
 * wall-time:     0 d,  0 h,  0 min,  0.056 sec
 *  cpu-time:     0 d,  0 h,  0 min,  0.028 sec
 * ratio c/w:     0.497 speedup
 analytical hessian:
 * wall-time:     0 d,  0 h,  0 min,  1.221 sec
 *  cpu-time:     0 d,  0 h,  0 min,  1.220 sec
 * ratio c/w:     0.999 speedup

