      -----------------------------------------------------------      
     |                   =====================                   |     
     |                           x T B                           |     
     |                   =====================                   |     
     |                         S. Grimme                         |     
     |          Mulliken Center for Theoretical Chemistry        |     
     |                    University of Bonn                     |     
      -----------------------------------------------------------      

   * xtb version 6.7.1 (edcfbbe) compiled by 'albert@albert-system' on 2024-07-22

   xtb is free software: you can redistribute it and/or modify it under
   the terms of the GNU Lesser General Public License as published by
   the Free Software Foundation, either version 3 of the License, or
   (at your option) any later version.
   
   xtb is distributed in the hope that it will be useful,
   but WITHOUT ANY WARRANTY; without even the implied warranty of
   MERCHANTABILITY or FITNESS FOR A PARTICULAR PURPOSE.  See the
   GNU Lesser General Public License for more details.
   
   Cite this work as:
   * C. Bannwarth, E. Caldeweyher, S. Ehlert, A. Hansen, P. Pracht,
     J. Seibert, S. Spicher, S. Grimme, WIREs Comput. Mol. Sci., 2020, 11,
     e01493. DOI: 10.1002/wcms.1493
   
   for GFN2-xTB:
   * C. Bannwarth, S. Ehlert and S. Grimme., J. Chem. Theory Comput., 2019,
     15, 1652-1671. DOI: 10.1021/acs.jctc.8b01176
   for GFN1-xTB:
   * S. Grimme, C. Bannwarth, P. Shushkov, J. Chem. Theory Comput., 2017,
     13, 1989-2009. DOI: 10.1021/acs.jctc.7b00118
   for GFN0-xTB:
   * P. Pracht, E. Caldeweyher, S. Ehlert, S. Grimme, ChemRxiv, 2019, preprint.
     DOI: 10.26434/chemrxiv.8326202.v1
   for GFN-FF:
   * S. Spicher and S. Grimme, Angew. Chem. Int. Ed., 2020, 59, 15665-15673.
     DOI: 10.1002/anie.202004239
   
   for ALPB and GBSA implicit solvation:
   * S. Ehlert, M. Stahn, S. Spicher, S. Grimme, J. Chem. Theory Comput.,
     2021, 17, 4250-4261. DOI: 10.1021/acs.jctc.1c00471
   
   for ddCOSMO and CPCM-X implicit solvation:
   * M. Stahn, S. Ehlert, S. Grimme, J. Phys. Chem. A,
     2023, XX, XXXX-XXXX. DOI: 10.1021/acs.jpca.3c04382
   
   for DFT-D4:
   * E. Caldeweyher, C. Bannwarth and S. Grimme, J. Chem. Phys., 2017,
     147, 034112. DOI: 10.1063/1.4993215
   * E. Caldeweyher, S. Ehlert, A. Hansen, H. Neugebauer, S. Spicher,
     C. Bannwarth and S. Grimme, J. Chem. Phys., 2019, 150, 154122.
     DOI: 10.1063/1.5090222
   * E. Caldeweyher, J.-M. Mewes, S. Ehlert and S. Grimme, Phys. Chem. Chem. Phys.
     2020, 22, 8499-8512. DOI: 10.1039/D0CP00502A
   
   for sTDA-xTB:
   * S. Grimme and C. Bannwarth, J. Chem. Phys., 2016, 145, 054103.
     DOI: 10.1063/1.4959605
   
   in the mass-spec context:
   * V. Asgeirsson, C. Bauer and S. Grimme, Chem. Sci., 2017, 8, 4879.
     DOI: 10.1039/c7sc00601b
   * J. Koopman and S. Grimme, ACS Omega 2019, 4, 12, 15120-15133.
     DOI: 10.1021/acsomega.9b02011
   
   for metadynamics refer to:
   * S. Grimme, J. Chem. Theory Comput., 2019, 155, 2847-2862
     DOI: 10.1021/acs.jctc.9b00143
   
   for SPH calculations refer to:
   * S. Spicher and S. Grimme, J. Chem. Theory Comput., 2021, 17, 1701-1714
     DOI: 10.1021/acs.jctc.0c01306
   
   for ONIOM refer to:
   * C. Plett, A. Katbashev, S. Ehlert, S. Grimme, M. Bursch,
     Phys. Chem. Chem. Phys., 2023, 25, 17860-17868. DOI: 10.1039/D3CP02178E
   
   for DIPRO refer to:
   * J. Kohn, N. Gildemeister, S. Grimme, D. Fazzi, A. Hansen,
     J. Chem. Phys., 2023, just accepted.
   
   for PTB refer to:
   * S. Grimme, M. Mueller, A. Hansen, J. Chem. Phys., 2023, 158, 124111.
     DOI: 10.1063/5.0137838
   
   with help from (in alphabetical order)
   P. Atkinson, C. Bannwarth, F. Bohle, G. Brandenburg, E. Caldeweyher
   M. Checinski, S. Dohm, S. Ehlert, S. Ehrlich, I. Gerasimov, C. Hölzer
   A. Katbashev, J. Kohn, J. Koopman, C. Lavigne, S. Lehtola, F. März, M. Müller,
   F. Musil, H. Neugebauer, J. Pisarek, C. Plett, P. Pracht, F. Pultar,
   J. Seibert, P. Shushkov, S. Spicher, M. Stahn, M. Steiner, T. Strunk,
   J. Stückrath, T. Rose, and J. Unsleber
   
 * started run on 2025/04/11 at 16:15:26.146     
   ID    Z sym.   atoms
    1    6 C      1-4, 7, 10, 12
    2    7 N      5, 9
    3    8 O      6, 8
    4   16 S      11
    5    1 H      13-26

           -------------------------------------------------
          |                Calculation Setup                |
           -------------------------------------------------

          program call               : /srv/scratch/z5358697/.xtb/bin/xtb solv.coord --gfn2 --sp --chrg 0 --norestart --parallel 1 --alpb water reference -I xtb_sp-xcontrol-inp
          hostname                   : k073
          coordinate file            : solv.coord
          omp threads                :                     1


           -------------------------------------------------
          |                 G F N 2 - x T B                 |
           -------------------------------------------------

        Reference                      10.1021/acs.jctc.8b01176
      * Hamiltonian:
        H0-scaling (s, p, d)           1.850000    2.230000    2.230000
        zeta-weighting                 0.500000
      * Dispersion:
        s8                             2.700000
        a1                             0.520000
        a2                             5.000000
        s9                             5.000000
      * Repulsion:
        kExp                           1.500000    1.000000
        rExp                           1.000000
      * Coulomb:
        alpha                          2.000000
        third order                    shell-resolved
        anisotropic                    true
        a3                             3.000000
        a5                             4.000000
        cn-shift                       1.200000
        cn-exp                         4.000000
        max-rad                        5.000000

      * Solvation model:               ALPB
        Solvent                        water
        Parameter file                 internal GFN2-xTB/ALPB
        Dielectric constant                8.0200E+01
        Reference state                gsolv=reference [X=1]
        Free energy shift                  2.8945E-03 Eh       1.8164E+00 kcal/mol
        Temperature                        2.9815E+02 K
        Density                            1.0000E+00 kg/L
        Solvent mass                       1.8000E+01 g/mol
        Interaction kernel             P16
        Born radius scaling (c1)           1.4744E+00
        Born radii integrator          GBOBC
        Born offset                        0.0000E+00 a0       0.0000E+00 AA
        H-bond correction              true
        Ion screening                  false
        Surface tension                    1.0000E-05 Eh       1.5569E+01 dyn/cm
        Grid points                               974 per atom

          ...................................................
          :                      SETUP                      :
          :.................................................:
          :  # basis functions                  68          :
          :  # atomic orbitals                  67          :
          :  # shells                           39          :
          :  # electrons                        70          :
          :  max. iterations                   250          :
          :  Hamiltonian                  GFN2-xTB          :
          :  restarted?                      false          :
          :  GBSA solvation                   true          :
          :  PC potential                    false          :
          :  electronic temp.          300.0000000     K    :
          :  accuracy                    1.0000000          :
          :  -> integral cutoff          0.2500000E+02      :
          :  -> integral neglect         0.1000000E-07      :
          :  -> SCF convergence          0.1000000E-05 Eh   :
          :  -> wf. convergence          0.1000000E-03 e    :
          :  Broyden damping             0.4000000          :
          :  net charge                          0          :
          :  unpaired electrons                  0          :
          ...................................................

 iter      E             dE          RMSdq      gap      omega  full diag
   1    -39.6839500 -0.396839E+02  0.435E+00    3.58       0.0  T
   2    -39.7538290 -0.698790E-01  0.227E+00    3.02       1.0  T
   3    -39.7564292 -0.260022E-02  0.803E-01    2.55       1.0  T
   4    -39.7569160 -0.486753E-03  0.276E-01    2.59       1.0  T
   5    -39.7572540 -0.338081E-03  0.114E-01    2.57       1.0  T
   6    -39.7573077 -0.536951E-04  0.407E-02    2.60       1.0  T
   7    -39.7573120 -0.429804E-05  0.189E-02    2.60       1.0  T
   8    -39.7573137 -0.170003E-05  0.919E-03    2.60       2.1  T
   9    -39.7573140 -0.292718E-06  0.338E-03    2.60       5.8  T
  10    -39.7573141 -0.534304E-07  0.153E-03    2.60      12.8  T
  11    -39.7573141 -0.819491E-08  0.469E-04    2.60      41.8  T
  12    -39.7573141 -0.912912E-09  0.232E-04    2.60      84.6  T

   *** convergence criteria satisfied after 12 iterations ***

         #    Occupation            Energy/Eh            Energy/eV
      -------------------------------------------------------------
         1        2.0000           -0.7542501             -20.5242
       ...           ...                  ...                  ...
        29        2.0000           -0.4628842             -12.5957
        30        2.0000           -0.4532728             -12.3342
        31        2.0000           -0.4389503             -11.9444
        32        2.0000           -0.4292360             -11.6801
        33        2.0000           -0.4146816             -11.2841
        34        2.0000           -0.3978499             -10.8260
        35        2.0000           -0.3623347              -9.8596 (HOMO)
        36                         -0.2668774              -7.2621 (LUMO)
        37                         -0.2041315              -5.5547
        38                         -0.1935302              -5.2662
        39                         -0.1562022              -4.2505
        40                         -0.1070754              -2.9137
       ...                                ...                  ...
        67                          0.6430764              17.4990
      -------------------------------------------------------------
                  HL-Gap            0.0954573 Eh            2.5975 eV
             Fermi-level           -0.3146060 Eh           -8.5609 eV

 SCC (total)                   0 d,  0 h,  0 min,  0.038 sec
 SCC setup                      ...        0 min,  0.002 sec (  4.386%)
 Dispersion                     ...        0 min,  0.000 sec (  0.510%)
 classical contributions        ...        0 min,  0.000 sec (  0.092%)
 integral evaluation            ...        0 min,  0.012 sec ( 30.192%)
 iterations                     ...        0 min,  0.014 sec ( 36.775%)
 molecular gradient             ...        0 min,  0.010 sec ( 27.454%)
 printout                       ...        0 min,  0.000 sec (  0.542%)

         :::::::::::::::::::::::::::::::::::::::::::::::::::::
         ::                     SUMMARY                     ::
         :::::::::::::::::::::::::::::::::::::::::::::::::::::
         :: total energy             -39.325308300754 Eh    ::
         :: total w/o Gsasa/hb       -39.322897194343 Eh    ::
         :: gradient norm              0.000081430584 Eh/a0 ::
         :: HOMO-LUMO gap              2.597524036282 eV    ::
         ::.................................................::
         :: SCC energy               -39.757186313569 Eh    ::
         :: -> isotropic ES            0.091752281322 Eh    ::
         :: -> anisotropic ES         -0.004897806800 Eh    ::
         :: -> anisotropic XC          0.024671242469 Eh    ::
         :: -> dispersion             -0.022497514062 Eh    ::
         :: -> Gsolv                  -0.023911082646 Eh    ::
         ::    -> Gelec               -0.021499976235 Eh    ::
         ::    -> Gsasa               -0.000426669720 Eh    ::
         ::    -> Ghb                 -0.004878985852 Eh    ::
         ::    -> Gshift               0.002894549160 Eh    ::
         :: repulsion energy           0.431878012815 Eh    ::
         :: add. restraining           0.000000000000 Eh    ::
         :: total charge               0.000000000000 e     ::
         :::::::::::::::::::::::::::::::::::::::::::::::::::::

           -------------------------------------------------
          |                Property Printout                |
           -------------------------------------------------

    * Orbital Energies and Occupations

         #    Occupation            Energy/Eh            Energy/eV
      -------------------------------------------------------------
         1        2.0000           -0.7542501             -20.5242
       ...           ...                  ...                  ...
        23        2.0000           -0.4895255             -13.3207
        24        2.0000           -0.4829938             -13.1429
        25        2.0000           -0.4780355             -13.0080
        26        2.0000           -0.4722157             -12.8496
        27        2.0000           -0.4705993             -12.8057
        28        2.0000           -0.4691513             -12.7663
        29        2.0000           -0.4628842             -12.5957
        30        2.0000           -0.4532728             -12.3342
        31        2.0000           -0.4389503             -11.9444
        32        2.0000           -0.4292360             -11.6801
        33        2.0000           -0.4146816             -11.2841
        34        2.0000           -0.3978499             -10.8260
        35        2.0000           -0.3623347              -9.8596 (HOMO)
        36                         -0.2668774              -7.2621 (LUMO)
        37                         -0.2041315              -5.5547
        38                         -0.1935302              -5.2662
        39                         -0.1562022              -4.2505
        40                         -0.1070754              -2.9137
        41                         -0.0121909              -0.3317
        42                         -0.0001325              -0.0036
        43                          0.0136792               0.3722
        44                          0.0185484               0.5047
        45                          0.0587312               1.5982
        46                          0.1043660               2.8399
       ...                                ...                  ...
        67                          0.6430764              17.4990
      -------------------------------------------------------------
                  HL-Gap            0.0954573 Eh            2.5975 eV
             Fermi-level           -0.3146060 Eh           -8.5609 eV

     #   Z          covCN         q      C6AA      α(0)
     1   6 C        3.778    -0.123    22.892     6.817
     2   6 C        3.890     0.071    19.350     6.253
     3   6 C        3.809    -0.101    22.413     6.739
     4   6 C        2.950     0.072    26.383     8.425
     5   7 N        1.829    -0.132    24.636     7.355
     6   8 O        1.770    -0.271    18.472     5.804
     7   6 C        2.638     0.409    20.106     7.335
     8   8 O        0.857    -0.542    24.742     6.669
     9   7 N        2.686    -0.194    25.212     7.457
    10   6 C        3.691    -0.064    21.926     6.701
    11  16 S        2.133    -0.224   150.622    20.656
    12   6 C        3.744    -0.069    21.894     6.675
    13   1 H        0.925     0.061     2.186     2.312
    14   1 H        0.925     0.070     2.091     2.261
    15   1 H        0.925     0.064     2.152     2.294
    16   1 H        0.925     0.034     2.528     2.487
    17   1 H        0.925     0.063     2.164     2.300
    18   1 H        0.925     0.056     2.241     2.341
    19   1 H        0.925     0.090     1.883     2.146
    20   1 H        0.860     0.243     0.913     1.497
    21   1 H        0.925     0.087     1.910     2.161
    22   1 H        0.925     0.087     1.910     2.161
    23   1 H        0.925     0.081     1.969     2.194
    24   1 H        0.925     0.084     1.936     2.176
    25   1 H        0.926     0.083     1.950     2.184
    26   1 H        0.925     0.066     2.134     2.285

 Mol. C6AA /au·bohr⁶  :       7035.130303
 Mol. C8AA /au·bohr⁸  :     175198.068965
 Mol. α(0) /au        :        127.684169


Wiberg/Mayer (AO) data.
largest (>0.10) Wiberg bond orders for each atom

 ---------------------------------------------------------------------------
     #   Z sym  total        # sym  WBO       # sym  WBO       # sym  WBO
 ---------------------------------------------------------------------------
     1   6 C    3.988 --     2 C    0.996    13 H    0.981    14 H    0.980
                            15 H    0.975
     2   6 C    3.970 --     4 C    1.011     3 C    1.003     1 C    0.996
                            11 S    0.888
     3   6 C    3.993 --     2 C    1.003    17 H    0.982    16 H    0.982
                            18 H    0.978
     4   6 C    3.952 --     5 N    1.851     2 C    1.011    19 H    0.936
     5   7 N    2.988 --     4 C    1.851     6 O    0.941
     6   8 O    2.225 --     7 C    1.022     5 N    0.941     8 O    0.119
     7   6 C    3.936 --     8 O    1.577     9 N    1.273     6 O    1.022
     8   8 O    1.912 --     7 C    1.577     9 N    0.174     6 O    0.119
     9   7 N    3.436 --     7 C    1.273    10 C    0.992    20 H    0.914
                             8 O    0.174
    10   6 C    3.942 --     9 N    0.992    23 H    0.978    21 H    0.973
                            22 H    0.973
    11  16 S    2.146 --    12 C    1.011     2 C    0.888
    12   6 C    3.966 --    11 S    1.011    26 H    0.980    24 H    0.978
                            25 H    0.971
    13   1 H    0.996 --     1 C    0.981
    14   1 H    0.995 --     1 C    0.980
    15   1 H    0.996 --     1 C    0.975
    16   1 H    0.999 --     3 C    0.982
    17   1 H    0.996 --     3 C    0.982
    18   1 H    0.997 --     3 C    0.978
    19   1 H    0.992 --     4 C    0.936
    20   1 H    0.941 --     9 N    0.914
    21   1 H    0.992 --    10 C    0.973
    22   1 H    0.992 --    10 C    0.973
    23   1 H    0.993 --    10 C    0.978
    24   1 H    0.993 --    12 C    0.978
    25   1 H    0.993 --    12 C    0.971
    26   1 H    0.996 --    12 C    0.980
 ---------------------------------------------------------------------------

Topologies differ in total number of bonds
Writing topology from bond orders to xtbtopo.mol

molecular dipole:
                 x           y           z       tot (Debye)
 q only:        0.676      -1.462       0.210
   full:        0.795      -1.640       0.092       4.637
molecular quadrupole (traceless):
                xx          xy          yy          xz          yz          zz
 q only:       19.088      12.898      -7.547     -11.018      -5.061     -11.541
  q+dip:       18.912      13.332      -5.902      -9.763      -6.098     -13.011
   full:       18.669      13.629      -5.492     -11.065      -5.517     -13.177


           -------------------------------------------------
          | TOTAL ENERGY              -39.325308300754 Eh   |
          | GRADIENT NORM               0.000081430584 Eh/α |
          | HOMO-LUMO GAP               2.597524036282 eV   |
           -------------------------------------------------

------------------------------------------------------------------------
 * finished run on 2025/04/11 at 16:15:26.229     
------------------------------------------------------------------------
 total:
 * wall-time:     0 d,  0 h,  0 min,  0.082 sec
 *  cpu-time:     0 d,  0 h,  0 min,  0.042 sec
 * ratio c/w:     0.503 speedup
 SCF:
 * wall-time:     0 d,  0 h,  0 min,  0.039 sec
 *  cpu-time:     0 d,  0 h,  0 min,  0.031 sec
 * ratio c/w:     0.810 speedup

