      -----------------------------------------------------------      
     |                   =====================                   |     
     |                           x T B                           |     
     |                   =====================                   |     
     |                         S. Grimme                         |     
     |          Mulliken Center for Theoretical Chemistry        |     
     |                    University of Bonn                     |     
      -----------------------------------------------------------      

   * xtb version 6.7.1 (edcfbbe) compiled by 'albert@albert-system' on 2024-07-22

   xtb is free software: you can redistribute it and/or modify it under
   the terms of the GNU Lesser General Public License as published by
   the Free Software Foundation, either version 3 of the License, or
   (at your option) any later version.
   
   xtb is distributed in the hope that it will be useful,
   but WITHOUT ANY WARRANTY; without even the implied warranty of
   MERCHANTABILITY or FITNESS FOR A PARTICULAR PURPOSE.  See the
   GNU Lesser General Public License for more details.
   
   Cite this work as:
   * C. Bannwarth, E. Caldeweyher, S. Ehlert, A. Hansen, P. Pracht,
     J. Seibert, S. Spicher, S. Grimme, WIREs Comput. Mol. Sci., 2020, 11,
     e01493. DOI: 10.1002/wcms.1493
   
   for GFN2-xTB:
   * C. Bannwarth, S. Ehlert and S. Grimme., J. Chem. Theory Comput., 2019,
     15, 1652-1671. DOI: 10.1021/acs.jctc.8b01176
   for GFN1-xTB:
   * S. Grimme, C. Bannwarth, P. Shushkov, J. Chem. Theory Comput., 2017,
     13, 1989-2009. DOI: 10.1021/acs.jctc.7b00118
   for GFN0-xTB:
   * P. Pracht, E. Caldeweyher, S. Ehlert, S. Grimme, ChemRxiv, 2019, preprint.
     DOI: 10.26434/chemrxiv.8326202.v1
   for GFN-FF:
   * S. Spicher and S. Grimme, Angew. Chem. Int. Ed., 2020, 59, 15665-15673.
     DOI: 10.1002/anie.202004239
   
   for ALPB and GBSA implicit solvation:
   * S. Ehlert, M. Stahn, S. Spicher, S. Grimme, J. Chem. Theory Comput.,
     2021, 17, 4250-4261. DOI: 10.1021/acs.jctc.1c00471
   
   for ddCOSMO and CPCM-X implicit solvation:
   * M. Stahn, S. Ehlert, S. Grimme, J. Phys. Chem. A,
     2023, XX, XXXX-XXXX. DOI: 10.1021/acs.jpca.3c04382
   
   for DFT-D4:
   * E. Caldeweyher, C. Bannwarth and S. Grimme, J. Chem. Phys., 2017,
     147, 034112. DOI: 10.1063/1.4993215
   * E. Caldeweyher, S. Ehlert, A. Hansen, H. Neugebauer, S. Spicher,
     C. Bannwarth and S. Grimme, J. Chem. Phys., 2019, 150, 154122.
     DOI: 10.1063/1.5090222
   * E. Caldeweyher, J.-M. Mewes, S. Ehlert and S. Grimme, Phys. Chem. Chem. Phys.
     2020, 22, 8499-8512. DOI: 10.1039/D0CP00502A
   
   for sTDA-xTB:
   * S. Grimme and C. Bannwarth, J. Chem. Phys., 2016, 145, 054103.
     DOI: 10.1063/1.4959605
   
   in the mass-spec context:
   * V. Asgeirsson, C. Bauer and S. Grimme, Chem. Sci., 2017, 8, 4879.
     DOI: 10.1039/c7sc00601b
   * J. Koopman and S. Grimme, ACS Omega 2019, 4, 12, 15120-15133.
     DOI: 10.1021/acsomega.9b02011
   
   for metadynamics refer to:
   * S. Grimme, J. Chem. Theory Comput., 2019, 155, 2847-2862
     DOI: 10.1021/acs.jctc.9b00143
   
   for SPH calculations refer to:
   * S. Spicher and S. Grimme, J. Chem. Theory Comput., 2021, 17, 1701-1714
     DOI: 10.1021/acs.jctc.0c01306
   
   for ONIOM refer to:
   * C. Plett, A. Katbashev, S. Ehlert, S. Grimme, M. Bursch,
     Phys. Chem. Chem. Phys., 2023, 25, 17860-17868. DOI: 10.1039/D3CP02178E
   
   for DIPRO refer to:
   * J. Kohn, N. Gildemeister, S. Grimme, D. Fazzi, A. Hansen,
     J. Chem. Phys., 2023, just accepted.
   
   for PTB refer to:
   * S. Grimme, M. Mueller, A. Hansen, J. Chem. Phys., 2023, 158, 124111.
     DOI: 10.1063/5.0137838
   
   with help from (in alphabetical order)
   P. Atkinson, C. Bannwarth, F. Bohle, G. Brandenburg, E. Caldeweyher
   M. Checinski, S. Dohm, S. Ehlert, S. Ehrlich, I. Gerasimov, C. Hölzer
   A. Katbashev, J. Kohn, J. Koopman, C. Lavigne, S. Lehtola, F. März, M. Müller,
   F. Musil, H. Neugebauer, J. Pisarek, C. Plett, P. Pracht, F. Pultar,
   J. Seibert, P. Shushkov, S. Spicher, M. Stahn, M. Steiner, T. Strunk,
   J. Stückrath, T. Rose, and J. Unsleber
   
 * started run on 2025/04/11 at 16:09:18.002     
   ID    Z sym.   atoms
    1    6 C      1-5, 7
    2    8 O      6
    3    1 H      8-19

           -------------------------------------------------
          |                Calculation Setup                |
           -------------------------------------------------

          program call               : /srv/scratch/z5358697/.xtb/bin/xtb gas.coord --gfn2 --sp --chrg 0 --norestart --parallel 1
          hostname                   : k065
          coordinate file            : gas.coord
          omp threads                :                     1


           -------------------------------------------------
          |                 G F N 2 - x T B                 |
           -------------------------------------------------

        Reference                      10.1021/acs.jctc.8b01176
      * Hamiltonian:
        H0-scaling (s, p, d)           1.850000    2.230000    2.230000
        zeta-weighting                 0.500000
      * Dispersion:
        s8                             2.700000
        a1                             0.520000
        a2                             5.000000
        s9                             5.000000
      * Repulsion:
        kExp                           1.500000    1.000000
        rExp                           1.000000
      * Coulomb:
        alpha                          2.000000
        third order                    shell-resolved
        anisotropic                    true
        a3                             3.000000
        a5                             4.000000
        cn-shift                       1.200000
        cn-exp                         4.000000
        max-rad                        5.000000


          ...................................................
          :                      SETUP                      :
          :.................................................:
          :  # basis functions                  40          :
          :  # atomic orbitals                  40          :
          :  # shells                           26          :
          :  # electrons                        42          :
          :  max. iterations                   250          :
          :  Hamiltonian                  GFN2-xTB          :
          :  restarted?                      false          :
          :  GBSA solvation                  false          :
          :  PC potential                    false          :
          :  electronic temp.          300.0000000     K    :
          :  accuracy                    1.0000000          :
          :  -> integral cutoff          0.2500000E+02      :
          :  -> integral neglect         0.1000000E-07      :
          :  -> SCF convergence          0.1000000E-05 Eh   :
          :  -> wf. convergence          0.1000000E-03 e    :
          :  Broyden damping             0.4000000          :
          :  net charge                          0          :
          :  unpaired electrons                  0          :
          ...................................................

 iter      E             dE          RMSdq      gap      omega  full diag
   1    -23.2625146 -0.232625E+02  0.335E+00    4.67       0.0  T
   2    -23.3242680 -0.617534E-01  0.169E+00    3.58       1.0  T
   3    -23.3323134 -0.804537E-02  0.112E+00    4.11       1.0  T
   4    -23.3357669 -0.345354E-02  0.194E-01    3.86       1.0  T
   5    -23.3359206 -0.153652E-03  0.734E-02    3.90       1.0  T
   6    -23.3359342 -0.135860E-04  0.281E-02    3.89       1.0  T
   7    -23.3359347 -0.591251E-06  0.881E-03    3.89       2.6  T
   8    -23.3359349 -0.172539E-06  0.199E-03    3.89      11.5  T
   9    -23.3359349 -0.426022E-08  0.104E-03    3.89      22.0  T
  10    -23.3359349 -0.254367E-08  0.224E-04    3.89     102.5  T
  11    -23.3359349 -0.111857E-09  0.397E-05    3.89     578.5  T

   *** convergence criteria satisfied after 11 iterations ***

         #    Occupation            Energy/Eh            Energy/eV
      -------------------------------------------------------------
         1        2.0000           -0.7043985             -19.1677
       ...           ...                  ...                  ...
        15        2.0000           -0.4724654             -12.8564
        16        2.0000           -0.4678880             -12.7319
        17        2.0000           -0.4645052             -12.6398
        18        2.0000           -0.4395447             -11.9606
        19        2.0000           -0.4373351             -11.9005
        20        2.0000           -0.4307248             -11.7206
        21        2.0000           -0.3928866             -10.6910 (HOMO)
        22                         -0.2497917              -6.7972 (LUMO)
        23                          0.0789191               2.1475
        24                          0.0882686               2.4019
        25                          0.1041610               2.8344
        26                          0.1173974               3.1945
       ...                                ...                  ...
        40                          0.5973169              16.2538
      -------------------------------------------------------------
                  HL-Gap            0.1430949 Eh            3.8938 eV
             Fermi-level           -0.3213392 Eh           -8.7441 eV

 SCC (total)                   0 d,  0 h,  0 min,  0.020 sec
 SCC setup                      ...        0 min,  0.000 sec (  2.309%)
 Dispersion                     ...        0 min,  0.000 sec (  1.238%)
 classical contributions        ...        0 min,  0.000 sec (  0.313%)
 integral evaluation            ...        0 min,  0.002 sec ( 12.557%)
 iterations                     ...        0 min,  0.013 sec ( 63.374%)
 molecular gradient             ...        0 min,  0.004 sec ( 19.474%)
 printout                       ...        0 min,  0.000 sec (  0.622%)

         :::::::::::::::::::::::::::::::::::::::::::::::::::::
         ::                     SUMMARY                     ::
         :::::::::::::::::::::::::::::::::::::::::::::::::::::
         :: total energy             -23.025536645542 Eh    ::
         :: gradient norm              0.025318162859 Eh/a0 ::
         :: HOMO-LUMO gap              3.893809209808 eV    ::
         ::.................................................::
         :: SCC energy               -23.335887361187 Eh    ::
         :: -> isotropic ES            0.029403830907 Eh    ::
         :: -> anisotropic ES          0.004090967385 Eh    ::
         :: -> anisotropic XC          0.010934783080 Eh    ::
         :: -> dispersion             -0.011776817664 Eh    ::
         :: repulsion energy           0.310350715645 Eh    ::
         :: add. restraining           0.000000000000 Eh    ::
         :: total charge               0.000000000000 e     ::
         :::::::::::::::::::::::::::::::::::::::::::::::::::::

           -------------------------------------------------
          |                Property Printout                |
           -------------------------------------------------

    * Orbital Energies and Occupations

         #    Occupation            Energy/Eh            Energy/eV
      -------------------------------------------------------------
         1        2.0000           -0.7043985             -19.1677
       ...           ...                  ...                  ...
         9        2.0000           -0.5297618             -14.4156
        10        2.0000           -0.5284301             -14.3793
        11        2.0000           -0.5095197             -13.8647
        12        2.0000           -0.5042985             -13.7227
        13        2.0000           -0.4827587             -13.1365
        14        2.0000           -0.4774742             -12.9927
        15        2.0000           -0.4724654             -12.8564
        16        2.0000           -0.4678880             -12.7319
        17        2.0000           -0.4645052             -12.6398
        18        2.0000           -0.4395447             -11.9606
        19        2.0000           -0.4373351             -11.9005
        20        2.0000           -0.4307248             -11.7206
        21        2.0000           -0.3928866             -10.6910 (HOMO)
        22                         -0.2497917              -6.7972 (LUMO)
        23                          0.0789191               2.1475
        24                          0.0882686               2.4019
        25                          0.1041610               2.8344
        26                          0.1173974               3.1945
        27                          0.1299201               3.5353
        28                          0.1385143               3.7692
        29                          0.1535841               4.1792
        30                          0.1754539               4.7743
        31                          0.1829577               4.9785
        32                          0.1985423               5.4026
       ...                                ...                  ...
        40                          0.5973169              16.2538
      -------------------------------------------------------------
                  HL-Gap            0.1430949 Eh            3.8938 eV
             Fermi-level           -0.3213392 Eh           -8.7441 eV

     #   Z          covCN         q      C6AA      α(0)
     1   6 C        3.751    -0.104    22.556     6.773
     2   6 C        3.800    -0.052    21.505     6.603
     3   6 C        3.802    -0.055    21.562     6.611
     4   6 C        3.803    -0.087    22.160     6.702
     5   6 C        2.811     0.243    22.935     7.846
     6   8 O        0.857    -0.367    21.032     6.149
     7   6 C        3.754    -0.137    23.200     6.868
     8   1 H        0.925     0.034     2.525     2.485
     9   1 H        0.925     0.034     2.532     2.489
    10   1 H        0.925     0.046     2.375     2.410
    11   1 H        0.924     0.030     2.588     2.516
    12   1 H        0.924     0.030     2.587     2.515
    13   1 H        0.924     0.034     2.536     2.490
    14   1 H        0.924     0.040     2.443     2.444
    15   1 H        0.924     0.063     2.161     2.299
    16   1 H        0.924     0.052     2.299     2.371
    17   1 H        0.925     0.058     2.221     2.330
    18   1 H        0.925     0.072     2.067     2.248
    19   1 H        0.925     0.067     2.119     2.276

 Mol. C6AA /au·bohr⁶  :       2629.757028
 Mol. C8AA /au·bohr⁸  :      56050.183235
 Mol. α(0) /au        :         76.426348


Wiberg/Mayer (AO) data.
largest (>0.10) Wiberg bond orders for each atom

 ---------------------------------------------------------------------------
     #   Z sym  total        # sym  WBO       # sym  WBO       # sym  WBO
 ---------------------------------------------------------------------------
     1   6 C    3.996 --     2 C    1.020     9 H    0.988     8 H    0.987
                            10 H    0.986
     2   6 C    3.998 --     1 C    1.020     3 C    1.008    12 H    0.978
                            11 H    0.977
     3   6 C    3.996 --     2 C    1.008     4 C    0.986    13 H    0.977
                            14 H    0.976
     4   6 C    3.995 --     5 C    0.992     3 C    0.986    15 H    0.972
                            16 H    0.955
     5   6 C    3.917 --     6 O    1.859     7 C    1.010     4 C    0.992
     6   8 O    2.058 --     5 C    1.859
     7   6 C    3.995 --     5 C    1.010    19 H    0.981    17 H    0.972
                            18 H    0.951
     8   1 H    0.999 --     1 C    0.987
     9   1 H    0.999 --     1 C    0.988
    10   1 H    0.998 --     1 C    0.986
    11   1 H    0.999 --     2 C    0.977
    12   1 H    0.999 --     2 C    0.978
    13   1 H    0.999 --     3 C    0.977
    14   1 H    0.998 --     3 C    0.976
    15   1 H    0.996 --     4 C    0.972
    16   1 H    0.997 --     4 C    0.955
    17   1 H    0.997 --     7 C    0.972
    18   1 H    0.995 --     7 C    0.951
    19   1 H    0.996 --     7 C    0.981
 ---------------------------------------------------------------------------

Topologies differ in total number of bonds
Writing topology from bond orders to xtbtopo.mol

molecular dipole:
                 x           y           z       tot (Debye)
 q only:        0.226       1.089       0.192
   full:        0.222       1.300       0.232       3.402
molecular quadrupole (traceless):
                xx          xy          yy          xz          yz          zz
 q only:        1.090      -4.631      -2.766       0.231      -0.877       1.676
  q+dip:        1.252      -5.211      -3.768       0.363      -0.828       2.516
   full:        1.486      -5.296      -4.111      -0.399      -0.997       2.624


           -------------------------------------------------
          | TOTAL ENERGY              -23.025536645542 Eh   |
          | GRADIENT NORM               0.025318162859 Eh/α |
          | HOMO-LUMO GAP               3.893809209808 eV   |
           -------------------------------------------------

------------------------------------------------------------------------
 * finished run on 2025/04/11 at 16:09:18.057     
------------------------------------------------------------------------
 total:
 * wall-time:     0 d,  0 h,  0 min,  0.054 sec
 *  cpu-time:     0 d,  0 h,  0 min,  0.033 sec
 * ratio c/w:     0.609 speedup
 SCF:
 * wall-time:     0 d,  0 h,  0 min,  0.020 sec
 *  cpu-time:     0 d,  0 h,  0 min,  0.019 sec
 * ratio c/w:     0.963 speedup

