! pbe def2-sv(p) def2/J RI DEFGRID1 loosescf d4 GCP(DFT/SV(P)) printgap
%output
    printlevel normal
end
* xyz 0 1
C 1.9486995196 -0.7165479326 0.1467976443
C 1.1250524741 0.3482393971 -0.5690602226
C 0.0254614368 0.9496281581 0.3091614234
C -1.1124636187 -0.0252971197 0.6549197461
N -1.9119368267 -0.4859076619 -0.469730933
H 2.7550535533 -1.0625468359 -0.495575189
H 2.3839713795 -0.3096560113 1.0567962411
H 1.3358718707 -1.5739350835 0.4128734838
H 1.7901531413 1.1549264201 -0.8864224824
H 0.6840120905 -0.0798065733 -1.4729118496
H 0.4681007549 1.3058836581 1.2413296225
H -0.4050164956 1.8137099656 -0.205514595
H -1.7939295362 0.4697122687 1.3532010277
H -0.7090597124 -0.908017072 1.1555402718
H -1.3258465367 -0.9977396373 -1.1206202466
H -2.2891012005 0.3140455108 -0.9676603069
*
