      -----------------------------------------------------------      
     |                   =====================                   |     
     |                           x T B                           |     
     |                   =====================                   |     
     |                         S. Grimme                         |     
     |          Mulliken Center for Theoretical Chemistry        |     
     |                    University of Bonn                     |     
      -----------------------------------------------------------      

   * xtb version 6.7.1 (edcfbbe) compiled by 'albert@albert-system' on 2024-07-22

   xtb is free software: you can redistribute it and/or modify it under
   the terms of the GNU Lesser General Public License as published by
   the Free Software Foundation, either version 3 of the License, or
   (at your option) any later version.
   
   xtb is distributed in the hope that it will be useful,
   but WITHOUT ANY WARRANTY; without even the implied warranty of
   MERCHANTABILITY or FITNESS FOR A PARTICULAR PURPOSE.  See the
   GNU Lesser General Public License for more details.
   
   Cite this work as:
   * C. Bannwarth, E. Caldeweyher, S. Ehlert, A. Hansen, P. Pracht,
     J. Seibert, S. Spicher, S. Grimme, WIREs Comput. Mol. Sci., 2020, 11,
     e01493. DOI: 10.1002/wcms.1493
   
   for GFN2-xTB:
   * C. Bannwarth, S. Ehlert and S. Grimme., J. Chem. Theory Comput., 2019,
     15, 1652-1671. DOI: 10.1021/acs.jctc.8b01176
   for GFN1-xTB:
   * S. Grimme, C. Bannwarth, P. Shushkov, J. Chem. Theory Comput., 2017,
     13, 1989-2009. DOI: 10.1021/acs.jctc.7b00118
   for GFN0-xTB:
   * P. Pracht, E. Caldeweyher, S. Ehlert, S. Grimme, ChemRxiv, 2019, preprint.
     DOI: 10.26434/chemrxiv.8326202.v1
   for GFN-FF:
   * S. Spicher and S. Grimme, Angew. Chem. Int. Ed., 2020, 59, 15665-15673.
     DOI: 10.1002/anie.202004239
   
   for ALPB and GBSA implicit solvation:
   * S. Ehlert, M. Stahn, S. Spicher, S. Grimme, J. Chem. Theory Comput.,
     2021, 17, 4250-4261. DOI: 10.1021/acs.jctc.1c00471
   
   for ddCOSMO and CPCM-X implicit solvation:
   * M. Stahn, S. Ehlert, S. Grimme, J. Phys. Chem. A,
     2023, XX, XXXX-XXXX. DOI: 10.1021/acs.jpca.3c04382
   
   for DFT-D4:
   * E. Caldeweyher, C. Bannwarth and S. Grimme, J. Chem. Phys., 2017,
     147, 034112. DOI: 10.1063/1.4993215
   * E. Caldeweyher, S. Ehlert, A. Hansen, H. Neugebauer, S. Spicher,
     C. Bannwarth and S. Grimme, J. Chem. Phys., 2019, 150, 154122.
     DOI: 10.1063/1.5090222
   * E. Caldeweyher, J.-M. Mewes, S. Ehlert and S. Grimme, Phys. Chem. Chem. Phys.
     2020, 22, 8499-8512. DOI: 10.1039/D0CP00502A
   
   for sTDA-xTB:
   * S. Grimme and C. Bannwarth, J. Chem. Phys., 2016, 145, 054103.
     DOI: 10.1063/1.4959605
   
   in the mass-spec context:
   * V. Asgeirsson, C. Bauer and S. Grimme, Chem. Sci., 2017, 8, 4879.
     DOI: 10.1039/c7sc00601b
   * J. Koopman and S. Grimme, ACS Omega 2019, 4, 12, 15120-15133.
     DOI: 10.1021/acsomega.9b02011
   
   for metadynamics refer to:
   * S. Grimme, J. Chem. Theory Comput., 2019, 155, 2847-2862
     DOI: 10.1021/acs.jctc.9b00143
   
   for SPH calculations refer to:
   * S. Spicher and S. Grimme, J. Chem. Theory Comput., 2021, 17, 1701-1714
     DOI: 10.1021/acs.jctc.0c01306
   
   for ONIOM refer to:
   * C. Plett, A. Katbashev, S. Ehlert, S. Grimme, M. Bursch,
     Phys. Chem. Chem. Phys., 2023, 25, 17860-17868. DOI: 10.1039/D3CP02178E
   
   for DIPRO refer to:
   * J. Kohn, N. Gildemeister, S. Grimme, D. Fazzi, A. Hansen,
     J. Chem. Phys., 2023, just accepted.
   
   for PTB refer to:
   * S. Grimme, M. Mueller, A. Hansen, J. Chem. Phys., 2023, 158, 124111.
     DOI: 10.1063/5.0137838
   
   with help from (in alphabetical order)
   P. Atkinson, C. Bannwarth, F. Bohle, G. Brandenburg, E. Caldeweyher
   M. Checinski, S. Dohm, S. Ehlert, S. Ehrlich, I. Gerasimov, C. Hölzer
   A. Katbashev, J. Kohn, J. Koopman, C. Lavigne, S. Lehtola, F. März, M. Müller,
   F. Musil, H. Neugebauer, J. Pisarek, C. Plett, P. Pracht, F. Pultar,
   J. Seibert, P. Shushkov, S. Spicher, M. Stahn, M. Steiner, T. Strunk,
   J. Stückrath, T. Rose, and J. Unsleber
   
 * started run on 2025/04/11 at 16:05:25.455     
   ID    Z sym.   atoms
    1    6 C      1, 3-8, 11, 13
    2    8 O      2, 9, 10, 14
    3   17 Cl     12
    4    1 H      15-23

           -------------------------------------------------
          |                Calculation Setup                |
           -------------------------------------------------

          program call               : /srv/scratch/z5358697/.xtb/bin/xtb solv.coord --gfn2 --sp --chrg 0 --norestart --parallel 1 --alpb water reference -I xtb_sp-xcontrol-inp
          hostname                   : k071
          coordinate file            : solv.coord
          omp threads                :                     1


           -------------------------------------------------
          |                 G F N 2 - x T B                 |
           -------------------------------------------------

        Reference                      10.1021/acs.jctc.8b01176
      * Hamiltonian:
        H0-scaling (s, p, d)           1.850000    2.230000    2.230000
        zeta-weighting                 0.500000
      * Dispersion:
        s8                             2.700000
        a1                             0.520000
        a2                             5.000000
        s9                             5.000000
      * Repulsion:
        kExp                           1.500000    1.000000
        rExp                           1.000000
      * Coulomb:
        alpha                          2.000000
        third order                    shell-resolved
        anisotropic                    true
        a3                             3.000000
        a5                             4.000000
        cn-shift                       1.200000
        cn-exp                         4.000000
        max-rad                        5.000000

      * Solvation model:               ALPB
        Solvent                        water
        Parameter file                 internal GFN2-xTB/ALPB
        Dielectric constant                8.0200E+01
        Reference state                gsolv=reference [X=1]
        Free energy shift                  2.8945E-03 Eh       1.8164E+00 kcal/mol
        Temperature                        2.9815E+02 K
        Density                            1.0000E+00 kg/L
        Solvent mass                       1.8000E+01 g/mol
        Interaction kernel             P16
        Born radius scaling (c1)           1.4744E+00
        Born radii integrator          GBOBC
        Born offset                        0.0000E+00 a0       0.0000E+00 AA
        H-bond correction              true
        Ion screening                  false
        Surface tension                    1.0000E-05 Eh       1.5569E+01 dyn/cm
        Grid points                               974 per atom

          ...................................................
          :                      SETUP                      :
          :.................................................:
          :  # basis functions                  71          :
          :  # atomic orbitals                  70          :
          :  # shells                           38          :
          :  # electrons                        76          :
          :  max. iterations                   250          :
          :  Hamiltonian                  GFN2-xTB          :
          :  restarted?                      false          :
          :  GBSA solvation                   true          :
          :  PC potential                    false          :
          :  electronic temp.          300.0000000     K    :
          :  accuracy                    1.0000000          :
          :  -> integral cutoff          0.2500000E+02      :
          :  -> integral neglect         0.1000000E-07      :
          :  -> SCF convergence          0.1000000E-05 Eh   :
          :  -> wf. convergence          0.1000000E-03 e    :
          :  Broyden damping             0.4000000          :
          :  net charge                          0          :
          :  unpaired electrons                  0          :
          ...................................................

 iter      E             dE          RMSdq      gap      omega  full diag
   1    -45.0508449 -0.450508E+02  0.546E+00    2.55       0.0  T
   2    -45.1043494 -0.535046E-01  0.274E+00    2.28       1.0  T
   3    -45.1040701  0.279306E-03  0.114E+00    2.53       1.0  T
   4    -45.1078560 -0.378591E-02  0.244E-01    2.35       1.0  T
   5    -45.1082905 -0.434476E-03  0.142E-01    2.40       1.0  T
   6    -45.1083453 -0.547708E-04  0.983E-02    2.38       1.0  T
   7    -45.1084216 -0.763797E-04  0.549E-02    2.38       1.0  T
   8    -45.1084399 -0.182978E-04  0.353E-02    2.37       1.0  T
   9    -45.1084507 -0.107198E-04  0.186E-02    2.37       1.1  T
  10    -45.1084545 -0.382685E-05  0.721E-03    2.36       2.9  T
  11    -45.1084547 -0.246990E-06  0.416E-03    2.36       5.0  T
  12    -45.1084548 -0.969159E-07  0.253E-03    2.36       8.2  T
  13    -45.1084549 -0.474883E-07  0.164E-03    2.36      12.7  T
  14    -45.1084549 -0.188546E-07  0.996E-04    2.36      20.9  T
  15    -45.1084549 -0.909355E-08  0.520E-04    2.36      40.1  T

   *** convergence criteria satisfied after 15 iterations ***

         #    Occupation            Energy/Eh            Energy/eV
      -------------------------------------------------------------
         1        2.0000           -1.0681896             -29.0669
       ...           ...                  ...                  ...
        32        2.0000           -0.4621829             -12.5766
        33        2.0000           -0.4517823             -12.2936
        34        2.0000           -0.4411577             -12.0045
        35        2.0000           -0.4315074             -11.7419
        36        2.0000           -0.4036545             -10.9840
        37        2.0000           -0.3921617             -10.6713
        38        2.0000           -0.3874650             -10.5435 (HOMO)
        39                         -0.3005722              -8.1790 (LUMO)
        40                         -0.2384040              -6.4873
        41                         -0.2055380              -5.5930
        42                         -0.1519025              -4.1335
        43                         -0.1096479              -2.9837
       ...                                ...                  ...
        70                          0.6486841              17.6516
      -------------------------------------------------------------
                  HL-Gap            0.0868928 Eh            2.3645 eV
             Fermi-level           -0.3440186 Eh           -9.3612 eV

 SCC (total)                   0 d,  0 h,  0 min,  0.033 sec
 SCC setup                      ...        0 min,  0.001 sec (  4.499%)
 Dispersion                     ...        0 min,  0.000 sec (  0.500%)
 classical contributions        ...        0 min,  0.000 sec (  0.082%)
 integral evaluation            ...        0 min,  0.004 sec ( 13.228%)
 iterations                     ...        0 min,  0.017 sec ( 51.321%)
 molecular gradient             ...        0 min,  0.010 sec ( 29.826%)
 printout                       ...        0 min,  0.000 sec (  0.502%)

         :::::::::::::::::::::::::::::::::::::::::::::::::::::
         ::                     SUMMARY                     ::
         :::::::::::::::::::::::::::::::::::::::::::::::::::::
         :: total energy             -44.658250541711 Eh    ::
         :: total w/o Gsasa/hb       -44.656100452760 Eh    ::
         :: gradient norm              0.000103882686 Eh/a0 ::
         :: HOMO-LUMO gap              2.364474304528 eV    ::
         ::.................................................::
         :: SCC energy               -45.108393317793 Eh    ::
         :: -> isotropic ES            0.092793048543 Eh    ::
         :: -> anisotropic ES          0.000281737415 Eh    ::
         :: -> anisotropic XC          0.000978588741 Eh    ::
         :: -> dispersion             -0.022384667307 Eh    ::
         :: -> Gsolv                  -0.020979799100 Eh    ::
         ::    -> Gelec               -0.018829710149 Eh    ::
         ::    -> Gsasa                0.002734971181 Eh    ::
         ::    -> Ghb                 -0.007779609292 Eh    ::
         ::    -> Gshift               0.002894549160 Eh    ::
         :: repulsion energy           0.450142776082 Eh    ::
         :: add. restraining           0.000000000000 Eh    ::
         :: total charge               0.000000000000 e     ::
         :::::::::::::::::::::::::::::::::::::::::::::::::::::

           -------------------------------------------------
          |                Property Printout                |
           -------------------------------------------------

    * Orbital Energies and Occupations

         #    Occupation            Energy/Eh            Energy/eV
      -------------------------------------------------------------
         1        2.0000           -1.0681896             -29.0669
       ...           ...                  ...                  ...
        26        2.0000           -0.5008603             -13.6291
        27        2.0000           -0.4950088             -13.4699
        28        2.0000           -0.4902798             -13.3412
        29        2.0000           -0.4759514             -12.9513
        30        2.0000           -0.4710487             -12.8179
        31        2.0000           -0.4662938             -12.6885
        32        2.0000           -0.4621829             -12.5766
        33        2.0000           -0.4517823             -12.2936
        34        2.0000           -0.4411577             -12.0045
        35        2.0000           -0.4315074             -11.7419
        36        2.0000           -0.4036545             -10.9840
        37        2.0000           -0.3921617             -10.6713
        38        2.0000           -0.3874650             -10.5435 (HOMO)
        39                         -0.3005722              -8.1790 (LUMO)
        40                         -0.2384040              -6.4873
        41                         -0.2055380              -5.5930
        42                         -0.1519025              -4.1335
        43                         -0.1096479              -2.9837
        44                         -0.0175903              -0.4787
        45                          0.0023494               0.0639
        46                          0.0079981               0.2176
        47                          0.0082504               0.2245
        48                          0.0190974               0.5197
        49                          0.0254216               0.6918
       ...                                ...                  ...
        70                          0.6486841              17.6516
      -------------------------------------------------------------
                  HL-Gap            0.0868928 Eh            2.3645 eV
             Fermi-level           -0.3440186 Eh           -9.3612 eV

     #   Z          covCN         q      C6AA      α(0)
     1   6 C        3.642     0.004    20.863     6.567
     2   8 O        1.705    -0.273    18.531     5.812
     3   6 C        2.855     0.113    25.510     8.278
     4   6 C        2.925    -0.078    29.945     8.974
     5   6 C        3.000    -0.036    28.894     8.818
     6   6 C        2.880     0.065    26.532     8.444
     7   6 C        2.871     0.119    25.386     8.259
     8   6 C        2.849     0.124    25.264     8.238
     9   8 O        1.659    -0.388    20.609     6.128
    10   8 O        1.706    -0.260    18.312     5.778
    11   6 C        3.635     0.010    20.796     6.563
    12  17 Cl       0.956    -0.163   104.256    15.621
    13   6 C        2.771     0.215    23.462     7.933
    14   8 O        0.857    -0.425    22.189     6.316
    15   1 H        0.924     0.066     2.127     2.281
    16   1 H        0.925     0.098     1.802     2.099
    17   1 H        0.924     0.066     2.131     2.283
    18   1 H        0.926     0.089     1.891     2.151
    19   1 H        0.804     0.405     0.476     1.084
    20   1 H        0.925     0.093     1.851     2.128
    21   1 H        0.925     0.060     2.199     2.319
    22   1 H        0.924     0.065     2.136     2.286
    23   1 H        0.922     0.031     2.572     2.508

 Mol. C6AA /au·bohr⁶  :       7248.180401
 Mol. C8AA /au·bohr⁸  :     184915.287625
 Mol. α(0) /au        :        130.866260


Wiberg/Mayer (AO) data.
largest (>0.10) Wiberg bond orders for each atom

 ---------------------------------------------------------------------------
     #   Z sym  total        # sym  WBO       # sym  WBO       # sym  WBO
 ---------------------------------------------------------------------------
     1   6 C    3.916 --    17 H    0.976    15 H    0.976    16 H    0.975
                             2 O    0.960
     2   8 O    2.226 --     3 C    1.072     1 C    0.960
     3   6 C    3.948 --     4 C    1.419     8 C    1.266     2 O    1.072
     4   6 C    3.981 --     3 C    1.419     5 C    1.320    18 H    0.955
     5   6 C    3.983 --     4 C    1.320     6 C    1.311    13 C    1.118
     6   6 C    3.910 --     7 C    1.359     5 C    1.311    12 Cl   0.979
     7   6 C    3.950 --     6 C    1.359     8 C    1.279    10 O    1.087
     8   6 C    3.956 --     7 C    1.279     3 C    1.266     9 O    1.143
     9   8 O    2.139 --     8 C    1.143    19 H    0.812
    10   8 O    2.232 --     7 C    1.087    11 C    0.955
    11   6 C    3.919 --    21 H    0.981    22 H    0.976    20 H    0.974
                            10 O    0.955
    12  17 Cl   1.134 --     6 C    0.979
    13   6 C    3.913 --    14 O    1.779     5 C    1.118    23 H    0.931
    14   8 O    2.006 --    13 C    1.779
    15   1 H    0.995 --     1 C    0.976
    16   1 H    0.990 --     1 C    0.975
    17   1 H    0.995 --     1 C    0.976
    18   1 H    0.992 --     4 C    0.955
    19   1 H    0.836 --     9 O    0.812
    20   1 H    0.990 --    11 C    0.974
    21   1 H    0.996 --    11 C    0.981
    22   1 H    0.994 --    11 C    0.976
    23   1 H    0.998 --    13 C    0.931
 ---------------------------------------------------------------------------

Topologies differ in total number of bonds
Writing topology from bond orders to xtbtopo.mol

molecular dipole:
                 x           y           z       tot (Debye)
 q only:       -3.005       1.427      -0.319
   full:       -2.883       0.814      -0.333       7.663
molecular quadrupole (traceless):
                xx          xy          yy          xz          yz          zz
 q only:       15.101      16.859     -11.768      -1.650      -2.293      -3.333
  q+dip:       15.194      16.073     -12.953      -0.807      -2.603      -2.241
   full:       15.593      16.259     -14.895      -1.141      -2.822      -0.699


           -------------------------------------------------
          | TOTAL ENERGY              -44.658250541711 Eh   |
          | GRADIENT NORM               0.000103882686 Eh/α |
          | HOMO-LUMO GAP               2.364474304528 eV   |
           -------------------------------------------------

------------------------------------------------------------------------
 * finished run on 2025/04/11 at 16:05:25.564     
------------------------------------------------------------------------
 total:
 * wall-time:     0 d,  0 h,  0 min,  0.109 sec
 *  cpu-time:     0 d,  0 h,  0 min,  0.042 sec
 * ratio c/w:     0.390 speedup
 SCF:
 * wall-time:     0 d,  0 h,  0 min,  0.033 sec
 *  cpu-time:     0 d,  0 h,  0 min,  0.033 sec
 * ratio c/w:     0.993 speedup

