 Entering Gaussian System
 *********************************************
 Gaussian 98:
 frequency output generated by the xtb code
 *********************************************
                         Standard orientation:
 --------------------------------------------------------------------
  Center     Atomic     Atomic              Coordinates (Angstroms)
  Number     Number      Type              X           Y           Z
 --------------------------------------------------------------------
    1          6             0        2.974323   -0.005309   -0.642082
    2          6             0        1.629481   -0.390506   -0.037049
    3          6             0        0.863394    0.836429    0.451812
    4          6             0       -0.484776    0.469376    1.091596
    5          6             0       -1.399965   -0.199155    0.095221
    6          8             0       -1.554525   -1.405467    0.067955
    7          6             0       -2.109329    0.722772   -0.850608
    8          1             0        3.506096   -0.890295   -0.981640
    9          1             0        2.834177    0.658216   -1.492342
   10          1             0        3.590264    0.505176    0.094613
   11          1             0        1.787836   -1.073994    0.800002
   12          1             0        1.032233   -0.923559   -0.780915
   13          1             0        0.703017    1.518812   -0.384546
   14          1             0        1.464716    1.359119    1.197778
   15          1             0       -0.309560   -0.218411    1.920516
   16          1             0       -0.960071    1.376662    1.463532
   17          1             0       -1.428042    1.475805   -1.234508
   18          1             0       -2.554364    0.160621   -1.666837
   19          1             0       -2.898751    1.232604   -0.301538
 --------------------------------------------------------------------
     1 basis functions        1 primitive gaussians
     1 alpha electrons        1 beta electrons
 
 Harmonic frequencies (cm**-1), IR intensities (km*mol⁻¹),
 Raman scattering activities (A**4/amu), Raman depolarization ratios,
 reduced masses (AMU), force constants (mDyne/A) and normal coordinates:
                      1                      2                      3
                        a                      a                      a 
 Frequencies --    24.8671                69.1429                93.6247
 Red. masses --     9.2718                 7.0125                 7.5141
 Frc consts  --     0.0000                 0.0000                 0.0000
 IR Inten    --     6.4632                 0.4370                 4.1641
 Raman Activ --     0.0000                 0.0000                 0.0000
 Depolar     --     0.0000                 0.0000                 0.0000
 Atom AN      X      Y      Z        X      Y      Z        X      Y      Z
   1   6    -0.04   0.16  -0.05     0.23  -0.11   0.37    -0.26  -0.18  -0.13
   2   6    -0.12   0.10  -0.27    -0.16   0.04  -0.40    -0.28  -0.00  -0.05
   3   6     0.02   0.00   0.18     0.01   0.05  -0.16    -0.01   0.06   0.20
   4   6     0.01  -0.10   0.09     0.03   0.10  -0.07    -0.09   0.17   0.12
   5   6     0.02  -0.06   0.05    -0.01   0.01   0.04     0.14   0.04   0.01
   6   8    -0.34  -0.03   0.33     0.15  -0.01   0.05     0.42   0.01  -0.04
   7   6     0.41  -0.09  -0.27    -0.24  -0.06   0.14     0.13  -0.08  -0.09
   8   1    -0.04   0.07  -0.11     0.01  -0.03   0.02    -0.14  -0.07  -0.10
   9   1     0.03   0.16   0.06     0.24   0.13   0.20    -0.06   0.01   0.01
  10   1    -0.00  -0.07   0.05     0.03  -0.22   0.27    -0.02  -0.13  -0.03
  11   1    -0.07  -0.08  -0.16    -0.21  -0.11  -0.18    -0.10  -0.05  -0.05
  12   1    -0.04   0.14  -0.15    -0.00   0.16  -0.26    -0.13   0.07  -0.03
  13   1     0.02   0.09   0.12     0.00   0.05  -0.01     0.03   0.07   0.10
  14   1     0.02  -0.09   0.10     0.04  -0.04  -0.04     0.03  -0.06   0.09
  15   1    -0.00  -0.05   0.01     0.02   0.05  -0.01    -0.06   0.08   0.06
  16   1    -0.01  -0.04   0.04     0.02   0.04  -0.03    -0.04   0.06  -0.02
  17   1     0.21  -0.13  -0.14    -0.09  -0.02  -0.01    -0.06   0.18   0.21
  18   1     0.08  -0.05  -0.04    -0.11  -0.03   0.07     0.31  -0.01  -0.18
  19   1     0.17   0.11  -0.14    -0.04  -0.02   0.08    -0.19  -0.28  -0.11
                      4                      5                      6
                        a                      a                      a 
 Frequencies --    97.4557               217.1176               240.2944
 Red. masses --     5.4256                 5.5982                 4.6693
 Frc consts  --     0.0000                 0.0000                 0.0000
 IR Inten    --     0.3104                 0.7472                 0.3805
 Raman Activ --     0.0000                 0.0000                 0.0000
 Depolar     --     0.0000                 0.0000                 0.0000
 Atom AN      X      Y      Z        X      Y      Z        X      Y      Z
   1   6    -0.18  -0.10  -0.08     0.07   0.09  -0.12    -0.06  -0.11   0.02
   2   6    -0.15  -0.01   0.06     0.23  -0.10   0.16    -0.04   0.12   0.18
   3   6    -0.01   0.03   0.17     0.22  -0.13   0.23    -0.21   0.20  -0.28
   4   6    -0.09   0.11   0.07    -0.04   0.12  -0.15     0.05  -0.11   0.06
   5   6     0.06   0.02  -0.01    -0.08   0.06  -0.10     0.05  -0.08   0.05
   6   8     0.41  -0.01  -0.18    -0.09   0.06   0.07    -0.01  -0.08  -0.09
   7   6    -0.02  -0.04  -0.01    -0.30  -0.10  -0.10     0.21   0.07   0.07
   8   1    -0.08  -0.04  -0.04    -0.12   0.08  -0.40    -0.23  -0.03  -0.32
   9   1    -0.07  -0.02  -0.01    -0.05   0.31   0.20     0.00   0.24   0.21
  10   1    -0.02  -0.05  -0.04     0.19  -0.27   0.03     0.17  -0.36   0.07
  11   1    -0.03  -0.01   0.01     0.13  -0.03   0.03     0.00   0.13   0.13
  12   1    -0.07   0.02   0.03     0.04  -0.03   0.07    -0.01  -0.05   0.11
  13   1     0.02   0.04   0.07     0.15   0.00   0.08    -0.16  -0.07  -0.17
  14   1     0.00  -0.03   0.07     0.03  -0.09   0.13    -0.07   0.21  -0.18
  15   1    -0.05   0.04   0.03    -0.10   0.06   0.00     0.11  -0.06  -0.02
  16   1    -0.03   0.04  -0.01     0.01   0.08  -0.11    -0.02  -0.08   0.09
  17   1     0.12  -0.30  -0.35    -0.13  -0.00  -0.06     0.09  -0.00   0.04
  18   1    -0.35  -0.07   0.23    -0.08  -0.07  -0.00     0.05   0.06   0.00
  19   1     0.29   0.35   0.08    -0.10  -0.06  -0.02     0.08   0.05   0.02
                      7                      8                      9
                        a                      a                      a 
 Frequencies --   263.9054               383.0580               418.7756
 Red. masses --     8.6600                 8.0096                 9.1330
 Frc consts  --     0.0000                 0.0000                 0.0000
 IR Inten    --     0.3483                 2.5911                 0.3888
 Raman Activ --     0.0000                 0.0000                 0.0000
 Depolar     --     0.0000                 0.0000                 0.0000
 Atom AN      X      Y      Z        X      Y      Z        X      Y      Z
   1   6    -0.15   0.32   0.11    -0.07   0.04   0.02     0.39  -0.11  -0.20
   2   6    -0.02  -0.40  -0.07    -0.04  -0.01   0.03     0.24   0.15  -0.12
   3   6    -0.12  -0.40  -0.24     0.09   0.05   0.01    -0.24  -0.12   0.05
   4   6    -0.09   0.13   0.10    -0.10   0.23  -0.32    -0.38   0.12   0.19
   5   6    -0.03   0.10   0.12     0.07  -0.31  -0.12    -0.29  -0.02   0.22
   6   8     0.21   0.09   0.05    -0.13  -0.34   0.03     0.09  -0.07  -0.08
   7   6     0.14   0.09  -0.01     0.20   0.16   0.28     0.07   0.05   0.02
   8   1     0.08   0.21  -0.08    -0.00   0.03  -0.00     0.02  -0.11  -0.02
   9   1    -0.12   0.18   0.12    -0.04   0.02   0.01     0.18  -0.06  -0.09
  10   1    -0.12   0.08   0.10    -0.03   0.02   0.01     0.17  -0.07  -0.08
  11   1     0.04  -0.10  -0.01    -0.02  -0.01   0.00     0.09   0.03  -0.05
  12   1     0.06  -0.16  -0.04    -0.02   0.01   0.00     0.10   0.02  -0.05
  13   1    -0.06  -0.19  -0.13     0.12   0.05   0.01    -0.10  -0.03   0.02
  14   1     0.01  -0.05  -0.15     0.00  -0.04   0.06    -0.10  -0.01   0.02
  15   1    -0.06   0.09   0.08    -0.09   0.25   0.07    -0.16   0.13   0.14
  16   1     0.05   0.11  -0.05    -0.09   0.13  -0.33    -0.06   0.11  -0.07
  17   1     0.08   0.00   0.01     0.12   0.05   0.19     0.12  -0.04   0.07
  18   1     0.07   0.02  -0.02    -0.03   0.24  -0.00     0.08   0.04  -0.04
  19   1     0.03   0.06  -0.05     0.13   0.03   0.20    -0.00   0.09  -0.10
                     10                     11                     12
                        a                      a                      a 
 Frequencies --   507.9194               586.3802               769.6970
 Red. masses --    11.1875                 8.0654                 3.4408
 Frc consts  --     0.0000                 0.0000                 0.0000
 IR Inten    --    23.5603                 1.0092                15.8437
 Raman Activ --     0.0000                 0.0000                 0.0000
 Depolar     --     0.0000                 0.0000                 0.0000
 Atom AN      X      Y      Z        X      Y      Z        X      Y      Z
   1   6     0.03  -0.02  -0.01    -0.10   0.01   0.05     0.01   0.00  -0.03
   2   6     0.02   0.02   0.01    -0.03  -0.02   0.05    -0.07  -0.00  -0.16
   3   6    -0.13  -0.06   0.01     0.24   0.13  -0.07    -0.17  -0.02  -0.15
   4   6    -0.14  -0.22  -0.21     0.16  -0.00  -0.21    -0.12   0.01  -0.13
   5   6    -0.11   0.03  -0.28    -0.54  -0.03   0.33     0.08   0.09   0.05
   6   8     0.39  -0.05   0.53     0.14  -0.14  -0.11    -0.02   0.14  -0.02
   7   6    -0.08   0.30  -0.12    -0.07   0.03   0.00     0.14  -0.13   0.15
   8   1    -0.01  -0.02  -0.00     0.00   0.03  -0.00     0.02  -0.01   0.05
   9   1     0.02  -0.01  -0.01    -0.06   0.02   0.03     0.19   0.06   0.01
  10   1     0.02  -0.01  -0.01    -0.05   0.02   0.02    -0.09  -0.08   0.13
  11   1     0.01   0.02   0.01    -0.03   0.02   0.03     0.19   0.32   0.19
  12   1     0.02  -0.02   0.01    -0.04  -0.00   0.03     0.03  -0.38   0.19
  13   1    -0.01   0.02   0.03     0.19   0.11   0.02     0.14   0.31   0.18
  14   1    -0.08  -0.04   0.06     0.04  -0.06   0.08    -0.02  -0.36   0.19
  15   1    -0.04  -0.21  -0.18     0.16  -0.04  -0.11     0.04  -0.05  -0.10
  16   1    -0.02  -0.12   0.11     0.09  -0.03   0.07    -0.02  -0.03   0.05
  17   1     0.04   0.09   0.07     0.23  -0.14   0.14    -0.01  -0.01   0.00
  18   1    -0.08   0.25  -0.11     0.15   0.02  -0.10     0.04  -0.10   0.08
  19   1     0.04   0.09   0.05    -0.09   0.20  -0.29     0.03  -0.07   0.06
                     13                     14                     15
                        a                      a                      a 
 Frequencies --   823.2606               861.2224               909.4891
 Red. masses --     7.2360                 6.0605                 4.3590
 Frc consts  --     0.0000                 0.0000                 0.0000
 IR Inten    --     1.8750                 0.6041                 2.9162
 Raman Activ --     0.0000                 0.0000                 0.0000
 Depolar     --     0.0000                 0.0000                 0.0000
 Atom AN      X      Y      Z        X      Y      Z        X      Y      Z
   1   6     0.02   0.01   0.06     0.18  -0.06  -0.04     0.02  -0.04  -0.18
   2   6     0.07   0.02   0.16     0.06  -0.29   0.03    -0.02  -0.12  -0.06
   3   6    -0.16  -0.08  -0.05     0.00   0.26  -0.07     0.12   0.12   0.24
   4   6    -0.15  -0.09  -0.39    -0.23   0.35   0.20    -0.15   0.03  -0.16
   5   6     0.03   0.18   0.08    -0.07  -0.05  -0.06    -0.05   0.09  -0.08
   6   8     0.03   0.27  -0.02    -0.06  -0.08  -0.04     0.01   0.13  -0.00
   7   6     0.21  -0.20   0.30     0.06  -0.11  -0.07     0.07  -0.19   0.19
   8   1    -0.08  -0.02  -0.07     0.19   0.12  -0.14     0.19   0.06   0.06
   9   1    -0.21  -0.07  -0.01    -0.18   0.01   0.04     0.26   0.11   0.01
  10   1     0.17   0.07  -0.17     0.03   0.08  -0.07    -0.27  -0.07   0.23
  11   1    -0.19  -0.19  -0.08    -0.11  -0.12  -0.00     0.22  -0.07  -0.09
  12   1     0.09   0.22  -0.18     0.06  -0.01  -0.08    -0.25   0.02   0.14
  13   1     0.09  -0.02  -0.04     0.15   0.11  -0.01    -0.06  -0.23  -0.14
  14   1    -0.19  -0.02   0.10     0.05  -0.04   0.02    -0.04   0.33  -0.09
  15   1    -0.01  -0.09  -0.17     0.17  -0.12  -0.17    -0.11  -0.12  -0.13
  16   1    -0.03  -0.05  -0.03    -0.12  -0.09   0.42    -0.11  -0.07   0.06
  17   1     0.04  -0.06   0.03    -0.02   0.04   0.05     0.12  -0.10   0.12
  18   1     0.11  -0.18   0.14    -0.10   0.11  -0.04     0.06  -0.03   0.02
  19   1     0.01  -0.05   0.01     0.10  -0.10   0.18     0.03   0.01  -0.00
                     16                     17                     18
                        a                      a                      a 
 Frequencies --   936.3225               981.3346               997.8900
 Red. masses --     5.2676                 5.5367                 4.3343
 Frc consts  --     0.0000                 0.0000                 0.0000
 IR Inten    --     4.0270                19.4515                23.5851
 Raman Activ --     0.0000                 0.0000                 0.0000
 Depolar     --     0.0000                 0.0000                 0.0000
 Atom AN      X      Y      Z        X      Y      Z        X      Y      Z
   1   6    -0.19   0.15   0.07    -0.01   0.09   0.06     0.09  -0.15   0.04
   2   6     0.01   0.21   0.03    -0.03  -0.01  -0.02    -0.03   0.06  -0.06
   3   6     0.09  -0.27  -0.01    -0.07  -0.08   0.02     0.05   0.07  -0.01
   4   6     0.05   0.20   0.01     0.04   0.20   0.10     0.10  -0.18   0.05
   5   6    -0.23   0.04  -0.03     0.30  -0.02  -0.31    -0.17   0.12  -0.11
   6   8    -0.01   0.02  -0.06    -0.09   0.04   0.02     0.03   0.20  -0.01
   7   6     0.13  -0.25  -0.09    -0.28  -0.13   0.20     0.01  -0.32   0.00
   8   1    -0.31  -0.18   0.16    -0.16  -0.08   0.04     0.20   0.13  -0.14
   9   1     0.17  -0.05  -0.08     0.01  -0.05  -0.04    -0.24   0.01   0.09
  10   1     0.09  -0.08  -0.02     0.14  -0.01  -0.08    -0.03   0.09  -0.03
  11   1     0.12   0.00  -0.06     0.01   0.02   0.01    -0.20   0.16   0.13
  12   1     0.02   0.06  -0.01     0.13  -0.08  -0.06     0.01  -0.05   0.02
  13   1     0.07  -0.14  -0.07    -0.03  -0.01   0.02    -0.25   0.11   0.12
  14   1     0.05  -0.03  -0.05     0.14  -0.07  -0.09     0.09   0.01  -0.06
  15   1     0.01  -0.09  -0.11    -0.01  -0.06  -0.06    -0.29  -0.01   0.11
  16   1     0.24   0.08   0.21    -0.09  -0.04   0.12     0.19   0.11  -0.16
  17   1     0.01   0.03   0.13     0.32  -0.27   0.25     0.16  -0.10   0.25
  18   1    -0.15   0.17  -0.08     0.13   0.07  -0.13    -0.09   0.19  -0.13
  19   1     0.18  -0.16   0.29    -0.09   0.26  -0.28     0.14  -0.04   0.16
                     19                     20                     21
                        a                      a                      a 
 Frequencies --  1050.8300              1089.4815              1099.6028
 Red. masses --     7.8019                 6.8418                 6.7020
 Frc consts  --     0.0000                 0.0000                 0.0000
 IR Inten    --     4.8608                20.1687                 4.6068
 Raman Activ --     0.0000                 0.0000                 0.0000
 Depolar     --     0.0000                 0.0000                 0.0000
 Atom AN      X      Y      Z        X      Y      Z        X      Y      Z
   1   6    -0.21   0.01   0.17    -0.34  -0.16   0.07    -0.21  -0.28   0.08
   2   6     0.16   0.05  -0.16     0.44   0.04  -0.08     0.31   0.25  -0.14
   3   6     0.47   0.13  -0.15    -0.05   0.10  -0.15    -0.09  -0.15   0.08
   4   6    -0.40  -0.15   0.12    -0.06  -0.15   0.13     0.03   0.28  -0.05
   5   6    -0.08   0.03  -0.05     0.14   0.03   0.08     0.02  -0.06  -0.13
   6   8     0.03  -0.01   0.03    -0.00   0.15  -0.00    -0.04  -0.19  -0.00
   7   6     0.10   0.06   0.10    -0.13  -0.12  -0.11     0.05   0.12   0.12
   8   1    -0.17  -0.06   0.04    -0.02  -0.01   0.05     0.14   0.08  -0.06
   9   1    -0.09  -0.06   0.00    -0.05   0.01   0.05    -0.22   0.02   0.12
  10   1     0.05  -0.01  -0.04    -0.20  -0.05   0.12    -0.21   0.03   0.09
  11   1     0.02   0.09   0.03     0.19  -0.10  -0.13     0.06   0.08  -0.01
  12   1     0.13  -0.07  -0.05     0.09   0.10  -0.07     0.06   0.06  -0.02
  13   1     0.01   0.01  -0.03     0.18   0.08  -0.03    -0.17   0.00   0.08
  14   1     0.29   0.02  -0.16    -0.24   0.01   0.16    -0.08   0.03   0.02
  15   1    -0.29  -0.11   0.01     0.17   0.13   0.13    -0.07  -0.13  -0.16
  16   1    -0.19  -0.07  -0.00    -0.15  -0.05  -0.10     0.33   0.14   0.21
  17   1    -0.06   0.03  -0.08     0.10  -0.06   0.14    -0.05   0.02  -0.10
  18   1     0.06  -0.14   0.11    -0.08   0.18  -0.15     0.10  -0.15   0.10
  19   1    -0.03  -0.02  -0.02     0.06   0.03   0.05    -0.08   0.03  -0.11
                     22                     23                     24
                        a                      a                      a 
 Frequencies --  1122.4056              1184.0254              1210.4503
 Red. masses --     7.2029                 6.1299                 7.6438
 Frc consts  --     0.0000                 0.0000                 0.0000
 IR Inten    --    13.2021                20.2049               178.9153
 Raman Activ --     0.0000                 0.0000                 0.0000
 Depolar     --     0.0000                 0.0000                 0.0000
 Atom AN      X      Y      Z        X      Y      Z        X      Y      Z
   1   6    -0.10   0.03   0.15    -0.07   0.16  -0.08    -0.03  -0.07  -0.06
   2   6     0.15  -0.27  -0.25     0.09  -0.34   0.12     0.05   0.13   0.10
   3   6    -0.22   0.22   0.34    -0.08   0.35  -0.13    -0.11  -0.10   0.00
   4   6     0.26   0.09  -0.21     0.02  -0.10   0.15     0.18  -0.01   0.16
   5   6    -0.15   0.01   0.09    -0.11   0.02  -0.27    -0.42   0.06  -0.50
   6   8     0.03   0.02  -0.02     0.00  -0.07   0.03     0.07   0.05   0.07
   7   6     0.07  -0.01  -0.04     0.05   0.01   0.12     0.14  -0.02   0.16
   8   1    -0.16  -0.07   0.02    -0.12  -0.08   0.11     0.07   0.03  -0.00
   9   1    -0.07  -0.08  -0.02     0.20  -0.00  -0.08     0.02   0.04   0.02
  10   1     0.12  -0.01  -0.07     0.02  -0.09   0.03    -0.09  -0.00   0.05
  11   1     0.18  -0.03  -0.05     0.01  -0.20  -0.06    -0.01  -0.03  -0.02
  12   1     0.23  -0.23  -0.10     0.05   0.01  -0.07     0.04   0.07  -0.02
  13   1    -0.33   0.04   0.12    -0.01   0.21   0.07     0.09  -0.01  -0.01
  14   1     0.08   0.13  -0.07    -0.15   0.04   0.11     0.17  -0.12  -0.08
  15   1     0.06   0.04  -0.04    -0.18  -0.01   0.08     0.30   0.23   0.17
  16   1    -0.18  -0.09  -0.07     0.44   0.22   0.00    -0.25  -0.11  -0.05
  17   1    -0.04   0.05  -0.02     0.01  -0.02  -0.02     0.01  -0.01  -0.01
  18   1    -0.04   0.01   0.01     0.08  -0.11   0.07     0.07  -0.20   0.15
  19   1     0.03  -0.06   0.06    -0.03   0.00  -0.03    -0.01  -0.06   0.02
                     25                     26                     27
                        a                      a                      a 
 Frequencies --  1230.0866              1282.5697              1299.2111
 Red. masses --     4.5096                 2.1993                 3.6016
 Frc consts  --     0.0000                 0.0000                 0.0000
 IR Inten    --     8.6942                 0.2348                12.9745
 Raman Activ --     0.0000                 0.0000                 0.0000
 Depolar     --     0.0000                 0.0000                 0.0000
 Atom AN      X      Y      Z        X      Y      Z        X      Y      Z
   1   6     0.13  -0.01   0.27    -0.08   0.04  -0.15    -0.00  -0.08   0.01
   2   6    -0.17  -0.01  -0.34     0.00  -0.02  -0.10    -0.11   0.09  -0.01
   3   6     0.06   0.05   0.09     0.13  -0.03   0.21    -0.21   0.10   0.00
   4   6    -0.09  -0.10   0.09    -0.06  -0.03  -0.00     0.35   0.06   0.11
   5   6    -0.05   0.02  -0.19    -0.01   0.00  -0.04    -0.06   0.00   0.03
   6   8     0.01   0.01   0.03    -0.00   0.01   0.01     0.00  -0.05  -0.01
   7   6     0.01  -0.00   0.05    -0.01   0.01  -0.00     0.03   0.02  -0.02
   8   1    -0.07   0.01  -0.11    -0.01  -0.02   0.04     0.07   0.05  -0.05
   9   1    -0.25  -0.10   0.03     0.13   0.04  -0.03    -0.01   0.01   0.02
  10   1     0.21   0.11  -0.17    -0.10  -0.06   0.07    -0.01   0.03  -0.02
  11   1     0.27   0.11  -0.05    -0.49   0.24   0.27     0.12  -0.00  -0.05
  12   1    -0.20  -0.14   0.15     0.41  -0.23  -0.20     0.19  -0.10  -0.09
  13   1     0.24  -0.14  -0.15     0.14  -0.19  -0.12     0.47  -0.13  -0.23
  14   1    -0.27   0.18   0.12    -0.24   0.23   0.11    -0.06  -0.03   0.05
  15   1     0.20   0.11   0.09     0.15   0.07   0.03    -0.56  -0.19  -0.00
  16   1     0.20   0.10   0.01     0.06   0.02   0.04    -0.15  -0.07  -0.04
  17   1     0.02  -0.02   0.01     0.01  -0.01   0.01    -0.01   0.02   0.00
  18   1     0.04  -0.06   0.03     0.01  -0.02   0.01    -0.03  -0.02   0.03
  19   1    -0.01  -0.00  -0.00     0.00  -0.01   0.01    -0.01  -0.01  -0.01
                     28                     29                     30
                        a                      a                      a 
 Frequencies --  1301.9630              1357.3982              1366.2764
 Red. masses --     4.1442                 3.3200                 4.9026
 Frc consts  --     0.0000                 0.0000                 0.0000
 IR Inten    --    14.1290                65.4603                 0.6916
 Raman Activ --     0.0000                 0.0000                 0.0000
 Depolar     --     0.0000                 0.0000                 0.0000
 Atom AN      X      Y      Z        X      Y      Z        X      Y      Z
   1   6    -0.02  -0.12  -0.04    -0.00  -0.01  -0.00    -0.00   0.10   0.02
   2   6    -0.15   0.12   0.12    -0.05   0.02   0.02     0.38  -0.12  -0.19
   3   6    -0.15   0.18   0.17     0.05   0.00  -0.02    -0.32   0.10   0.16
   4   6    -0.25  -0.20  -0.10     0.00  -0.01   0.02    -0.00  -0.06  -0.04
   5   6     0.10  -0.01   0.08    -0.04   0.02  -0.07     0.03  -0.00   0.04
   6   8    -0.00   0.03  -0.00     0.01   0.02   0.01    -0.00   0.00  -0.00
   7   6    -0.04   0.00  -0.02     0.22  -0.32   0.21     0.02  -0.04   0.01
   8   1     0.13   0.07  -0.04     0.02   0.01  -0.01    -0.13  -0.07   0.05
   9   1     0.03   0.04   0.03     0.01   0.01   0.00    -0.07  -0.05  -0.03
  10   1    -0.04   0.02  -0.01     0.00   0.01  -0.01    -0.01  -0.05   0.06
  11   1     0.22  -0.10  -0.12     0.04  -0.01  -0.01    -0.34   0.11   0.15
  12   1     0.31  -0.10  -0.16     0.06  -0.02  -0.03    -0.36   0.12   0.21
  13   1     0.17  -0.10  -0.11    -0.03  -0.01  -0.00     0.30  -0.09  -0.13
  14   1     0.42  -0.12  -0.21    -0.05  -0.01   0.05     0.29  -0.10  -0.17
  15   1     0.22   0.05  -0.01     0.03   0.03   0.02    -0.02  -0.01   0.00
  16   1     0.33   0.16  -0.06    -0.01  -0.00   0.00     0.10   0.04  -0.02
  17   1     0.01  -0.01   0.00    -0.43   0.31  -0.09    -0.06   0.06   0.01
  18   1     0.00   0.03  -0.03    -0.22   0.34  -0.10    -0.05   0.04  -0.01
  19   1     0.01   0.01   0.01    -0.04   0.35  -0.43    -0.00   0.06  -0.07
                     31                     32                     33
                        a                      a                      a 
 Frequencies --  1411.8531              1430.2704              1443.6528
 Red. masses --     3.2155                 1.8832                 1.6993
 Frc consts  --     0.0000                 0.0000                 0.0000
 IR Inten    --     0.3997                22.6866                 6.5878
 Raman Activ --     0.0000                 0.0000                 0.0000
 Depolar     --     0.0000                 0.0000                 0.0000
 Atom AN      X      Y      Z        X      Y      Z        X      Y      Z
   1   6    -0.39  -0.08   0.18     0.00  -0.00  -0.00    -0.00   0.00  -0.00
   2   6     0.09  -0.04  -0.04    -0.01   0.00   0.01    -0.01  -0.01   0.01
   3   6    -0.02  -0.02   0.01     0.01   0.01  -0.01     0.00  -0.03  -0.00
   4   6    -0.00   0.01  -0.01    -0.00  -0.02  -0.08    -0.03   0.01   0.06
   5   6     0.00  -0.00   0.00     0.05   0.03   0.02     0.05   0.01   0.00
   6   8    -0.00   0.00  -0.00    -0.01  -0.07   0.00    -0.00  -0.02  -0.00
   7   6    -0.00   0.00  -0.00    -0.12  -0.07  -0.21     0.15   0.06  -0.16
   8   1     0.37   0.30  -0.14     0.00  -0.00   0.00     0.01   0.00  -0.00
   9   1     0.50  -0.01  -0.08    -0.00   0.00   0.00     0.00  -0.00  -0.00
  10   1     0.38   0.01  -0.34    -0.00  -0.00   0.00     0.00  -0.00   0.00
  11   1    -0.06   0.07   0.06     0.02  -0.00  -0.01     0.01   0.00   0.00
  12   1    -0.09   0.08   0.02     0.01   0.00  -0.01     0.01   0.01  -0.01
  13   1    -0.00  -0.01   0.00    -0.04  -0.02  -0.01     0.00   0.06   0.05
  14   1     0.00  -0.01  -0.00     0.00  -0.04   0.02    -0.01   0.06  -0.03
  15   1     0.00   0.02   0.01    -0.06   0.11   0.09     0.07  -0.09  -0.08
  16   1    -0.00  -0.01   0.02     0.01  -0.06   0.14     0.01   0.06  -0.12
  17   1     0.00   0.00   0.00    -0.14   0.35   0.45     0.19   0.08   0.43
  18   1    -0.00  -0.00   0.00     0.15  -0.39   0.15    -0.58  -0.13   0.39
  19   1    -0.00   0.00  -0.00     0.36   0.44   0.10    -0.26  -0.14  -0.27
                     34                     35                     36
                        a                      a                      a 
 Frequencies --  1453.7417              1483.7274              1498.4879
 Red. masses --     2.1327                 1.9406                 1.5450
 Frc consts  --     0.0000                 0.0000                 0.0000
 IR Inten    --     9.1965                 0.4939                 2.5475
 Raman Activ --     0.0000                 0.0000                 0.0000
 Depolar     --     0.0000                 0.0000                 0.0000
 Atom AN      X      Y      Z        X      Y      Z        X      Y      Z
   1   6    -0.01   0.01   0.00     0.01   0.02  -0.00    -0.02   0.16  -0.02
   2   6     0.01  -0.01  -0.01    -0.05  -0.02   0.02    -0.08  -0.12   0.02
   3   6    -0.00  -0.01   0.01    -0.08  -0.27   0.02     0.00   0.02   0.00
   4   6    -0.00   0.08   0.29    -0.01  -0.02  -0.03     0.01   0.00  -0.00
   5   6    -0.05   0.05  -0.02     0.01  -0.02   0.02    -0.00  -0.01  -0.01
   6   8    -0.00  -0.05   0.00     0.00   0.02  -0.00     0.00   0.01   0.00
   7   6    -0.04  -0.04  -0.01    -0.01  -0.02   0.01     0.00   0.00   0.00
   8   1     0.01   0.01  -0.01     0.03   0.02  -0.01     0.22   0.13   0.04
   9   1     0.01  -0.01  -0.01    -0.02  -0.05  -0.04    -0.24  -0.34  -0.23
  10   1     0.01  -0.01  -0.00     0.01  -0.06   0.03     0.11  -0.48   0.24
  11   1    -0.02   0.01   0.02     0.06   0.04   0.02     0.23   0.29   0.19
  12   1     0.00   0.00  -0.00     0.03   0.04  -0.06     0.02   0.32  -0.25
  13   1     0.02   0.02   0.01     0.36   0.46   0.31    -0.04  -0.08  -0.05
  14   1    -0.03   0.03   0.00     0.00   0.54  -0.39     0.00  -0.09   0.05
  15   1     0.24  -0.44  -0.39    -0.02   0.03   0.03     0.00   0.01   0.00
  16   1    -0.08   0.22  -0.59     0.00  -0.02   0.04     0.00  -0.00   0.00
  17   1    -0.08   0.08   0.02    -0.05   0.03  -0.03     0.01  -0.01  -0.00
  18   1     0.16  -0.07  -0.04     0.05   0.01  -0.03    -0.00   0.00   0.00
  19   1     0.15   0.14   0.09     0.04   0.05   0.01    -0.01  -0.01   0.00
                     37                     38                     39
                        a                      a                      a 
 Frequencies --  1500.2478              1502.0502              1702.6320
 Red. masses --     1.5389                 1.9309                13.1799
 Frc consts  --     0.0000                 0.0000                 0.0000
 IR Inten    --     1.3921                 1.2614               549.0414
 Raman Activ --     0.0000                 0.0000                 0.0000
 Depolar     --     0.0000                 0.0000                 0.0000
 Atom AN      X      Y      Z        X      Y      Z        X      Y      Z
   1   6    -0.09   0.01  -0.19    -0.03   0.13   0.06     0.00   0.00   0.00
   2   6    -0.00   0.06  -0.04     0.05   0.24   0.01     0.00   0.00  -0.00
   3   6     0.00  -0.00   0.00     0.03  -0.01  -0.02     0.01   0.01  -0.01
   4   6     0.00   0.00   0.01    -0.00   0.00  -0.00     0.01   0.05   0.03
   5   6     0.00   0.00   0.00     0.00   0.01   0.00    -0.10  -0.78  -0.01
   6   8    -0.00  -0.00  -0.00    -0.00  -0.01  -0.00     0.07   0.59   0.01
   7   6    -0.00  -0.00  -0.00     0.00  -0.00  -0.00    -0.01   0.05  -0.03
   8   1     0.29  -0.07   0.63     0.13   0.15  -0.15    -0.00  -0.00   0.00
   9   1    -0.27   0.29   0.26    -0.07  -0.34  -0.26     0.00  -0.00  -0.00
  10   1     0.34  -0.26  -0.12     0.04  -0.31   0.19     0.00  -0.00  -0.00
  11   1    -0.05  -0.08  -0.07    -0.24  -0.37  -0.26    -0.01  -0.01  -0.00
  12   1    -0.02  -0.12   0.09     0.03  -0.42   0.30    -0.01  -0.01   0.01
  13   1     0.02   0.01   0.00    -0.01   0.01   0.01    -0.00  -0.00  -0.01
  14   1    -0.02   0.02  -0.00    -0.01   0.01   0.00    -0.01  -0.01   0.02
  15   1    -0.00  -0.01  -0.00    -0.00   0.00   0.00    -0.03  -0.06  -0.04
  16   1    -0.00   0.00  -0.00    -0.01  -0.01   0.00     0.04   0.03   0.01
  17   1    -0.00  -0.00  -0.00    -0.00   0.00   0.00    -0.04   0.05   0.01
  18   1    -0.00   0.00  -0.00    -0.00   0.00  -0.00     0.01  -0.07   0.04
  19   1    -0.00   0.00  -0.00     0.00   0.00  -0.00     0.01   0.04  -0.02
                     40                     41                     42
                        a                      a                      a 
 Frequencies --  2960.3781              2974.5200              2981.8206
 Red. masses --     1.9303                 1.9975                 1.4721
 Frc consts  --     0.0000                 0.0000                 0.0000
 IR Inten    --    27.0312                95.6632                25.1825
 Raman Activ --     0.0000                 0.0000                 0.0000
 Depolar     --     0.0000                 0.0000                 0.0000
 Atom AN      X      Y      Z        X      Y      Z        X      Y      Z
   1   6     0.01  -0.00   0.01     0.00   0.00   0.01     0.01  -0.01  -0.00
   2   6    -0.12   0.01  -0.24    -0.06  -0.00  -0.11     0.05   0.18  -0.04
   3   6     0.05  -0.00   0.10    -0.12   0.01  -0.24    -0.02  -0.06   0.01
   4   6     0.00   0.00  -0.01     0.00  -0.02   0.03    -0.00  -0.01   0.01
   5   6     0.00   0.00  -0.00     0.00   0.00   0.00    -0.00   0.00   0.00
   6   8    -0.00  -0.00   0.00    -0.00  -0.00  -0.00     0.00  -0.00  -0.00
   7   6    -0.00   0.00  -0.00    -0.00  -0.00   0.00     0.00   0.00  -0.00
   8   1     0.00  -0.00   0.00     0.00  -0.00   0.00    -0.03   0.04   0.02
   9   1    -0.00   0.03  -0.04    -0.00   0.02  -0.02    -0.00   0.02  -0.03
  10   1    -0.03  -0.03  -0.03    -0.02  -0.02  -0.02     0.01   0.00   0.01
  11   1     0.07  -0.36   0.42     0.03  -0.14   0.16     0.12  -0.43   0.56
  12   1     0.37   0.34   0.46     0.16   0.14   0.20    -0.32  -0.25  -0.42
  13   1    -0.03   0.16  -0.18     0.08  -0.37   0.43    -0.04   0.13  -0.18
  14   1    -0.15  -0.14  -0.19     0.35   0.32   0.43     0.12   0.10   0.15
  15   1     0.00  -0.03   0.03    -0.03   0.11  -0.13    -0.01   0.03  -0.04
  16   1    -0.00   0.01   0.00     0.01  -0.03  -0.01     0.00  -0.01  -0.00
  17   1    -0.00  -0.00   0.00     0.01   0.01  -0.00    -0.00  -0.00   0.00
  18   1     0.00   0.00   0.00    -0.00  -0.00  -0.00    -0.00  -0.00  -0.00
  19   1     0.00  -0.00  -0.00    -0.00  -0.00   0.00    -0.00   0.00   0.00
                     43                     44                     45
                        a                      a                      a 
 Frequencies --  2986.6495              2995.6321              2998.2835
 Red. masses --     1.5416                 1.6416                 1.8207
 Frc consts  --     0.0000                 0.0000                 0.0000
 IR Inten    --    54.5623                71.4275                51.9327
 Raman Activ --     0.0000                 0.0000                 0.0000
 Depolar     --     0.0000                 0.0000                 0.0000
 Atom AN      X      Y      Z        X      Y      Z        X      Y      Z
   1   6     0.00  -0.02  -0.00    -0.00   0.00  -0.00    -0.00   0.01   0.00
   2   6     0.02   0.06  -0.01    -0.00  -0.02   0.01    -0.01  -0.02   0.00
   3   6     0.06   0.17  -0.02     0.01  -0.03   0.06    -0.01  -0.06   0.01
   4   6     0.04  -0.09   0.02     0.02  -0.10   0.20     0.11  -0.23  -0.04
   5   6     0.00  -0.00  -0.00     0.00  -0.00   0.01     0.00  -0.01   0.00
   6   8     0.00   0.00  -0.00    -0.00   0.00  -0.00    -0.00   0.00  -0.00
   7   6    -0.00   0.00   0.00     0.00   0.00  -0.00    -0.01   0.01   0.01
   8   1    -0.02   0.03   0.01     0.01  -0.01  -0.00     0.01  -0.01  -0.01
   9   1    -0.01   0.02  -0.03     0.00  -0.01   0.01     0.00  -0.01   0.02
  10   1     0.02   0.01   0.02     0.00   0.00   0.00    -0.01  -0.01  -0.01
  11   1     0.04  -0.12   0.17    -0.02   0.05  -0.07    -0.01   0.04  -0.05
  12   1    -0.10  -0.08  -0.13     0.02   0.01   0.03     0.03   0.02   0.04
  13   1     0.11  -0.38   0.50    -0.03   0.13  -0.16    -0.04   0.12  -0.16
  14   1    -0.33  -0.26  -0.43    -0.03  -0.03  -0.03     0.10   0.08   0.13
  15   1    -0.03   0.12  -0.16    -0.16   0.58  -0.68    -0.02   0.09  -0.14
  16   1    -0.10   0.20   0.09     0.10  -0.21  -0.05    -0.39   0.75   0.30
  17   1     0.00   0.00   0.00    -0.01  -0.01   0.00    -0.01  -0.01   0.00
  18   1    -0.00  -0.00  -0.00     0.00   0.00   0.00    -0.01  -0.01  -0.01
  19   1     0.01  -0.01  -0.01    -0.00   0.00   0.00     0.05  -0.03  -0.04
                     46                     47                     48
                        a                      a                      a 
 Frequencies --  3021.8545              3027.5776              3031.6222
 Red. masses --     1.7895                 1.9517                 1.8445
 Frc consts  --     0.0000                 0.0000                 0.0000
 IR Inten    --     3.3762                85.8494                80.1788
 Raman Activ --     0.0000                 0.0000                 0.0000
 Depolar     --     0.0000                 0.0000                 0.0000
 Atom AN      X      Y      Z        X      Y      Z        X      Y      Z
   1   6     0.00   0.00   0.01     0.12  -0.06   0.26    -0.01  -0.27  -0.06
   2   6    -0.00  -0.00   0.00     0.01  -0.01   0.03    -0.01  -0.02  -0.00
   3   6     0.00  -0.00   0.00     0.00  -0.00   0.00    -0.00  -0.01   0.00
   4   6     0.01  -0.02  -0.00     0.00  -0.00   0.00     0.00  -0.00  -0.00
   5   6     0.01  -0.01  -0.00    -0.00   0.00   0.00     0.00  -0.00   0.00
   6   8     0.00   0.00   0.00     0.00  -0.00  -0.00    -0.00   0.00   0.00
   7   6     0.20  -0.10  -0.15    -0.00   0.00   0.00     0.00  -0.00  -0.00
   8   1     0.00  -0.01  -0.00    -0.01   0.04   0.06    -0.25   0.40   0.15
   9   1    -0.00   0.01  -0.01    -0.10   0.47  -0.58    -0.07   0.26  -0.39
  10   1    -0.01  -0.01  -0.01    -0.32  -0.30  -0.39     0.38   0.28   0.47
  11   1    -0.00   0.00  -0.00    -0.01   0.04  -0.05    -0.01   0.03  -0.04
  12   1     0.00   0.00   0.00    -0.03  -0.02  -0.03     0.03   0.03   0.04
  13   1    -0.00   0.00  -0.00    -0.00   0.01  -0.01    -0.01   0.02  -0.03
  14   1     0.00   0.00   0.00    -0.00  -0.00  -0.00     0.02   0.02   0.03
  15   1    -0.00   0.01  -0.01     0.00   0.00  -0.00     0.00   0.00  -0.00
  16   1    -0.03   0.06   0.02    -0.00   0.00   0.00    -0.01   0.01   0.00
  17   1    -0.06  -0.10   0.02    -0.00  -0.00   0.00    -0.00  -0.00  -0.00
  18   1     0.04   0.01   0.01     0.00   0.00   0.00    -0.00  -0.00  -0.00
  19   1    -0.69   0.45   0.48     0.01  -0.01  -0.01    -0.01   0.00   0.00
                     49                     50                     51
                        a                      a                      a 
 Frequencies --  3042.0442              3049.9700              3058.8217
 Red. masses --     1.3480                 1.4356                 1.9401
 Frc consts  --     0.0000                 0.0000                 0.0000
 IR Inten    --    45.0709                 5.6969                22.8699
 Raman Activ --     0.0000                 0.0000                 0.0000
 Depolar     --     0.0000                 0.0000                 0.0000
 Atom AN      X      Y      Z        X      Y      Z        X      Y      Z
   1   6    -0.14   0.07   0.07     0.00  -0.00  -0.00     0.00   0.00   0.00
   2   6    -0.00   0.01   0.00    -0.00  -0.00  -0.00    -0.00  -0.00  -0.00
   3   6    -0.00  -0.00  -0.00    -0.00   0.00  -0.00     0.00   0.00   0.00
   4   6    -0.00   0.00  -0.00    -0.00   0.00  -0.00    -0.00   0.00  -0.00
   5   6     0.00   0.00   0.00     0.00   0.01  -0.00     0.01   0.01   0.00
   6   8    -0.00  -0.00  -0.00    -0.00  -0.00  -0.00    -0.00  -0.00  -0.00
   7   6     0.00   0.00  -0.00     0.07   0.11  -0.15     0.16   0.20   0.13
   8   1     0.38  -0.68  -0.25    -0.01   0.01   0.00     0.00  -0.00  -0.00
   9   1    -0.07   0.24  -0.28     0.00  -0.00   0.01    -0.00   0.00  -0.00
  10   1     0.20   0.19   0.27    -0.00  -0.00  -0.00    -0.00  -0.00  -0.00
  11   1     0.00  -0.01   0.02     0.00   0.00   0.00    -0.00   0.00  -0.00
  12   1    -0.01  -0.01  -0.01     0.00   0.00   0.00     0.00   0.00   0.00
  13   1    -0.00   0.00  -0.00     0.00  -0.01   0.01     0.00  -0.00   0.00
  14   1     0.00   0.00   0.00     0.00   0.00   0.00    -0.00  -0.00  -0.00
  15   1     0.00  -0.00   0.00     0.00  -0.01   0.01     0.00  -0.01   0.01
  16   1    -0.00   0.00   0.00     0.00  -0.01  -0.00     0.01  -0.02  -0.01
  17   1    -0.01  -0.01   0.00    -0.55  -0.59   0.29    -0.28  -0.29   0.18
  18   1     0.00   0.00   0.00     0.20   0.25   0.33    -0.34  -0.44  -0.64
  19   1     0.00  -0.00  -0.00     0.10  -0.05  -0.08     0.04   0.01   0.00
