      -----------------------------------------------------------      
     |                   =====================                   |     
     |                           x T B                           |     
     |                   =====================                   |     
     |                         S. Grimme                         |     
     |          Mulliken Center for Theoretical Chemistry        |     
     |                    University of Bonn                     |     
      -----------------------------------------------------------      

   * xtb version 6.7.1 (edcfbbe) compiled by 'albert@albert-system' on 2024-07-22

   xtb is free software: you can redistribute it and/or modify it under
   the terms of the GNU Lesser General Public License as published by
   the Free Software Foundation, either version 3 of the License, or
   (at your option) any later version.
   
   xtb is distributed in the hope that it will be useful,
   but WITHOUT ANY WARRANTY; without even the implied warranty of
   MERCHANTABILITY or FITNESS FOR A PARTICULAR PURPOSE.  See the
   GNU Lesser General Public License for more details.
   
   Cite this work as:
   * C. Bannwarth, E. Caldeweyher, S. Ehlert, A. Hansen, P. Pracht,
     J. Seibert, S. Spicher, S. Grimme, WIREs Comput. Mol. Sci., 2020, 11,
     e01493. DOI: 10.1002/wcms.1493
   
   for GFN2-xTB:
   * C. Bannwarth, S. Ehlert and S. Grimme., J. Chem. Theory Comput., 2019,
     15, 1652-1671. DOI: 10.1021/acs.jctc.8b01176
   for GFN1-xTB:
   * S. Grimme, C. Bannwarth, P. Shushkov, J. Chem. Theory Comput., 2017,
     13, 1989-2009. DOI: 10.1021/acs.jctc.7b00118
   for GFN0-xTB:
   * P. Pracht, E. Caldeweyher, S. Ehlert, S. Grimme, ChemRxiv, 2019, preprint.
     DOI: 10.26434/chemrxiv.8326202.v1
   for GFN-FF:
   * S. Spicher and S. Grimme, Angew. Chem. Int. Ed., 2020, 59, 15665-15673.
     DOI: 10.1002/anie.202004239
   
   for ALPB and GBSA implicit solvation:
   * S. Ehlert, M. Stahn, S. Spicher, S. Grimme, J. Chem. Theory Comput.,
     2021, 17, 4250-4261. DOI: 10.1021/acs.jctc.1c00471
   
   for ddCOSMO and CPCM-X implicit solvation:
   * M. Stahn, S. Ehlert, S. Grimme, J. Phys. Chem. A,
     2023, XX, XXXX-XXXX. DOI: 10.1021/acs.jpca.3c04382
   
   for DFT-D4:
   * E. Caldeweyher, C. Bannwarth and S. Grimme, J. Chem. Phys., 2017,
     147, 034112. DOI: 10.1063/1.4993215
   * E. Caldeweyher, S. Ehlert, A. Hansen, H. Neugebauer, S. Spicher,
     C. Bannwarth and S. Grimme, J. Chem. Phys., 2019, 150, 154122.
     DOI: 10.1063/1.5090222
   * E. Caldeweyher, J.-M. Mewes, S. Ehlert and S. Grimme, Phys. Chem. Chem. Phys.
     2020, 22, 8499-8512. DOI: 10.1039/D0CP00502A
   
   for sTDA-xTB:
   * S. Grimme and C. Bannwarth, J. Chem. Phys., 2016, 145, 054103.
     DOI: 10.1063/1.4959605
   
   in the mass-spec context:
   * V. Asgeirsson, C. Bauer and S. Grimme, Chem. Sci., 2017, 8, 4879.
     DOI: 10.1039/c7sc00601b
   * J. Koopman and S. Grimme, ACS Omega 2019, 4, 12, 15120-15133.
     DOI: 10.1021/acsomega.9b02011
   
   for metadynamics refer to:
   * S. Grimme, J. Chem. Theory Comput., 2019, 155, 2847-2862
     DOI: 10.1021/acs.jctc.9b00143
   
   for SPH calculations refer to:
   * S. Spicher and S. Grimme, J. Chem. Theory Comput., 2021, 17, 1701-1714
     DOI: 10.1021/acs.jctc.0c01306
   
   for ONIOM refer to:
   * C. Plett, A. Katbashev, S. Ehlert, S. Grimme, M. Bursch,
     Phys. Chem. Chem. Phys., 2023, 25, 17860-17868. DOI: 10.1039/D3CP02178E
   
   for DIPRO refer to:
   * J. Kohn, N. Gildemeister, S. Grimme, D. Fazzi, A. Hansen,
     J. Chem. Phys., 2023, just accepted.
   
   for PTB refer to:
   * S. Grimme, M. Mueller, A. Hansen, J. Chem. Phys., 2023, 158, 124111.
     DOI: 10.1063/5.0137838
   
   with help from (in alphabetical order)
   P. Atkinson, C. Bannwarth, F. Bohle, G. Brandenburg, E. Caldeweyher
   M. Checinski, S. Dohm, S. Ehlert, S. Ehrlich, I. Gerasimov, C. Hölzer
   A. Katbashev, J. Kohn, J. Koopman, C. Lavigne, S. Lehtola, F. März, M. Müller,
   F. Musil, H. Neugebauer, J. Pisarek, C. Plett, P. Pracht, F. Pultar,
   J. Seibert, P. Shushkov, S. Spicher, M. Stahn, M. Steiner, T. Strunk,
   J. Stückrath, T. Rose, and J. Unsleber
   
 * started run on 2025/04/11 at 16:35:41.821     
   ID    Z sym.   atoms
    1    6 C      1-5, 7
    2    8 O      6
    3    1 H      8-19

           -------------------------------------------------
          |                Calculation Setup                |
           -------------------------------------------------

          program call               : /srv/scratch/z5358697/.xtb/bin/xtb xtb_rrho.coord --gfn2 --ohess vtight --chrg 0 --enso --norestart -I rrho-xcontrol-inp --parallel 1 --alpb water
          hostname                   : k065
          coordinate file            : xtb_rrho.coord
          omp threads                :                     1


           -------------------------------------------------
          |                 G F N 2 - x T B                 |
           -------------------------------------------------

        Reference                      10.1021/acs.jctc.8b01176
      * Hamiltonian:
        H0-scaling (s, p, d)           1.850000    2.230000    2.230000
        zeta-weighting                 0.500000
      * Dispersion:
        s8                             2.700000
        a1                             0.520000
        a2                             5.000000
        s9                             5.000000
      * Repulsion:
        kExp                           1.500000    1.000000
        rExp                           1.000000
      * Coulomb:
        alpha                          2.000000
        third order                    shell-resolved
        anisotropic                    true
        a3                             3.000000
        a5                             4.000000
        cn-shift                       1.200000
        cn-exp                         4.000000
        max-rad                        5.000000

      * Solvation model:               ALPB
        Solvent                        water
        Parameter file                 internal GFN2-xTB/ALPB
        Dielectric constant                8.0200E+01
        Reference state                gsolv [1 M gas/solution]
        Free energy shift                  1.0808E-03 Eh       6.7819E-01 kcal/mol
        Temperature                        2.9815E+02 K
        Density                            1.0000E+00 kg/L
        Solvent mass                       1.8000E+01 g/mol
        Interaction kernel             P16
        Born radius scaling (c1)           1.4744E+00
        Born radii integrator          GBOBC
        Born offset                        0.0000E+00 a0       0.0000E+00 AA
        H-bond correction              true
        Ion screening                  false
        Surface tension                    1.0000E-05 Eh       1.5569E+01 dyn/cm
        Grid points                               974 per atom

          ...................................................
          :                      SETUP                      :
          :.................................................:
          :  # basis functions                  40          :
          :  # atomic orbitals                  40          :
          :  # shells                           26          :
          :  # electrons                        42          :
          :  max. iterations                   250          :
          :  Hamiltonian                  GFN2-xTB          :
          :  restarted?                      false          :
          :  GBSA solvation                   true          :
          :  PC potential                    false          :
          :  electronic temp.          300.0000000     K    :
          :  accuracy                    1.0000000          :
          :  -> integral cutoff          0.2500000E+02      :
          :  -> integral neglect         0.1000000E-07      :
          :  -> SCF convergence          0.1000000E-05 Eh   :
          :  -> wf. convergence          0.1000000E-03 e    :
          :  Broyden damping             0.4000000          :
          :  net charge                          0          :
          :  unpaired electrons                  0          :
          ...................................................

 iter      E             dE          RMSdq      gap      omega  full diag
   1    -23.2566031 -0.232566E+02  0.357E+00    4.57       0.0  T
   2    -23.3213753 -0.647722E-01  0.170E+00    3.56       1.0  T
   3    -23.3256495 -0.427418E-02  0.104E+00    3.99       1.0  T
   4    -23.3277268 -0.207730E-02  0.182E-01    3.76       1.0  T
   5    -23.3280058 -0.278929E-03  0.690E-02    3.82       1.0  T
   6    -23.3280084 -0.260584E-05  0.217E-02    3.81       1.1  T
   7    -23.3280097 -0.137114E-05  0.528E-03    3.81       4.3  T
   8    -23.3280098 -0.728661E-07  0.242E-03    3.81       9.5  T
   9    -23.3280098 -0.996801E-08  0.673E-04    3.81      34.1  T
  10    -23.3280098 -0.109566E-08  0.236E-04    3.81      97.4  T

   *** convergence criteria satisfied after 10 iterations ***

         #    Occupation            Energy/Eh            Energy/eV
      -------------------------------------------------------------
         1        2.0000           -0.7106927             -19.3389
       ...           ...                  ...                  ...
        15        2.0000           -0.4674917             -12.7211
        16        2.0000           -0.4612774             -12.5520
        17        2.0000           -0.4503676             -12.2551
        18        2.0000           -0.4441792             -12.0867
        19        2.0000           -0.4323647             -11.7652
        20        2.0000           -0.4253359             -11.5740
        21        2.0000           -0.3970962             -10.8055 (HOMO)
        22                         -0.2569696              -6.9925 (LUMO)
        23                          0.0657909               1.7903
        24                          0.0839509               2.2844
        25                          0.1103540               3.0029
        26                          0.1269227               3.4537
       ...                                ...                  ...
        40                          0.5580100              15.1842
      -------------------------------------------------------------
                  HL-Gap            0.1401266 Eh            3.8130 eV
             Fermi-level           -0.3270329 Eh           -8.8990 eV

 SCC (total)                   0 d,  0 h,  0 min,  0.033 sec
 SCC setup                      ...        0 min,  0.001 sec (  3.908%)
 Dispersion                     ...        0 min,  0.000 sec (  0.340%)
 classical contributions        ...        0 min,  0.000 sec (  0.083%)
 integral evaluation            ...        0 min,  0.001 sec (  4.441%)
 iterations                     ...        0 min,  0.025 sec ( 76.721%)
 molecular gradient             ...        0 min,  0.005 sec ( 14.058%)
 printout                       ...        0 min,  0.000 sec (  0.408%)

         :::::::::::::::::::::::::::::::::::::::::::::::::::::
         ::                     SUMMARY                     ::
         :::::::::::::::::::::::::::::::::::::::::::::::::::::
         :: total energy             -23.030762352666 Eh    ::
         :: total w/o Gsasa/hb       -23.030988478783 Eh    ::
         :: gradient norm              0.030529023456 Eh/a0 ::
         :: HOMO-LUMO gap              3.813038429042 eV    ::
         ::.................................................::
         :: SCC energy               -23.327969784355 Eh    ::
         :: -> isotropic ES            0.042659333882 Eh    ::
         :: -> anisotropic ES          0.003170949965 Eh    ::
         :: -> anisotropic XC          0.011676546088 Eh    ::
         :: -> dispersion             -0.010979686753 Eh    ::
         :: -> Gsolv                  -0.008681196855 Eh    ::
         ::    -> Gelec               -0.008907322972 Eh    ::
         ::    -> Gsasa                0.001146541071 Eh    ::
         ::    -> Ghb                 -0.002001174652 Eh    ::
         ::    -> Gshift               0.001080759698 Eh    ::
         :: repulsion energy           0.297207431689 Eh    ::
         :: add. restraining           0.000000000000 Eh    ::
         :: total charge               0.000000000000 e     ::
         :::::::::::::::::::::::::::::::::::::::::::::::::::::

      ----------------------------------------------------------- 
     |                   =====================                   |
     |                        A N C O P T                        |
     |                   =====================                   |
     |               Approximate Normal Coordinate               |
     |                Rational Function Optimizer                |
      ----------------------------------------------------------- 
      ----------------------------------------------------------- 
     |                   =====================                   |
     |                        A N C O P T                        |
     |                   =====================                   |
     |               Approximate Normal Coordinate               |
     |                Rational Function Optimizer                |
      ----------------------------------------------------------- 

          ...................................................
          :                      SETUP                      :
          :.................................................:
          :   optimization level         verytight          :
          :   max. optcycles                   380          :
          :   ANC micro-cycles                  20          :
          :   degrees of freedom                51          :
          :.................................................:
          :   RF solver                   davidson          :
          :   write xtbopt.log                true          :
          :   linear?                        false          :
          :   energy convergence         0.1000000E-06 Eh   :
          :   grad. convergence          0.2000000E-03 Eh/α :
          :   maxmium RF displ.          1.0000000          :
          :   Hlow (freq-cutoff)         0.1000000E-01      :
          :   Hmax (freq-cutoff)         5.0000000          :
          :   S6 in model hess.         20.0000000          :
          ...................................................

generating ANC from exact Hessian ...
Using Lindh-Hessian (1995)
 Shifting diagonal of input Hessian by   8.531254813579784E-003
 Lowest  eigenvalues of input Hessian
    0.000000    0.000000    0.000000    0.000000    0.000000    0.000000
    0.010000    0.011039    0.012313    0.015462    0.017401    0.018965
    0.021194    0.027040    0.036357    0.047716    0.054318    0.057879
 Highest eigenvalues
    1.153313    1.170674    1.212280    1.266491    1.411435    2.060602
 

........................................................................
.............................. CYCLE    1 ..............................
........................................................................

 iter      E             dE          RMSdq      gap      omega  full diag
   1    -23.3280098 -0.233280E+02  0.539E-05    3.81       0.0  T
   2    -23.3280098 -0.201439E-11  0.346E-05    3.81     663.7  T
   3    -23.3280098 -0.518696E-12  0.937E-06    3.81    2449.4  T
     SCC iter.                  ...        0 min,  0.001 sec
     gradient                   ...        0 min,  0.004 sec
 * total energy  :   -23.0307624 Eh     change       -0.1828973E-09 Eh
   gradient norm :     0.0305342 Eh/α   predicted     0.0000000E+00 (-100.00%)
   displ. norm   :     0.1083232 α      lambda       -0.1218635E-02
   maximum displ.:     0.0610262 α      in ANC's #7, #9, #3, ...

........................................................................
.............................. CYCLE    2 ..............................
........................................................................

 iter      E             dE          RMSdq      gap      omega  full diag
   1    -23.3389560 -0.233390E+02  0.964E-02    3.87       0.0  T
   2    -23.3389789 -0.229083E-04  0.523E-02    3.86       1.0  T
   3    -23.3389792 -0.273578E-06  0.199E-02    3.87       1.2  T
   4    -23.3389797 -0.469890E-06  0.424E-03    3.86       5.4  T
   5    -23.3389798 -0.161829E-06  0.185E-03    3.86      12.4  T
   6    -23.3389799 -0.107014E-07  0.525E-04    3.86      43.7  T
   7    -23.3389799 -0.179753E-09  0.201E-04    3.86     114.1  T
     SCC iter.                  ...        0 min,  0.002 sec
     gradient                   ...        0 min,  0.004 sec
 * total energy  :   -23.0315195 Eh     change       -0.7571594E-03 Eh
   gradient norm :     0.0100941 Eh/α   predicted    -0.6164885E-03 ( -18.58%)
   displ. norm   :     0.0610262 α      lambda       -0.1664980E-03
   maximum displ.:     0.0285300 α      in ANC's #3, #1, #7, ...

........................................................................
.............................. CYCLE    3 ..............................
........................................................................

 iter      E             dE          RMSdq      gap      omega  full diag
   1    -23.3428302 -0.233428E+02  0.389E-02    3.88       0.0  T
   2    -23.3428347 -0.448338E-05  0.209E-02    3.88       1.1  T
   3    -23.3428348 -0.119996E-06  0.812E-03    3.88       2.8  T
   4    -23.3428348 -0.135411E-07  0.133E-03    3.88      17.3  T
   5    -23.3428348 -0.326740E-08  0.594E-04    3.88      38.7  T
   6    -23.3428348 -0.101310E-08  0.195E-04    3.88     117.6  T
     SCC iter.                  ...        0 min,  0.002 sec
     gradient                   ...        0 min,  0.004 sec
 * total energy  :   -23.0316106 Eh     change       -0.9104854E-04 Eh
   gradient norm :     0.0017901 Eh/α   predicted    -0.8425818E-04 (  -7.46%)
   displ. norm   :     0.0517179 α      lambda       -0.2100587E-04
   maximum displ.:     0.0260209 α      in ANC's #3, #1, #2, ...

........................................................................
.............................. CYCLE    4 ..............................
........................................................................

 iter      E             dE          RMSdq      gap      omega  full diag
   1    -23.3427804 -0.233428E+02  0.252E-02    3.88       0.0  T
   2    -23.3427807 -0.322606E-06  0.147E-02    3.88       1.6  T
   3    -23.3427807 -0.866869E-08  0.230E-03    3.88      10.0  T
   4    -23.3427807 -0.290719E-07  0.919E-04    3.88      25.0  T
   5    -23.3427807 -0.442575E-08  0.405E-04    3.88      56.7  T
     SCC iter.                  ...        0 min,  0.002 sec
     gradient                   ...        0 min,  0.004 sec
 * total energy  :   -23.0316257 Eh     change       -0.1514280E-04 Eh
   gradient norm :     0.0017694 Eh/α   predicted    -0.1051659E-04 ( -30.55%)
   displ. norm   :     0.0379926 α      lambda       -0.9043519E-05
   maximum displ.:     0.0233997 α      in ANC's #1, #2, #3, ...

........................................................................
.............................. CYCLE    5 ..............................
........................................................................

 iter      E             dE          RMSdq      gap      omega  full diag
   1    -23.3421309 -0.233421E+02  0.193E-02    3.88       0.0  T
   2    -23.3421310 -0.630164E-07  0.114E-02    3.88       2.0  T
   3    -23.3421310  0.837649E-08  0.125E-03    3.88      18.4  T
   4    -23.3421310 -0.173305E-07  0.357E-04    3.88      64.3  T
   5    -23.3421310 -0.499131E-09  0.197E-04    3.88     116.7  T
     SCC iter.                  ...        0 min,  0.002 sec
     gradient                   ...        0 min,  0.004 sec
 * total energy  :   -23.0316330 Eh     change       -0.7311339E-05 Eh
   gradient norm :     0.0010051 Eh/α   predicted    -0.4525695E-05 ( -38.10%)
   displ. norm   :     0.0308630 α      lambda       -0.4195234E-05
   maximum displ.:     0.0194114 α      in ANC's #2, #1, #4, ...

........................................................................
.............................. CYCLE    6 ..............................
........................................................................

 iter      E             dE          RMSdq      gap      omega  full diag
   1    -23.3421059 -0.233421E+02  0.118E-02    3.88       0.0  T
   2    -23.3421059 -0.308963E-07  0.692E-03    3.88       3.3  T
   3    -23.3421059  0.961379E-08  0.111E-03    3.88      20.6  T
   4    -23.3421059 -0.157390E-07  0.251E-04    3.88      91.4  T
   5    -23.3421059 -0.239840E-09  0.131E-04    3.88     174.9  T
     SCC iter.                  ...        0 min,  0.002 sec
     gradient                   ...        0 min,  0.004 sec
 * total energy  :   -23.0316378 Eh     change       -0.4785355E-05 Eh
   gradient norm :     0.0004986 Eh/α   predicted    -0.2098780E-05 ( -56.14%)
   displ. norm   :     0.0538851 α      lambda       -0.4971459E-05
   maximum displ.:     0.0342203 α      in ANC's #2, #1, #4, ...

........................................................................
.............................. CYCLE    7 ..............................
........................................................................

 iter      E             dE          RMSdq      gap      omega  full diag
   1    -23.3423511 -0.233424E+02  0.180E-02    3.88       0.0  T
   2    -23.3423511 -0.319716E-07  0.106E-02    3.88       2.2  T
   3    -23.3423511  0.141717E-07  0.133E-03    3.88      17.2  T
   4    -23.3423511 -0.252206E-07  0.313E-04    3.88      73.3  T
   5    -23.3423511 -0.927898E-10  0.142E-04    3.88     161.8  T
     SCC iter.                  ...        0 min,  0.002 sec
     gradient                   ...        0 min,  0.004 sec
 * total energy  :   -23.0316432 Eh     change       -0.5424447E-05 Eh
   gradient norm :     0.0005921 Eh/α   predicted    -0.2489611E-05 ( -54.10%)
   displ. norm   :     0.0559410 α      lambda       -0.3495683E-05
   maximum displ.:     0.0376189 α      in ANC's #2, #1, #4, ...

........................................................................
.............................. CYCLE    8 ..............................
........................................................................

 iter      E             dE          RMSdq      gap      omega  full diag
   1    -23.3424018 -0.233424E+02  0.170E-02    3.88       0.0  T
   2    -23.3424018 -0.107325E-07  0.100E-02    3.88       2.3  T
   3    -23.3424018 -0.395555E-08  0.485E-04    3.88      47.3  T
   4    -23.3424018 -0.140189E-08  0.261E-04    3.88      87.9  T
     SCC iter.                  ...        0 min,  0.001 sec
     gradient                   ...        0 min,  0.004 sec
 * total energy  :   -23.0316470 Eh     change       -0.3736602E-05 Eh
   gradient norm :     0.0005748 Eh/α   predicted    -0.1751464E-05 ( -53.13%)
   displ. norm   :     0.0363396 α      lambda       -0.1789344E-05
   maximum displ.:     0.0272292 α      in ANC's #2, #4, #1, ...

........................................................................
.............................. CYCLE    9 ..............................
........................................................................

 iter      E             dE          RMSdq      gap      omega  full diag
   1    -23.3423618 -0.233424E+02  0.950E-03    3.88       0.0  T
   2    -23.3423618 -0.541922E-08  0.563E-03    3.88       4.1  T
   3    -23.3423618  0.347342E-09  0.394E-04    3.88      58.2  T
   4    -23.3423618 -0.204399E-08  0.156E-04    3.88     147.0  T
     SCC iter.                  ...        0 min,  0.001 sec
     gradient                   ...        0 min,  0.004 sec
 * total energy  :   -23.0316490 Eh     change       -0.1989740E-05 Eh
   gradient norm :     0.0002751 Eh/α   predicted    -0.8977252E-06 ( -54.88%)
   displ. norm   :     0.0209613 α      lambda       -0.1005052E-05
   maximum displ.:     0.0173653 α      in ANC's #2, #3, #4, ...

........................................................................
.............................. CYCLE   10 ..............................
........................................................................

 iter      E             dE          RMSdq      gap      omega  full diag
   1    -23.3423951 -0.233424E+02  0.565E-03    3.88       0.0  T
   2    -23.3423951 -0.673275E-08  0.336E-03    3.88       6.8  T
   3    -23.3423951  0.177610E-08  0.487E-04    3.88      47.1  T
   4    -23.3423951 -0.293537E-08  0.125E-04    3.88     183.1  T
     SCC iter.                  ...        0 min,  0.001 sec
     gradient                   ...        0 min,  0.004 sec
 * total energy  :   -23.0316502 Eh     change       -0.1223241E-05 Eh
   gradient norm :     0.0001648 Eh/α   predicted    -0.5044169E-06 ( -58.76%)
   displ. norm   :     0.0181766 α      lambda       -0.8231384E-06
   maximum displ.:     0.0145478 α      in ANC's #2, #3, #5, ...

........................................................................
.............................. CYCLE   11 ..............................
........................................................................

 iter      E             dE          RMSdq      gap      omega  full diag
   1    -23.3423485 -0.233423E+02  0.564E-03    3.88       0.0  T
   2    -23.3423485 -0.272043E-08  0.336E-03    3.88       6.8  T
   3    -23.3423485  0.665029E-09  0.354E-04    3.88      64.8  T
   4    -23.3423485 -0.164994E-08  0.109E-04    3.88     210.9  T
     SCC iter.                  ...        0 min,  0.001 sec
     gradient                   ...        0 min,  0.004 sec
 * total energy  :   -23.0316513 Eh     change       -0.1081998E-05 Eh
   gradient norm :     0.0002146 Eh/α   predicted    -0.4139627E-06 ( -61.74%)
   displ. norm   :     0.0231229 α      lambda       -0.9259049E-06
   maximum displ.:     0.0170984 α      in ANC's #2, #3, #5, ...

........................................................................
.............................. CYCLE   12 ..............................
........................................................................

 iter      E             dE          RMSdq      gap      omega  full diag
   1    -23.3423357 -0.233423E+02  0.709E-03    3.88       0.0  T
   2    -23.3423357 -0.292460E-08  0.422E-03    3.88       5.4  T
   3    -23.3423357 -0.724988E-09  0.259E-04    3.88      88.6  T
   4    -23.3423357 -0.490243E-09  0.129E-04    3.88     177.4  T
     SCC iter.                  ...        0 min,  0.001 sec
     gradient                   ...        0 min,  0.004 sec
 * total energy  :   -23.0316524 Eh     change       -0.1181591E-05 Eh
   gradient norm :     0.0002201 Eh/α   predicted    -0.4660562E-06 ( -60.56%)
   displ. norm   :     0.0244196 α      lambda       -0.7703094E-06
   maximum displ.:     0.0182926 α      in ANC's #2, #3, #5, ...

........................................................................
.............................. CYCLE   13 ..............................
........................................................................

 iter      E             dE          RMSdq      gap      omega  full diag
   1    -23.3423364 -0.233423E+02  0.665E-03    3.88       0.0  T
   2    -23.3423364 -0.219180E-08  0.396E-03    3.88       5.8  T
   3    -23.3423364 -0.861686E-09  0.185E-04    3.88     124.0  T
   4    -23.3423364 -0.893330E-10  0.108E-04    3.88     211.6  T
     SCC iter.                  ...        0 min,  0.001 sec
     gradient                   ...        0 min,  0.004 sec
 * total energy  :   -23.0316533 Eh     change       -0.8934118E-06 Eh
   gradient norm :     0.0001502 Eh/α   predicted    -0.3860247E-06 ( -56.79%)
   displ. norm   :     0.0179858 α      lambda       -0.3864606E-06
   maximum displ.:     0.0143485 α      in ANC's #2, #5, #3, ...

........................................................................
.............................. CYCLE   14 ..............................
........................................................................

 iter      E             dE          RMSdq      gap      omega  full diag
   1    -23.3423335 -0.233423E+02  0.480E-03    3.88       0.0  T
   2    -23.3423335 -0.102139E-08  0.286E-03    3.88       8.0  T
   3    -23.3423335 -0.148582E-09  0.152E-04    3.88     151.2  T
   4    -23.3423335 -0.231459E-09  0.754E-05    3.88     304.1  T
     SCC iter.                  ...        0 min,  0.001 sec
     gradient                   ...        0 min,  0.004 sec
 * total energy  :   -23.0316538 Eh     change       -0.4428434E-06 Eh
   gradient norm :     0.0000918 Eh/α   predicted    -0.1980602E-06 ( -55.28%)
   displ. norm   :     0.0116783 α      lambda       -0.2015355E-06
   maximum displ.:     0.0097677 α      in ANC's #2, #5, #1, ...

........................................................................
.............................. CYCLE   15 ..............................
........................................................................

 iter      E             dE          RMSdq      gap      omega  full diag
   1    -23.3423624 -0.233424E+02  0.284E-03    3.88       0.0  T
   2    -23.3423624 -0.380613E-09  0.170E-03    3.88      13.5  T
   3    -23.3423624  0.919194E-10  0.135E-04    3.88     169.6  T
   4    -23.3423624 -0.242313E-09  0.458E-05    3.88     501.3  T
     SCC iter.                  ...        0 min,  0.001 sec
     gradient                   ...        0 min,  0.004 sec
 * total energy  :   -23.0316540 Eh     change       -0.2530404E-06 Eh
   gradient norm :     0.0000506 Eh/α   predicted    -0.1028418E-06 ( -59.36%)
   displ. norm   :     0.0092477 α      lambda       -0.1463992E-06
   maximum displ.:     0.0074021 α      in ANC's #2, #1, #4, ...

........................................................................
.............................. CYCLE   16 ..............................
........................................................................

 iter      E             dE          RMSdq      gap      omega  full diag
   1    -23.3423707 -0.233424E+02  0.287E-03    3.88       0.0  T
   2    -23.3423707 -0.334790E-09  0.170E-03    3.88      13.5  T
   3    -23.3423707 -0.816307E-10  0.100E-04    3.88     229.3  T
   4    -23.3423707 -0.867431E-10  0.480E-05    3.88     478.1  T
     SCC iter.                  ...        0 min,  0.001 sec
     gradient                   ...        0 min,  0.004 sec
 * total energy  :   -23.0316542 Eh     change       -0.1941049E-06 Eh
   gradient norm :     0.0000607 Eh/α   predicted    -0.7367685E-07 ( -62.04%)
   displ. norm   :     0.0087997 α      lambda       -0.1291762E-06
   maximum displ.:     0.0069701 α      in ANC's #2, #4, #1, ...

........................................................................
.............................. CYCLE   17 ..............................
........................................................................

 iter      E             dE          RMSdq      gap      omega  full diag
   1    -23.3423746 -0.233424E+02  0.261E-03    3.88       0.0  T
   2    -23.3423746 -0.353914E-09  0.154E-03    3.88      14.8  T
   3    -23.3423746 -0.165446E-09  0.772E-05    3.88     297.3  T
   4    -23.3423746 -0.112905E-10  0.448E-05    3.88     512.2  T
     SCC iter.                  ...        0 min,  0.001 sec
     gradient                   ...        0 min,  0.004 sec
 * total energy  :   -23.0316544 Eh     change       -0.1687314E-06 Eh
   gradient norm :     0.0000615 Eh/α   predicted    -0.6689785E-07 ( -60.35%)
   displ. norm   :     0.0073693 α      lambda       -0.9903358E-07
   maximum displ.:     0.0061736 α      in ANC's #2, #4, #7, ...

........................................................................
.............................. CYCLE   18 ..............................
........................................................................

 iter      E             dE          RMSdq      gap      omega  full diag
   1    -23.3423734 -0.233424E+02  0.254E-03    3.88       0.0  T
   2    -23.3423734 -0.360778E-09  0.150E-03    3.88      15.3  T
   3    -23.3423734 -0.145512E-09  0.744E-05    3.88     308.5  T
   4    -23.3423734 -0.183711E-10  0.444E-05    3.88     516.2  T
     SCC iter.                  ...        0 min,  0.001 sec
     gradient                   ...        0 min,  0.004 sec
 * total energy  :   -23.0316545 Eh     change       -0.1326950E-06 Eh
   gradient norm :     0.0000378 Eh/α   predicted    -0.5112087E-07 ( -61.47%)
   displ. norm   :     0.0058691 α      lambda       -0.7083784E-07
   maximum displ.:     0.0050993 α      in ANC's #2, #4, #3, ...

........................................................................
.............................. CYCLE   19 ..............................
........................................................................

 iter      E             dE          RMSdq      gap      omega  full diag
   1    -23.3423658 -0.233424E+02  0.195E-03    3.88       0.0  T
   2    -23.3423658 -0.267907E-09  0.116E-03    3.88      19.9  T
   3    -23.3423658 -0.475744E-10  0.860E-05    3.88     266.8  T
   4    -23.3423658 -0.738645E-10  0.416E-05    3.88     551.4  T
     SCC iter.                  ...        0 min,  0.001 sec
     gradient                   ...        0 min,  0.004 sec
 * total energy  :   -23.0316546 Eh     change       -0.1031179E-06 Eh
   gradient norm :     0.0000241 Eh/α   predicted    -0.3747615E-07 ( -63.66%)
   displ. norm   :     0.0058665 α      lambda       -0.6957258E-07
   maximum displ.:     0.0048537 α      in ANC's #2, #1, #3, ...

........................................................................
.............................. CYCLE   20 ..............................
........................................................................

 iter      E             dE          RMSdq      gap      omega  full diag
   1    -23.3423631 -0.233424E+02  0.210E-03    3.88       0.0  T
   2    -23.3423631 -0.275612E-09  0.124E-03    3.88      18.5  T
   3    -23.3423631 -0.816769E-10  0.791E-05    3.88     290.0  T
   4    -23.3423631 -0.481393E-10  0.430E-05    3.88     533.6  T
     SCC iter.                  ...        0 min,  0.001 sec
     gradient                   ...        0 min,  0.004 sec
 * total energy  :   -23.0316547 Eh     change       -0.1046348E-06 Eh
   gradient norm :     0.0000341 Eh/α   predicted    -0.3629766E-07 ( -65.31%)
   displ. norm   :     0.0081053 α      lambda       -0.9551589E-07
   maximum displ.:     0.0062487 α      in ANC's #2, #1, #3, ...
 * RMSD in coord.:     0.0971334 α      energy gain  -0.8923778E-03 Eh

generating ANC from exact Hessian ...
Using Lindh-Hessian (1995)
 Shifting diagonal of input Hessian by   8.496237181510945E-003
 Lowest  eigenvalues of input Hessian
    0.000000    0.000000    0.000000    0.000000    0.000000    0.000000
    0.010000    0.011126    0.012470    0.015655    0.017807    0.019435
    0.021521    0.027586    0.037024    0.049441    0.056528    0.059863
 Highest eigenvalues
    1.177730    1.194887    1.229735    1.273189    1.413273    2.121142
 

........................................................................
.............................. CYCLE   21 ..............................
........................................................................

 iter      E             dE          RMSdq      gap      omega  full diag
   1    -23.3423609 -0.233424E+02  0.290E-03    3.88       0.0  T
   2    -23.3423609 -0.464336E-09  0.172E-03    3.88      13.4  T
   3    -23.3423609 -0.200000E-09  0.965E-05    3.88     237.7  T
   4    -23.3423609 -0.428848E-10  0.579E-05    3.88     396.2  T
     SCC iter.                  ...        0 min,  0.001 sec
     gradient                   ...        0 min,  0.004 sec
 * total energy  :   -23.0316549 Eh     change       -0.1443439E-06 Eh
   gradient norm :     0.0000462 Eh/α   predicted     0.0000000E+00 (-100.00%)
   displ. norm   :     0.0000693 α      lambda        0.0000000E+00
   maximum displ.:     0.0000272 α      in ANC's #39, #46, #2, ...

........................................................................
.............................. CYCLE   22 ..............................
........................................................................

 iter      E             dE          RMSdq      gap      omega  full diag
   1    -23.3423607 -0.233424E+02  0.107E-04    3.88       0.0  T
   2    -23.3423607 -0.180123E-10  0.644E-05    3.88     356.4  T
   3    -23.3423607  0.376588E-12  0.242E-05    3.88     947.9  T
     SCC iter.                  ...        0 min,  0.001 sec
     gradient                   ...        0 min,  0.004 sec
 * total energy  :   -23.0316549 Eh     change       -0.2164757E-08 Eh
   gradient norm :     0.0000264 Eh/α   predicted    -0.1420492E-08 ( -34.38%)
   displ. norm   :     0.0000693 α      lambda        0.0000000E+00
   maximum displ.:     0.0000272 α      in ANC's #39, #46, #2, ...

   *** GEOMETRY OPTIMIZATION CONVERGED AFTER 22 ITERATIONS ***

------------------------------------------------------------------------
 total energy gain   :        -0.0008925 Eh       -0.5601 kcal/mol
 total RMSD          :         0.0971352 a0        0.0514 Å
 total power (kW/mol):        -0.1065147 (step)  -12.1658 (real)
------------------------------------------------------------------------

 ANCopt (total)                0 d,  0 h,  0 min,  0.193 sec
 optimizer setup                ...        0 min,  0.000 sec (  0.188%)
 model hessian                  ...        0 min,  0.011 sec (  5.569%)
 ANC generation                 ...        0 min,  0.001 sec (  0.379%)
 coordinate transformation      ...        0 min,  0.000 sec (  0.055%)
 single point calculation       ...        0 min,  0.172 sec ( 89.225%)
 optimization log               ...        0 min,  0.007 sec (  3.619%)
 hessian update                 ...        0 min,  0.000 sec (  0.063%)
 rational function              ...        0 min,  0.001 sec (  0.433%)

================
 final structure:
================
$coord
        5.62066056332629       -0.01000012670607       -1.21333936091252      C
        3.07927736444266       -0.73793244695316       -0.07000284992409      C
        1.63156674901986        1.58062840012534        0.85380902402514      C
       -0.91610593203585        0.88698296009530        2.06281488836020      C
       -2.64554942954426       -0.37636187621777        0.17993148072180      C
       -2.93761239777305       -2.65596317714398        0.12840106485016      O
       -3.98605594732880        1.36582251426083       -1.60742711654243      C
        6.62557535218387       -1.68237484057773       -1.85501068560008      H
        5.35582087799281        1.24388096774445       -2.82009573955104      H
        6.78460878366646        0.95467898648245        0.17881805482377      H
        3.37852615839256       -2.02953942560554        1.51179308712025      H
        1.95065179069069       -1.74526059511802       -1.47571123103756      H
        1.32849745851864        2.87014598526543       -0.72667718548174      H
        2.76788966707377        2.56837381073244        2.26348681430978      H
       -0.58499367545023       -0.41274646592753        3.62924632413433      H
       -1.81429471860524        2.60149923941990        2.76567191889056      H
       -2.69861448689125        2.78885731705471       -2.33288580072275      H
       -4.82703766762206        0.30351033103377       -3.14988166005468      H
       -5.47785540749937        2.32925633277454       -0.56983844043303      H
$end
 
 Bond Distances (Angstroems)
 ---------------------------
C1-C2=1.5242         C1-H8=1.0869         C1-H9=1.0876         C1-H10=1.0875        C2-C1=1.5242         C2-C3=1.5268         
C2-H11=1.0922        C2-H12=1.0928        C3-C2=1.5268         C3-C4=1.5368         C3-H13=1.0913        C3-H14=1.0914        
C4-C3=1.5368         C4-C5=1.5091         C4-H15=1.0913        C4-H16=1.0897        C5-C4=1.5091         C5-O6=1.2165         
C5-C7=1.4992         O6-C5=1.2165         C7-C5=1.4992         C7-H17=1.0856        C7-H18=1.0864        C7-H19=1.0884        
H8-C1=1.0869         H9-C1=1.0876         H10-C1=1.0875        H11-C2=1.0922        H12-C2=1.0928        H13-C3=1.0913        
H14-C3=1.0914        H15-C4=1.0913        H16-C4=1.0897        H17-C7=1.0856        H18-C7=1.0864        H19-C7=1.0884        
 C  H  Rav=1.0893 sigma=0.0024  Rmin=1.0856  Rmax=1.0928    12
 C  C  Rav=1.5192 sigma=0.0134  Rmin=1.4992  Rmax=1.5368     5
 O  C  Rav=1.2165 sigma=0.0000  Rmin=1.2165  Rmax=1.2165     1
 
 selected bond angles (degree)
 --------------------
H8-C1-C2=110.48                H9-C1-C2=110.54                H9-C1-H8=108.40                H10-C1-C2=110.45               
H10-C1-H8=108.47               H10-C1-H9=108.43               C3-C2-C1=111.51                H11-C2-C1=109.54               
H11-C2-C3=109.28               H12-C2-C1=109.59               H12-C2-C3=109.62               H12-C2-H11=107.20              
C4-C3-C2=112.43                H13-C3-C2=109.32               H13-C3-C4=109.85               H14-C3-C2=109.10               
H14-C3-C4=108.25               H14-C3-H13=107.78              C5-C4-C3=111.28                H15-C4-C3=109.02               
H15-C4-C5=108.64               H16-C4-C3=109.02               H16-C4-C5=109.25               H16-C4-H15=109.60              
O6-C5-C4=122.08                C7-C5-C4=115.54                C7-C5-O6=122.38                H17-C7-C5=110.65               
H18-C7-C5=110.46               H18-C7-H17=110.51              H19-C7-C5=108.24               H19-C7-H17=107.98              
H19-C7-H18=108.92              
 
 selected dihedral angles (degree)
 ---------------------------------
C3-C2-C1-H8=179.84            C3-C2-C1-H9=299.82            C3-C2-C1-H10= 59.83           H11-C2-C1-H8= 58.74           
H11-C2-C1-H9=178.72           H11-C2-C1-H10=298.73          H12-C2-C1-H8=301.40           H12-C2-C1-H9= 61.38           
H12-C2-C1-H10=181.38          C4-C3-C2-C1=181.14            C4-C3-C2-H11=302.39           C4-C3-C2-H12= 59.60           
H13-C3-C2-C1= 58.87           H13-C3-C2-H11=180.12          H13-C3-C2-H12=297.33          H14-C3-C2-C1=301.23           
H14-C3-C2-H11= 62.48          H14-C3-C2-H12=179.69          C5-C4-C3-C2=297.79            C5-C4-C3-H13= 59.76           
C5-C4-C3-H14=177.20           H15-C4-C3-C2= 57.61           H15-C4-C3-H13=179.58          H15-C4-C3-H14=297.02          
H16-C4-C3-C2=177.23           H16-C4-C3-H13=299.20          H16-C4-C3-H14= 56.64          O6-C5-C4-C3=100.67            
O6-C5-C4-H15=340.63           O6-C5-C4-H16=221.10           C7-C5-C4-C3=280.34            C7-C5-C4-H15=160.30           
C7-C5-C4-H16= 40.77           H17-C7-C5-C4= 44.09           H17-C7-C5-O6=223.76           H18-C7-C5-C4=166.79           
H18-C7-C5-O6=346.46           H19-C7-C5-C4=285.96           H19-C7-C5-O6=105.63           
           -------------------------------------------------
          |                Final Singlepoint                |
           -------------------------------------------------

          ...................................................
          :                      SETUP                      :
          :.................................................:
          :  # basis functions                  40          :
          :  # atomic orbitals                  40          :
          :  # shells                           26          :
          :  # electrons                        42          :
          :  max. iterations                   250          :
          :  Hamiltonian                  GFN2-xTB          :
          :  restarted?                      false          :
          :  GBSA solvation                   true          :
          :  PC potential                    false          :
          :  electronic temp.          300.0000000     K    :
          :  accuracy                    1.0000000          :
          :  -> integral cutoff          0.2500000E+02      :
          :  -> integral neglect         0.1000000E-07      :
          :  -> SCF convergence          0.1000000E-05 Eh   :
          :  -> wf. convergence          0.1000000E-03 e    :
          :  Broyden damping             0.4000000          :
          :  net charge                          0          :
          :  unpaired electrons                  0          :
          ...................................................

 iter      E             dE          RMSdq      gap      omega  full diag
   1    -23.3423607 -0.233424E+02  0.590E-06    3.88       0.0  T
   2    -23.3423607 -0.184741E-12  0.311E-06    3.88    7377.4  T
   3    -23.3423607 -0.106581E-13  0.200E-06    3.88   11492.6  T

   *** convergence criteria satisfied after 3 iterations ***

         #    Occupation            Energy/Eh            Energy/eV
      -------------------------------------------------------------
         1        2.0000           -0.7142794             -19.4365
       ...           ...                  ...                  ...
        15        2.0000           -0.4676437             -12.7252
        16        2.0000           -0.4618947             -12.5688
        17        2.0000           -0.4507313             -12.2650
        18        2.0000           -0.4432542             -12.0616
        19        2.0000           -0.4315557             -11.7432
        20        2.0000           -0.4261655             -11.5966
        21        2.0000           -0.3963215             -10.7845 (HOMO)
        22                         -0.2538372              -6.9073 (LUMO)
        23                          0.0762110               2.0738
        24                          0.0882830               2.4023
        25                          0.1175643               3.1991
        26                          0.1299142               3.5351
       ...                                ...                  ...
        40                          0.5968516              16.2412
      -------------------------------------------------------------
                  HL-Gap            0.1424842 Eh            3.8772 eV
             Fermi-level           -0.3250794 Eh           -8.8459 eV

 SCC (total)                   0 d,  0 h,  0 min,  0.009 sec
 SCC setup                      ...        0 min,  0.001 sec ( 11.861%)
 Dispersion                     ...        0 min,  0.000 sec (  0.569%)
 classical contributions        ...        0 min,  0.000 sec (  0.192%)
 integral evaluation            ...        0 min,  0.001 sec ( 15.117%)
 iterations                     ...        0 min,  0.001 sec ( 14.114%)
 molecular gradient             ...        0 min,  0.005 sec ( 56.545%)
 printout                       ...        0 min,  0.000 sec (  1.439%)

         :::::::::::::::::::::::::::::::::::::::::::::::::::::
         ::                     SUMMARY                     ::
         :::::::::::::::::::::::::::::::::::::::::::::::::::::
         :: total energy             -23.031654877012 Eh    ::
         :: total w/o Gsasa/hb       -23.031909529273 Eh    ::
         :: gradient norm              0.000026603926 Eh/a0 ::
         :: HOMO-LUMO gap              3.877193627236 eV    ::
         ::.................................................::
         :: SCC energy               -23.342319718160 Eh    ::
         :: -> isotropic ES            0.041299953624 Eh    ::
         :: -> anisotropic ES          0.002972447560 Eh    ::
         :: -> anisotropic XC          0.011349716169 Eh    ::
         :: -> dispersion             -0.011055942185 Eh    ::
         :: -> Gsolv                  -0.008159988181 Eh    ::
         ::    -> Gelec               -0.008414640442 Eh    ::
         ::    -> Gsasa                0.001126867902 Eh    ::
         ::    -> Ghb                 -0.001952975339 Eh    ::
         ::    -> Gshift               0.001080759698 Eh    ::
         :: repulsion energy           0.310664841148 Eh    ::
         :: add. restraining           0.000000000000 Eh    ::
         :: total charge              -0.000000000000 e     ::
         :::::::::::::::::::::::::::::::::::::::::::::::::::::

           ------------------------------------------------- 
          |                Numerical Hessian                |
           ------------------------------------------------- 
step length          :   0.00500
SCC accuracy         :   0.30000
Hessian scale factor :   1.00000
frozen atoms in %    :   0.00000    0
RMS gradient         :   0.00003
estimated CPU  time      0.02 min
estimated wall time      0.02 min

writing file <hessian>.

 projected vibrational frequencies (cm⁻¹)
eigval :       -0.00    -0.00    -0.00    -0.00     0.00     0.00
eigval :       24.87    69.14    93.62    97.46   217.12   240.29
eigval :      263.91   383.06   418.78   507.92   586.38   769.70
eigval :      823.26   861.22   909.49   936.32   981.33   997.89
eigval :     1050.83  1089.48  1099.60  1122.41  1184.03  1210.45
eigval :     1230.09  1282.57  1299.21  1301.96  1357.40  1366.28
eigval :     1411.85  1430.27  1443.65  1453.74  1483.73  1498.49
eigval :     1500.25  1502.05  1702.63  2960.38  2974.52  2981.82
eigval :     2986.65  2995.63  2998.28  3021.85  3027.58  3031.62
eigval :     3042.04  3049.97  3058.82
           -------------------------------------------------
          |                Property Printout                |
           -------------------------------------------------

    * Orbital Energies and Occupations

         #    Occupation            Energy/Eh            Energy/eV
      -------------------------------------------------------------
         1        2.0000           -0.7142794             -19.4365
       ...           ...                  ...                  ...
         9        2.0000           -0.5316548             -14.4671
        10        2.0000           -0.5257952             -14.3076
        11        2.0000           -0.5045094             -13.7284
        12        2.0000           -0.4916264             -13.3778
        13        2.0000           -0.4890895             -13.3088
        14        2.0000           -0.4718473             -12.8396
        15        2.0000           -0.4676437             -12.7252
        16        2.0000           -0.4618947             -12.5688
        17        2.0000           -0.4507313             -12.2650
        18        2.0000           -0.4432542             -12.0616
        19        2.0000           -0.4315557             -11.7432
        20        2.0000           -0.4261655             -11.5966
        21        2.0000           -0.3963215             -10.7845 (HOMO)
        22                         -0.2538372              -6.9073 (LUMO)
        23                          0.0762110               2.0738
        24                          0.0882830               2.4023
        25                          0.1175643               3.1991
        26                          0.1299142               3.5351
        27                          0.1373873               3.7385
        28                          0.1585349               4.3140
        29                          0.1760074               4.7894
        30                          0.1791679               4.8754
        31                          0.1857746               5.0552
        32                          0.1940179               5.2795
       ...                                ...                  ...
        40                          0.5968516              16.2412
      -------------------------------------------------------------
                  HL-Gap            0.1424843 Eh            3.8772 eV
             Fermi-level           -0.3250794 Eh           -8.8459 eV

     #   Z          covCN         q      C6AA      α(0)
     1   6 C        3.752    -0.114    22.736     6.800
     2   6 C        3.800    -0.055    21.559     6.611
     3   6 C        3.804    -0.059    21.627     6.621
     4   6 C        3.804    -0.096    22.328     6.727
     5   6 C        2.812     0.253    22.760     7.816
     6   8 O        0.857    -0.443    22.558     6.368
     7   6 C        3.754    -0.158    23.628     6.931
     8   1 H        0.925     0.039     2.464     2.455
     9   1 H        0.925     0.040     2.452     2.449
    10   1 H        0.925     0.042     2.425     2.435
    11   1 H        0.924     0.034     2.534     2.490
    12   1 H        0.924     0.025     2.663     2.552
    13   1 H        0.924     0.045     2.377     2.411
    14   1 H        0.924     0.054     2.273     2.357
    15   1 H        0.924     0.060     2.199     2.319
    16   1 H        0.925     0.074     2.043     2.235
    17   1 H        0.925     0.089     1.884     2.147
    18   1 H        0.925     0.072     2.059     2.244
    19   1 H        0.925     0.098     1.805     2.101

 Mol. C6AA /au·bohr⁶  :       2609.659650
 Mol. C8AA /au·bohr⁸  :      55873.839311
 Mol. α(0) /au        :         76.067972


Wiberg/Mayer (AO) data.
largest (>0.10) Wiberg bond orders for each atom

 ---------------------------------------------------------------------------
     #   Z sym  total        # sym  WBO       # sym  WBO       # sym  WBO
 ---------------------------------------------------------------------------
     1   6 C    3.996 --     2 C    1.019     9 H    0.988    10 H    0.987
                             8 H    0.987
     2   6 C    3.997 --     1 C    1.019     3 C    1.010    12 H    0.978
                            11 H    0.978
     3   6 C    3.993 --     2 C    1.010     4 C    0.975    13 H    0.974
                            14 H    0.974
     4   6 C    3.994 --     5 C    0.997     3 C    0.975    15 H    0.972
                            16 H    0.961
     5   6 C    3.894 --     6 O    1.806     7 C    1.023     4 C    0.997
     6   8 O    2.010 --     5 C    1.806
     7   6 C    3.991 --     5 C    1.023    18 H    0.981    17 H    0.959
                            19 H    0.943
     8   1 H    0.998 --     1 C    0.987
     9   1 H    0.998 --     1 C    0.988
    10   1 H    0.998 --     1 C    0.987
    11   1 H    0.999 --     2 C    0.978
    12   1 H    0.999 --     2 C    0.978
    13   1 H    0.998 --     3 C    0.974
    14   1 H    0.997 --     3 C    0.974
    15   1 H    0.996 --     4 C    0.972
    16   1 H    0.994 --     4 C    0.961
    17   1 H    0.992 --     7 C    0.959
    18   1 H    0.995 --     7 C    0.981
    19   1 H    0.990 --     7 C    0.943
 ---------------------------------------------------------------------------

Topologies differ in total number of bonds
Writing topology from bond orders to xtbtopo.mol

molecular dipole:
                 x           y           z       tot (Debye)
 q only:        0.278       1.577      -0.007
   full:        0.256       1.645       0.005       4.231
molecular quadrupole (traceless):
                xx          xy          yy          xz          yz          zz
 q only:        1.507      -6.455      -3.143       1.137       0.076       1.636
  q+dip:        0.792      -7.245      -3.540       1.810       0.072       2.748
   full:        1.529      -7.286      -4.070       0.857       0.156       2.541

           -------------------------------------------------
          |                Geometry Summary                 |
           -------------------------------------------------

      molecular mass/u    :      100.1591093
   center of mass at/Å    :       -0.0035626      -0.0004599       0.0101673
  moments of inertia/u·Å² :        0.1109313E+03   0.3713642E+03   0.3892100E+03
rotational constants/cm⁻¹ :        0.1519646E+00   0.4539380E-01   0.4331243E-01

 * 16 selected distances

     #   Z          #   Z                                           value/Å
     1   6 C        2   6 C                                       1.5241529
     2   6 C        3   6 C                                       1.5268409
     3   6 C        4   6 C                                       1.5367544 (max)
     5   6 C        6   8 O                                       1.2164792
     1   6 C        8   1 H                                       1.0868679
     1   6 C        9   1 H                                       1.0875879
     1   6 C       10   1 H                                       1.0875183
     2   6 C       11   1 H                                       1.0921938
     2   6 C       12   1 H                                       1.0927891
     3   6 C       13   1 H                                       1.0912661
     3   6 C       14   1 H                                       1.0914481
     4   6 C       15   1 H                                       1.0912656
     4   6 C       16   1 H                                       1.0896834
     7   6 C       17   1 H                                       1.0856293 (min)
     7   6 C       18   1 H                                       1.0864157
     7   6 C       19   1 H                                       1.0883905

 * 3 distinct bonds (by element types)

   Z      Z             #   av. dist./Å        max./Å        min./Å
   1 H    6 C          12     1.0892546     1.0927891     1.0856293
   6 C    6 C           3     1.5292494     1.5367544     1.5241529
   6 C    8 O           1     1.2164792     1.2164792     1.2164792

           -------------------------------------------------
          |               Frequency Printout                |
           -------------------------------------------------
 projected vibrational frequencies (cm⁻¹)
eigval :       -0.00    -0.00    -0.00    -0.00     0.00     0.00
eigval :       24.87    69.14    93.62    97.46   217.12   240.29
eigval :      263.91   383.06   418.78   507.92   586.38   769.70
eigval :      823.26   861.22   909.49   936.32   981.33   997.89
eigval :     1050.83  1089.48  1099.60  1122.41  1184.03  1210.45
eigval :     1230.09  1282.57  1299.21  1301.96  1357.40  1366.28
eigval :     1411.85  1430.27  1443.65  1453.74  1483.73  1498.49
eigval :     1500.25  1502.05  1702.63  2960.38  2974.52  2981.82
eigval :     2986.65  2995.63  2998.28  3021.85  3027.58  3031.62
eigval :     3042.04  3049.97  3058.82
 reduced masses (amu)
   1: 11.52   2: 11.13   3: 10.13   4: 11.06   5: 11.80   6:  9.28   7:  9.27   8:  7.01
   9:  7.51  10:  5.43  11:  5.60  12:  4.67  13:  8.66  14:  8.01  15:  9.13  16: 11.19
  17:  8.07  18:  3.44  19:  7.24  20:  6.06  21:  4.36  22:  5.27  23:  5.54  24:  4.33
  25:  7.80  26:  6.84  27:  6.70  28:  7.20  29:  6.13  30:  7.64  31:  4.51  32:  2.20
  33:  3.60  34:  4.14  35:  3.32  36:  4.90  37:  3.22  38:  1.88  39:  1.70  40:  2.13
  41:  1.94  42:  1.55  43:  1.54  44:  1.93  45: 13.18  46:  1.93  47:  2.00  48:  1.47
  49:  1.54  50:  1.64  51:  1.82  52:  1.79  53:  1.95  54:  1.84  55:  1.35  56:  1.44
  57:  1.94
 IR intensities (km·mol⁻¹)
   1:  2.77   2:  0.66   3:  1.15   4:  0.61   5:  1.70   6:  1.70   7:  6.46   8:  0.44
   9:  4.16  10:  0.31  11:  0.75  12:  0.38  13:  0.35  14:  2.59  15:  0.39  16: 23.56
  17:  1.01  18: 15.84  19:  1.87  20:  0.60  21:  2.92  22:  4.03  23: 19.45  24: 23.59
  25:  4.86  26: 20.17  27:  4.61  28: 13.20  29: 20.20  30:178.92  31:  8.69  32:  0.23
  33: 12.97  34: 14.13  35: 65.46  36:  0.69  37:  0.40  38: 22.69  39:  6.59  40:  9.20
  41:  0.49  42:  2.55  43:  1.39  44:  1.26  45:549.04  46: 27.03  47: 95.66  48: 25.18
  49: 54.56  50: 71.43  51: 51.93  52:  3.38  53: 85.85  54: 80.18  55: 45.07  56:  5.70
  57: 22.87
 Raman intensities (Ä⁴*amu⁻¹)
   1:  0.00   2:  0.00   3:  0.00   4:  0.00   5:  0.00   6:  0.00   7:  0.00   8:  0.00
   9:  0.00  10:  0.00  11:  0.00  12:  0.00  13:  0.00  14:  0.00  15:  0.00  16:  0.00
  17:  0.00  18:  0.00  19:  0.00  20:  0.00  21:  0.00  22:  0.00  23:  0.00  24:  0.00
  25:  0.00  26:  0.00  27:  0.00  28:  0.00  29:  0.00  30:  0.00  31:  0.00  32:  0.00
  33:  0.00  34:  0.00  35:  0.00  36:  0.00  37:  0.00  38:  0.00  39:  0.00  40:  0.00
  41:  0.00  42:  0.00  43:  0.00  44:  0.00  45:  0.00  46:  0.00  47:  0.00  48:  0.00
  49:  0.00  50:  0.00  51:  0.00  52:  0.00  53:  0.00  54:  0.00  55:  0.00  56:  0.00
  57:  0.00
 output can be read by thermo (or use thermo option).
 writing <g98.out> molden fake output.
 recommended (thermochemical) frequency scaling factor: 1.0
           -------------------------------------------------
          |             Thermodynamic Functions             |
           -------------------------------------------------

Molecule has no symmetry elements
It seems to be the C1 point group
c1  symmetry found (for desy threshold:  0.10E+00) used in thermo

          ...................................................
          :                      SETUP                      :
          :.................................................:
          :  # frequencies                          51      :
          :  # imaginary freq.                       0      :
          :  linear?                             false      :
          :  only rotor calc.                    false      :
          :  symmetry                               c1      :
          :  rotational number                       1      :
          :  scaling factor                  1.0000000      :
          :  rotor cutoff                    0.0000000 cm⁻¹ :
          :  imag. cutoff                 -100.0000000 cm⁻¹ :
          :.................................................:

    mode    ω/cm⁻¹     T·S(HO)/kcal·mol⁻¹    T·S(FR)/kcal·mol⁻¹   T·S(vib)
   ------------------------------------------------------------------------
       1     24.87    -1.84906 (100.00%)    -1.26278 (  0.00%)    -1.84906
       2     69.14    -1.24555 (100.00%)    -0.96027 (  0.00%)    -1.24555
       3     93.62    -1.06823 (100.00%)    -0.87054 (  0.00%)    -1.06823
       4     97.46    -1.04489 (100.00%)    -0.85867 (  0.00%)    -1.04489
       5    217.12    -0.59123 (100.00%)    -0.62146 (  0.00%)    -0.59123
       6    240.29    -0.53688 (100.00%)    -0.59143 (  0.00%)    -0.53688
       7    263.91    -0.48771 (100.00%)    -0.56367 (  0.00%)    -0.48771
   ------------------------------------------------------------------------

   temp. (K)  partition function   enthalpy   heat capacity  entropy
                                   cal/mol     cal/K/mol   cal/K/mol   J/K/mol
 298.15  VIB  0.131E+04             3970.015     25.175     27.581
         ROT  0.306E+06              888.752      2.981     28.082
         INT  0.401E+09             4858.768     28.156     55.662
         TR   0.970E+27             1481.254      4.968     39.705
         TOT                        6340.0217    33.1245    95.3672   399.0162

       T/K    H(0)-H(T)+PV         H(T)/Eh          T*S/Eh         G(T)/Eh
   ------------------------------------------------------------------------
    298.15    0.101035E-01    0.177166E+00    0.453120E-01    0.131854E+00
   ------------------------------------------------------------------------

         :::::::::::::::::::::::::::::::::::::::::::::::::::::
         ::                  THERMODYNAMIC                  ::
         :::::::::::::::::::::::::::::::::::::::::::::::::::::
         :: total free energy         -22.899801073404 Eh   ::
         ::.................................................::
         :: total energy              -23.031654877066 Eh   ::
         :: zero point energy           0.167062349958 Eh   ::
         :: G(RRHO) w/o ZPVE           -0.035208546297 Eh   ::
         :: G(RRHO) contrib.            0.131853803662 Eh   ::
         :::::::::::::::::::::::::::::::::::::::::::::::::::::

optimized geometry written to: xtbopt.coord


           -------------------------------------------------
          | TOTAL ENERGY              -23.031654877066 Eh   |
          | TOTAL ENTHALPY            -22.854489059481 Eh   |
          | TOTAL FREE ENERGY         -22.899801073404 Eh   |
          | GRADIENT NORM               0.000026603474 Eh/α |
          | HOMO-LUMO GAP               3.877193915009 eV   |
           -------------------------------------------------

------------------------------------------------------------------------
 * finished run on 2025/04/11 at 16:35:43.069     
------------------------------------------------------------------------
 total:
 * wall-time:     0 d,  0 h,  0 min,  1.248 sec
 *  cpu-time:     0 d,  0 h,  0 min,  1.155 sec
 * ratio c/w:     0.926 speedup
 SCF:
 * wall-time:     0 d,  0 h,  0 min,  0.033 sec
 *  cpu-time:     0 d,  0 h,  0 min,  0.013 sec
 * ratio c/w:     0.382 speedup
 ANC optimizer:
 * wall-time:     0 d,  0 h,  0 min,  0.214 sec
 *  cpu-time:     0 d,  0 h,  0 min,  0.197 sec
 * ratio c/w:     0.921 speedup
 analytical hessian:
 * wall-time:     0 d,  0 h,  0 min,  0.936 sec
 *  cpu-time:     0 d,  0 h,  0 min,  0.926 sec
 * ratio c/w:     0.989 speedup

