! pbe def2-sv(p) def2/J RI DEFGRID1 loosescf d4 GCP(DFT/SV(P)) printgap
%output
    printlevel normal
end
* xyz 0 1
C -4.6265258088 -1.1476825014 -0.0880743771
C -3.8386839157 -2.289204197 -0.1418189159
C -2.4605588598 -2.1803793531 -0.1262550802
C -1.8449582694 -0.9322507094 -0.0572693569
C -2.64091607 0.2176701208 -0.0033090001
C -4.0294255365 0.0967815041 -0.019187313
C -2.0316084958 1.5517948406 0.069554794
O -2.7190935479 2.5698491998 0.1199323987
C -0.5595522171 1.6105937059 0.0792547902
C 0.0183012771 2.8667589916 0.1438871688
C 1.4042129318 3.0069661402 0.1570160226
C 2.208146154 1.9003115349 0.106119444
C 1.6616560001 0.5949318167 0.03954097
C 0.2406843862 0.4448683502 0.0253087529
C -0.3703338105 -0.8641806923 -0.0435161918
O 0.2813125049 -1.9232158957 -0.0914365187
N 2.462821822 -0.4743441779 -0.0090943594
C 3.9027609279 -0.4503188808 -0.0042267295
C 4.4479053025 -1.8764338601 -0.061804069
O 5.8570551734 -1.7959355014 -0.0635315533
H -5.7019346031 -1.2295249269 -0.1000925961
H -4.2997676566 -3.2629053444 -0.1959091989
H -1.8300952703 -3.056241149 -0.1671700776
H -4.6173096349 1.0017570652 0.0236980829
H -0.6314673519 3.727448197 0.1831889072
H 1.8405001717 3.9920934545 0.2073967959
H 3.2788146511 2.0140729895 0.1162265889
H 1.9928535397 -1.3758592069 -0.0579825136
H 4.2837014639 0.0287560409 0.9047453543
H 4.2890710507 0.1016142119 -0.8688033066
H 4.0866116181 -2.3695634433 -0.9737835095
H 4.0925287213 -2.4403367817 0.8104055747
H 6.2317914118 -2.686060637 -0.0957772539
*
