! pbe def2-sv(p) def2/J RI DEFGRID1 loosescf d4 GCP(DFT/SV(P)) printgap
%output
    printlevel normal
end
* xyz 0 1
C 1.5919307922 -0.8460277538 -0.4438105659
C 1.3024672511 0.5697201228 0.0385326548
C 0.0162720039 0.6709133859 0.8596436395
C -1.266410194 0.551641019 0.0337622554
N -1.4915132517 -0.807257894 -0.4431143206
H 1.7394339458 -1.511572095 0.4039647965
H 0.7570791689 -1.2150992485 -1.0311353172
H 2.4925804783 -0.8615274372 -1.0530607944
H 2.1359628754 0.9159545467 0.655131378
H 1.2276656465 1.2384420703 -0.8213609274
H 0.0179304567 -0.1023414454 1.6312590709
H -0.0037859112 1.6416873378 1.3600545905
H -1.1926381367 1.1991513815 -0.8450255711
H -2.1060458552 0.9218878857 0.6499066947
H -2.363514163 -0.8483612552 -0.9581992663
H -1.5716458196 -1.4361152397 0.3494358189
*
