      -----------------------------------------------------------      
     |                   =====================                   |     
     |                           x T B                           |     
     |                   =====================                   |     
     |                         S. Grimme                         |     
     |          Mulliken Center for Theoretical Chemistry        |     
     |                    University of Bonn                     |     
      -----------------------------------------------------------      

   * xtb version 6.7.1 (edcfbbe) compiled by 'albert@albert-system' on 2024-07-22

   xtb is free software: you can redistribute it and/or modify it under
   the terms of the GNU Lesser General Public License as published by
   the Free Software Foundation, either version 3 of the License, or
   (at your option) any later version.
   
   xtb is distributed in the hope that it will be useful,
   but WITHOUT ANY WARRANTY; without even the implied warranty of
   MERCHANTABILITY or FITNESS FOR A PARTICULAR PURPOSE.  See the
   GNU Lesser General Public License for more details.
   
   Cite this work as:
   * C. Bannwarth, E. Caldeweyher, S. Ehlert, A. Hansen, P. Pracht,
     J. Seibert, S. Spicher, S. Grimme, WIREs Comput. Mol. Sci., 2020, 11,
     e01493. DOI: 10.1002/wcms.1493
   
   for GFN2-xTB:
   * C. Bannwarth, S. Ehlert and S. Grimme., J. Chem. Theory Comput., 2019,
     15, 1652-1671. DOI: 10.1021/acs.jctc.8b01176
   for GFN1-xTB:
   * S. Grimme, C. Bannwarth, P. Shushkov, J. Chem. Theory Comput., 2017,
     13, 1989-2009. DOI: 10.1021/acs.jctc.7b00118
   for GFN0-xTB:
   * P. Pracht, E. Caldeweyher, S. Ehlert, S. Grimme, ChemRxiv, 2019, preprint.
     DOI: 10.26434/chemrxiv.8326202.v1
   for GFN-FF:
   * S. Spicher and S. Grimme, Angew. Chem. Int. Ed., 2020, 59, 15665-15673.
     DOI: 10.1002/anie.202004239
   
   for ALPB and GBSA implicit solvation:
   * S. Ehlert, M. Stahn, S. Spicher, S. Grimme, J. Chem. Theory Comput.,
     2021, 17, 4250-4261. DOI: 10.1021/acs.jctc.1c00471
   
   for ddCOSMO and CPCM-X implicit solvation:
   * M. Stahn, S. Ehlert, S. Grimme, J. Phys. Chem. A,
     2023, XX, XXXX-XXXX. DOI: 10.1021/acs.jpca.3c04382
   
   for DFT-D4:
   * E. Caldeweyher, C. Bannwarth and S. Grimme, J. Chem. Phys., 2017,
     147, 034112. DOI: 10.1063/1.4993215
   * E. Caldeweyher, S. Ehlert, A. Hansen, H. Neugebauer, S. Spicher,
     C. Bannwarth and S. Grimme, J. Chem. Phys., 2019, 150, 154122.
     DOI: 10.1063/1.5090222
   * E. Caldeweyher, J.-M. Mewes, S. Ehlert and S. Grimme, Phys. Chem. Chem. Phys.
     2020, 22, 8499-8512. DOI: 10.1039/D0CP00502A
   
   for sTDA-xTB:
   * S. Grimme and C. Bannwarth, J. Chem. Phys., 2016, 145, 054103.
     DOI: 10.1063/1.4959605
   
   in the mass-spec context:
   * V. Asgeirsson, C. Bauer and S. Grimme, Chem. Sci., 2017, 8, 4879.
     DOI: 10.1039/c7sc00601b
   * J. Koopman and S. Grimme, ACS Omega 2019, 4, 12, 15120-15133.
     DOI: 10.1021/acsomega.9b02011
   
   for metadynamics refer to:
   * S. Grimme, J. Chem. Theory Comput., 2019, 155, 2847-2862
     DOI: 10.1021/acs.jctc.9b00143
   
   for SPH calculations refer to:
   * S. Spicher and S. Grimme, J. Chem. Theory Comput., 2021, 17, 1701-1714
     DOI: 10.1021/acs.jctc.0c01306
   
   for ONIOM refer to:
   * C. Plett, A. Katbashev, S. Ehlert, S. Grimme, M. Bursch,
     Phys. Chem. Chem. Phys., 2023, 25, 17860-17868. DOI: 10.1039/D3CP02178E
   
   for DIPRO refer to:
   * J. Kohn, N. Gildemeister, S. Grimme, D. Fazzi, A. Hansen,
     J. Chem. Phys., 2023, just accepted.
   
   for PTB refer to:
   * S. Grimme, M. Mueller, A. Hansen, J. Chem. Phys., 2023, 158, 124111.
     DOI: 10.1063/5.0137838
   
   with help from (in alphabetical order)
   P. Atkinson, C. Bannwarth, F. Bohle, G. Brandenburg, E. Caldeweyher
   M. Checinski, S. Dohm, S. Ehlert, S. Ehrlich, I. Gerasimov, C. Hölzer
   A. Katbashev, J. Kohn, J. Koopman, C. Lavigne, S. Lehtola, F. März, M. Müller,
   F. Musil, H. Neugebauer, J. Pisarek, C. Plett, P. Pracht, F. Pultar,
   J. Seibert, P. Shushkov, S. Spicher, M. Stahn, M. Steiner, T. Strunk,
   J. Stückrath, T. Rose, and J. Unsleber
   
 * started run on 2025/04/11 at 16:15:26.237     
   ID    Z sym.   atoms
    1    6 C      1-4, 7, 10, 12
    2    7 N      5, 9
    3    8 O      6, 8
    4   16 S      11
    5    1 H      13-26

           -------------------------------------------------
          |                Calculation Setup                |
           -------------------------------------------------

          program call               : /srv/scratch/z5358697/.xtb/bin/xtb solv.coord --gfn2 --sp --chrg 0 --norestart --parallel 1 --alpb water reference -I xtb_sp-xcontrol-inp
          hostname                   : k073
          coordinate file            : solv.coord
          omp threads                :                     1


           -------------------------------------------------
          |                 G F N 2 - x T B                 |
           -------------------------------------------------

        Reference                      10.1021/acs.jctc.8b01176
      * Hamiltonian:
        H0-scaling (s, p, d)           1.850000    2.230000    2.230000
        zeta-weighting                 0.500000
      * Dispersion:
        s8                             2.700000
        a1                             0.520000
        a2                             5.000000
        s9                             5.000000
      * Repulsion:
        kExp                           1.500000    1.000000
        rExp                           1.000000
      * Coulomb:
        alpha                          2.000000
        third order                    shell-resolved
        anisotropic                    true
        a3                             3.000000
        a5                             4.000000
        cn-shift                       1.200000
        cn-exp                         4.000000
        max-rad                        5.000000

      * Solvation model:               ALPB
        Solvent                        water
        Parameter file                 internal GFN2-xTB/ALPB
        Dielectric constant                8.0200E+01
        Reference state                gsolv=reference [X=1]
        Free energy shift                  2.8945E-03 Eh       1.8164E+00 kcal/mol
        Temperature                        2.9815E+02 K
        Density                            1.0000E+00 kg/L
        Solvent mass                       1.8000E+01 g/mol
        Interaction kernel             P16
        Born radius scaling (c1)           1.4744E+00
        Born radii integrator          GBOBC
        Born offset                        0.0000E+00 a0       0.0000E+00 AA
        H-bond correction              true
        Ion screening                  false
        Surface tension                    1.0000E-05 Eh       1.5569E+01 dyn/cm
        Grid points                               974 per atom

          ...................................................
          :                      SETUP                      :
          :.................................................:
          :  # basis functions                  68          :
          :  # atomic orbitals                  67          :
          :  # shells                           39          :
          :  # electrons                        70          :
          :  max. iterations                   250          :
          :  Hamiltonian                  GFN2-xTB          :
          :  restarted?                      false          :
          :  GBSA solvation                   true          :
          :  PC potential                    false          :
          :  electronic temp.          300.0000000     K    :
          :  accuracy                    1.0000000          :
          :  -> integral cutoff          0.2500000E+02      :
          :  -> integral neglect         0.1000000E-07      :
          :  -> SCF convergence          0.1000000E-05 Eh   :
          :  -> wf. convergence          0.1000000E-03 e    :
          :  Broyden damping             0.4000000          :
          :  net charge                          0          :
          :  unpaired electrons                  0          :
          ...................................................

 iter      E             dE          RMSdq      gap      omega  full diag
   1    -39.6812532 -0.396813E+02  0.440E+00    3.74       0.0  T
   2    -39.7523266 -0.710735E-01  0.231E+00    3.03       1.0  T
   3    -39.7549396 -0.261298E-02  0.830E-01    2.42       1.0  T
   4    -39.7554864 -0.546796E-03  0.331E-01    2.48       1.0  T
   5    -39.7561690 -0.682650E-03  0.125E-01    2.45       1.0  T
   6    -39.7562154 -0.464039E-04  0.478E-02    2.49       1.0  T
   7    -39.7562207 -0.522248E-05  0.220E-02    2.49       1.0  T
   8    -39.7562231 -0.240899E-05  0.107E-02    2.48       1.8  T
   9    -39.7562233 -0.226224E-06  0.398E-03    2.48       4.9  T
  10    -39.7562234 -0.643715E-07  0.162E-03    2.48      12.1  T
  11    -39.7562234 -0.589184E-08  0.516E-04    2.48      38.0  T
  12    -39.7562234 -0.842597E-09  0.218E-04    2.48      90.0  T

   *** convergence criteria satisfied after 12 iterations ***

         #    Occupation            Energy/Eh            Energy/eV
      -------------------------------------------------------------
         1        2.0000           -0.7562406             -20.5784
       ...           ...                  ...                  ...
        29        2.0000           -0.4613464             -12.5539
        30        2.0000           -0.4568436             -12.4313
        31        2.0000           -0.4375856             -11.9073
        32        2.0000           -0.4287456             -11.6668
        33        2.0000           -0.4156332             -11.3100
        34        2.0000           -0.3974278             -10.8146
        35        2.0000           -0.3600539              -9.7976 (HOMO)
        36                         -0.2687341              -7.3126 (LUMO)
        37                         -0.2053961              -5.5891
        38                         -0.1996795              -5.4336
        39                         -0.1404185              -3.8210
        40                         -0.1043345              -2.8391
       ...                                ...                  ...
        67                          0.6444648              17.5368
      -------------------------------------------------------------
                  HL-Gap            0.0913198 Eh            2.4849 eV
             Fermi-level           -0.3143940 Eh           -8.5551 eV

 SCC (total)                   0 d,  0 h,  0 min,  0.032 sec
 SCC setup                      ...        0 min,  0.002 sec (  5.259%)
 Dispersion                     ...        0 min,  0.000 sec (  0.636%)
 classical contributions        ...        0 min,  0.000 sec (  0.113%)
 integral evaluation            ...        0 min,  0.005 sec ( 16.567%)
 iterations                     ...        0 min,  0.014 sec ( 43.730%)
 molecular gradient             ...        0 min,  0.010 sec ( 33.005%)
 printout                       ...        0 min,  0.000 sec (  0.636%)

         :::::::::::::::::::::::::::::::::::::::::::::::::::::
         ::                     SUMMARY                     ::
         :::::::::::::::::::::::::::::::::::::::::::::::::::::
         :: total energy             -39.324422582775 Eh    ::
         :: total w/o Gsasa/hb       -39.321834456898 Eh    ::
         :: gradient norm              0.000149174506 Eh/a0 ::
         :: HOMO-LUMO gap              2.484938900549 eV    ::
         ::.................................................::
         :: SCC energy               -39.756045114616 Eh    ::
         :: -> isotropic ES            0.091182939703 Eh    ::
         :: -> anisotropic ES         -0.004565335338 Eh    ::
         :: -> anisotropic XC          0.024887586045 Eh    ::
         :: -> dispersion             -0.022776424642 Eh    ::
         :: -> Gsolv                  -0.023983233304 Eh    ::
         ::    -> Gelec               -0.021395107427 Eh    ::
         ::    -> Gsasa               -0.000621079725 Eh    ::
         ::    -> Ghb                 -0.004861595313 Eh    ::
         ::    -> Gshift               0.002894549160 Eh    ::
         :: repulsion energy           0.431622531841 Eh    ::
         :: add. restraining           0.000000000000 Eh    ::
         :: total charge              -0.000000000000 e     ::
         :::::::::::::::::::::::::::::::::::::::::::::::::::::

           -------------------------------------------------
          |                Property Printout                |
           -------------------------------------------------

    * Orbital Energies and Occupations

         #    Occupation            Energy/Eh            Energy/eV
      -------------------------------------------------------------
         1        2.0000           -0.7562406             -20.5784
       ...           ...                  ...                  ...
        23        2.0000           -0.4872165             -13.2578
        24        2.0000           -0.4848493             -13.1934
        25        2.0000           -0.4784114             -13.0182
        26        2.0000           -0.4728899             -12.8680
        27        2.0000           -0.4705354             -12.8039
        28        2.0000           -0.4681917             -12.7401
        29        2.0000           -0.4613464             -12.5539
        30        2.0000           -0.4568436             -12.4313
        31        2.0000           -0.4375856             -11.9073
        32        2.0000           -0.4287456             -11.6668
        33        2.0000           -0.4156332             -11.3100
        34        2.0000           -0.3974278             -10.8146
        35        2.0000           -0.3600539              -9.7976 (HOMO)
        36                         -0.2687341              -7.3126 (LUMO)
        37                         -0.2053961              -5.5891
        38                         -0.1996795              -5.4336
        39                         -0.1404185              -3.8210
        40                         -0.1043345              -2.8391
        41                         -0.0102287              -0.2783
        42                          0.0034880               0.0949
        43                          0.0138862               0.3779
        44                          0.0188252               0.5123
        45                          0.0657080               1.7880
        46                          0.0978283               2.6620
       ...                                ...                  ...
        67                          0.6444648              17.5368
      -------------------------------------------------------------
                  HL-Gap            0.0913198 Eh            2.4849 eV
             Fermi-level           -0.3143940 Eh           -8.5551 eV

     #   Z          covCN         q      C6AA      α(0)
     1   6 C        3.780    -0.099    22.408     6.744
     2   6 C        3.890     0.070    19.358     6.255
     3   6 C        3.784    -0.122    22.855     6.810
     4   6 C        2.946     0.073    26.368     8.422
     5   7 N        1.830    -0.120    24.370     7.315
     6   8 O        1.771    -0.266    18.400     5.792
     7   6 C        2.638     0.409    20.105     7.335
     8   8 O        0.857    -0.538    24.635     6.655
     9   7 N        2.686    -0.193    25.186     7.453
    10   6 C        3.691    -0.064    21.925     6.701
    11  16 S        2.099    -0.249   151.741    20.733
    12   6 C        3.744    -0.067    21.857     6.669
    13   1 H        0.925     0.056     2.248     2.345
    14   1 H        0.925     0.052     2.296     2.369
    15   1 H        0.925     0.036     2.506     2.476
    16   1 H        0.925     0.061     2.186     2.312
    17   1 H        0.925     0.070     2.083     2.257
    18   1 H        0.925     0.061     2.193     2.316
    19   1 H        0.925     0.100     1.784     2.088
    20   1 H        0.860     0.244     0.906     1.491
    21   1 H        0.925     0.086     1.917     2.165
    22   1 H        0.925     0.088     1.895     2.152
    23   1 H        0.925     0.081     1.965     2.192
    24   1 H        0.925     0.079     1.993     2.208
    25   1 H        0.926     0.079     1.984     2.203
    26   1 H        0.925     0.071     2.074     2.252

 Mol. C6AA /au·bohr⁶  :       7036.080053
 Mol. C8AA /au·bohr⁸  :     175287.751738
 Mol. α(0) /au        :        127.709751


Wiberg/Mayer (AO) data.
largest (>0.10) Wiberg bond orders for each atom

 ---------------------------------------------------------------------------
     #   Z sym  total        # sym  WBO       # sym  WBO       # sym  WBO
 ---------------------------------------------------------------------------
     1   6 C    3.994 --     2 C    1.005    15 H    0.983    13 H    0.981
                            14 H    0.978
     2   6 C    3.971 --     1 C    1.005     4 C    1.002     3 C    0.991
                            11 S    0.901
     3   6 C    3.988 --     2 C    0.991    16 H    0.982    17 H    0.978
                            18 H    0.976
     4   6 C    3.948 --     5 N    1.876     2 C    1.002    19 H    0.936
     5   7 N    3.000 --     4 C    1.876     6 O    0.948
     6   8 O    2.227 --     7 C    1.015     5 N    0.948     8 O    0.118
     7   6 C    3.935 --     8 O    1.580     9 N    1.275     6 O    1.015
     8   8 O    1.921 --     7 C    1.580     9 N    0.174     6 O    0.118
     9   7 N    3.437 --     7 C    1.275    10 C    0.992    20 H    0.913
                             8 O    0.174
    10   6 C    3.941 --     9 N    0.992    23 H    0.978    22 H    0.973
                            21 H    0.973
    11  16 S    2.091 --    12 C    1.007     2 C    0.901
    12   6 C    3.966 --    11 S    1.007    26 H    0.979    24 H    0.979
                            25 H    0.971
    13   1 H    0.997 --     1 C    0.981
    14   1 H    0.997 --     1 C    0.978
    15   1 H    0.999 --     1 C    0.983
    16   1 H    0.996 --     3 C    0.982
    17   1 H    0.995 --     3 C    0.978
    18   1 H    0.996 --     3 C    0.976
    19   1 H    0.990 --     4 C    0.936
    20   1 H    0.940 --     9 N    0.913
    21   1 H    0.992 --    10 C    0.973
    22   1 H    0.992 --    10 C    0.973
    23   1 H    0.993 --    10 C    0.978
    24   1 H    0.994 --    12 C    0.979
    25   1 H    0.992 --    12 C    0.971
    26   1 H    0.995 --    12 C    0.979
 ---------------------------------------------------------------------------

Topologies differ in total number of bonds
Writing topology from bond orders to xtbtopo.mol

molecular dipole:
                 x           y           z       tot (Debye)
 q only:        0.303      -0.246      -2.013
   full:        0.386      -0.316      -2.322       6.036
molecular quadrupole (traceless):
                xx          xy          yy          xz          yz          zz
 q only:       21.302       0.639     -10.660       7.078      -2.931     -10.641
  q+dip:       21.399       1.835     -11.883       7.005      -2.363      -9.517
   full:       21.174       1.490     -11.166       6.380      -1.908     -10.008


           -------------------------------------------------
          | TOTAL ENERGY              -39.324422582775 Eh   |
          | GRADIENT NORM               0.000149174506 Eh/α |
          | HOMO-LUMO GAP               2.484938900549 eV   |
           -------------------------------------------------

------------------------------------------------------------------------
 * finished run on 2025/04/11 at 16:15:26.323     
------------------------------------------------------------------------
 total:
 * wall-time:     0 d,  0 h,  0 min,  0.085 sec
 *  cpu-time:     0 d,  0 h,  0 min,  0.041 sec
 * ratio c/w:     0.481 speedup
 SCF:
 * wall-time:     0 d,  0 h,  0 min,  0.032 sec
 *  cpu-time:     0 d,  0 h,  0 min,  0.031 sec
 * ratio c/w:     0.969 speedup

