      -----------------------------------------------------------      
     |                   =====================                   |     
     |                           x T B                           |     
     |                   =====================                   |     
     |                         S. Grimme                         |     
     |          Mulliken Center for Theoretical Chemistry        |     
     |                    University of Bonn                     |     
      -----------------------------------------------------------      

   * xtb version 6.7.1 (edcfbbe) compiled by 'albert@albert-system' on 2024-07-22

   xtb is free software: you can redistribute it and/or modify it under
   the terms of the GNU Lesser General Public License as published by
   the Free Software Foundation, either version 3 of the License, or
   (at your option) any later version.
   
   xtb is distributed in the hope that it will be useful,
   but WITHOUT ANY WARRANTY; without even the implied warranty of
   MERCHANTABILITY or FITNESS FOR A PARTICULAR PURPOSE.  See the
   GNU Lesser General Public License for more details.
   
   Cite this work as:
   * C. Bannwarth, E. Caldeweyher, S. Ehlert, A. Hansen, P. Pracht,
     J. Seibert, S. Spicher, S. Grimme, WIREs Comput. Mol. Sci., 2020, 11,
     e01493. DOI: 10.1002/wcms.1493
   
   for GFN2-xTB:
   * C. Bannwarth, S. Ehlert and S. Grimme., J. Chem. Theory Comput., 2019,
     15, 1652-1671. DOI: 10.1021/acs.jctc.8b01176
   for GFN1-xTB:
   * S. Grimme, C. Bannwarth, P. Shushkov, J. Chem. Theory Comput., 2017,
     13, 1989-2009. DOI: 10.1021/acs.jctc.7b00118
   for GFN0-xTB:
   * P. Pracht, E. Caldeweyher, S. Ehlert, S. Grimme, ChemRxiv, 2019, preprint.
     DOI: 10.26434/chemrxiv.8326202.v1
   for GFN-FF:
   * S. Spicher and S. Grimme, Angew. Chem. Int. Ed., 2020, 59, 15665-15673.
     DOI: 10.1002/anie.202004239
   
   for ALPB and GBSA implicit solvation:
   * S. Ehlert, M. Stahn, S. Spicher, S. Grimme, J. Chem. Theory Comput.,
     2021, 17, 4250-4261. DOI: 10.1021/acs.jctc.1c00471
   
   for ddCOSMO and CPCM-X implicit solvation:
   * M. Stahn, S. Ehlert, S. Grimme, J. Phys. Chem. A,
     2023, XX, XXXX-XXXX. DOI: 10.1021/acs.jpca.3c04382
   
   for DFT-D4:
   * E. Caldeweyher, C. Bannwarth and S. Grimme, J. Chem. Phys., 2017,
     147, 034112. DOI: 10.1063/1.4993215
   * E. Caldeweyher, S. Ehlert, A. Hansen, H. Neugebauer, S. Spicher,
     C. Bannwarth and S. Grimme, J. Chem. Phys., 2019, 150, 154122.
     DOI: 10.1063/1.5090222
   * E. Caldeweyher, J.-M. Mewes, S. Ehlert and S. Grimme, Phys. Chem. Chem. Phys.
     2020, 22, 8499-8512. DOI: 10.1039/D0CP00502A
   
   for sTDA-xTB:
   * S. Grimme and C. Bannwarth, J. Chem. Phys., 2016, 145, 054103.
     DOI: 10.1063/1.4959605
   
   in the mass-spec context:
   * V. Asgeirsson, C. Bauer and S. Grimme, Chem. Sci., 2017, 8, 4879.
     DOI: 10.1039/c7sc00601b
   * J. Koopman and S. Grimme, ACS Omega 2019, 4, 12, 15120-15133.
     DOI: 10.1021/acsomega.9b02011
   
   for metadynamics refer to:
   * S. Grimme, J. Chem. Theory Comput., 2019, 155, 2847-2862
     DOI: 10.1021/acs.jctc.9b00143
   
   for SPH calculations refer to:
   * S. Spicher and S. Grimme, J. Chem. Theory Comput., 2021, 17, 1701-1714
     DOI: 10.1021/acs.jctc.0c01306
   
   for ONIOM refer to:
   * C. Plett, A. Katbashev, S. Ehlert, S. Grimme, M. Bursch,
     Phys. Chem. Chem. Phys., 2023, 25, 17860-17868. DOI: 10.1039/D3CP02178E
   
   for DIPRO refer to:
   * J. Kohn, N. Gildemeister, S. Grimme, D. Fazzi, A. Hansen,
     J. Chem. Phys., 2023, just accepted.
   
   for PTB refer to:
   * S. Grimme, M. Mueller, A. Hansen, J. Chem. Phys., 2023, 158, 124111.
     DOI: 10.1063/5.0137838
   
   with help from (in alphabetical order)
   P. Atkinson, C. Bannwarth, F. Bohle, G. Brandenburg, E. Caldeweyher
   M. Checinski, S. Dohm, S. Ehlert, S. Ehrlich, I. Gerasimov, C. Hölzer
   A. Katbashev, J. Kohn, J. Koopman, C. Lavigne, S. Lehtola, F. März, M. Müller,
   F. Musil, H. Neugebauer, J. Pisarek, C. Plett, P. Pracht, F. Pultar,
   J. Seibert, P. Shushkov, S. Spicher, M. Stahn, M. Steiner, T. Strunk,
   J. Stückrath, T. Rose, and J. Unsleber
   
 * started run on 2025/04/11 at 16:12:36.835     
   ID    Z sym.   atoms
    1    6 C      1-7
    2    1 H      8-19

           -------------------------------------------------
          |                Calculation Setup                |
           -------------------------------------------------

          program call               : /srv/scratch/z5358697/.xtb/bin/xtb gas.coord --gfn2 --sp --chrg 0 --norestart --parallel 1
          hostname                   : k113
          coordinate file            : gas.coord
          omp threads                :                     1


           -------------------------------------------------
          |                 G F N 2 - x T B                 |
           -------------------------------------------------

        Reference                      10.1021/acs.jctc.8b01176
      * Hamiltonian:
        H0-scaling (s, p, d)           1.850000    2.230000    2.230000
        zeta-weighting                 0.500000
      * Dispersion:
        s8                             2.700000
        a1                             0.520000
        a2                             5.000000
        s9                             5.000000
      * Repulsion:
        kExp                           1.500000    1.000000
        rExp                           1.000000
      * Coulomb:
        alpha                          2.000000
        third order                    shell-resolved
        anisotropic                    true
        a3                             3.000000
        a5                             4.000000
        cn-shift                       1.200000
        cn-exp                         4.000000
        max-rad                        5.000000


          ...................................................
          :                      SETUP                      :
          :.................................................:
          :  # basis functions                  40          :
          :  # atomic orbitals                  40          :
          :  # shells                           26          :
          :  # electrons                        40          :
          :  max. iterations                   250          :
          :  Hamiltonian                  GFN2-xTB          :
          :  restarted?                      false          :
          :  GBSA solvation                  false          :
          :  PC potential                    false          :
          :  electronic temp.          300.0000000     K    :
          :  accuracy                    1.0000000          :
          :  -> integral cutoff          0.2500000E+02      :
          :  -> integral neglect         0.1000000E-07      :
          :  -> SCF convergence          0.1000000E-05 Eh   :
          :  -> wf. convergence          0.1000000E-03 e    :
          :  Broyden damping             0.4000000          :
          :  net charge                          0          :
          :  unpaired electrons                  0          :
          ...................................................

 iter      E             dE          RMSdq      gap      omega  full diag
   1    -21.3966345 -0.213966E+02  0.425E+00    7.05       0.0  T
   2    -21.4289087 -0.322742E-01  0.254E+00    6.97       1.0  T
   3    -21.3974673  0.314413E-01  0.160E+00    6.99       1.0  T
   4    -21.4312965 -0.338292E-01  0.584E-01    6.88       1.0  T
   5    -21.4361773 -0.488079E-02  0.832E-02    6.89       1.0  T
   6    -21.4362017 -0.244092E-04  0.324E-02    6.89       1.0  T
   7    -21.4362033 -0.158995E-05  0.117E-02    6.89       2.0  T
   8    -21.4362036 -0.267788E-06  0.156E-03    6.89      14.7  T
   9    -21.4362036 -0.781969E-08  0.709E-04    6.89      32.4  T
  10    -21.4362036 -0.261593E-09  0.176E-04    6.89     130.1  T

   *** convergence criteria satisfied after 10 iterations ***

         #    Occupation            Energy/Eh            Energy/eV
      -------------------------------------------------------------
         1        2.0000           -0.6268041             -17.0562
       ...           ...                  ...                  ...
        14        2.0000           -0.4560967             -12.4110
        15        2.0000           -0.4444344             -12.0937
        16        2.0000           -0.4335717             -11.7981
        17        2.0000           -0.4261815             -11.5970
        18        2.0000           -0.4229144             -11.5081
        19        2.0000           -0.3989759             -10.8567
        20        2.0000           -0.3972627             -10.8101 (HOMO)
        21                         -0.1440019              -3.9185 (LUMO)
        22                         -0.1392008              -3.7878
        23                          0.0567500               1.5442
        24                          0.0985141               2.6807
        25                          0.1112206               3.0265
       ...                                ...                  ...
        40                          1.4426551              39.2566
      -------------------------------------------------------------
                  HL-Gap            0.2532608 Eh            6.8916 eV
             Fermi-level           -0.2706323 Eh           -7.3643 eV

 SCC (total)                   0 d,  0 h,  0 min,  0.106 sec
 SCC setup                      ...        0 min,  0.000 sec (  0.192%)
 Dispersion                     ...        0 min,  0.000 sec (  0.109%)
 classical contributions        ...        0 min,  0.000 sec (  0.022%)
 integral evaluation            ...        0 min,  0.001 sec (  1.195%)
 iterations                     ...        0 min,  0.100 sec ( 94.397%)
 molecular gradient             ...        0 min,  0.004 sec (  3.904%)
 printout                       ...        0 min,  0.000 sec (  0.169%)

         :::::::::::::::::::::::::::::::::::::::::::::::::::::
         ::                     SUMMARY                     ::
         :::::::::::::::::::::::::::::::::::::::::::::::::::::
         :: total energy             -21.038919793124 Eh    ::
         :: gradient norm              0.002403785568 Eh/a0 ::
         :: HOMO-LUMO gap              6.891576514586 eV    ::
         ::.................................................::
         :: SCC energy               -21.436204666367 Eh    ::
         :: -> isotropic ES            0.004474365625 Eh    ::
         :: -> anisotropic ES          0.004252410864 Eh    ::
         :: -> anisotropic XC          0.018351783799 Eh    ::
         :: -> dispersion             -0.010893226041 Eh    ::
         :: repulsion energy           0.397284873242 Eh    ::
         :: add. restraining           0.000000000000 Eh    ::
         :: total charge              -0.000000000000 e     ::
         :::::::::::::::::::::::::::::::::::::::::::::::::::::

           -------------------------------------------------
          |                Property Printout                |
           -------------------------------------------------

    * Orbital Energies and Occupations

         #    Occupation            Energy/Eh            Energy/eV
      -------------------------------------------------------------
         1        2.0000           -0.6268041             -17.0562
       ...           ...                  ...                  ...
         8        2.0000           -0.5168081             -14.0631
         9        2.0000           -0.5074831             -13.8093
        10        2.0000           -0.4953990             -13.4805
        11        2.0000           -0.4825449             -13.1307
        12        2.0000           -0.4738252             -12.8934
        13        2.0000           -0.4649547             -12.6521
        14        2.0000           -0.4560967             -12.4110
        15        2.0000           -0.4444344             -12.0937
        16        2.0000           -0.4335717             -11.7981
        17        2.0000           -0.4261815             -11.5970
        18        2.0000           -0.4229144             -11.5081
        19        2.0000           -0.3989759             -10.8567
        20        2.0000           -0.3972627             -10.8101 (HOMO)
        21                         -0.1440019              -3.9185 (LUMO)
        22                         -0.1392008              -3.7878
        23                          0.0567500               1.5442
        24                          0.0985141               2.6807
        25                          0.1112206               3.0265
        26                          0.1209285               3.2906
        27                          0.1370491               3.7293
        28                          0.1441838               3.9234
        29                          0.1473474               4.0095
        30                          0.1790259               4.8715
        31                          0.1915113               5.2113
       ...                                ...                  ...
        40                          1.4426551              39.2566
      -------------------------------------------------------------
                  HL-Gap            0.2532608 Eh            6.8916 eV
             Fermi-level           -0.2706323 Eh           -7.3643 eV

     #   Z          covCN         q      C6AA      α(0)
     1   6 C        3.751    -0.102    22.512     6.766
     2   6 C        3.800    -0.053    21.524     6.606
     3   6 C        3.802    -0.057    21.603     6.617
     4   6 C        3.807    -0.052    21.503     6.601
     5   6 C        3.805    -0.040    21.285     6.568
     6   6 C        1.967    -0.027    31.793     9.106
     7   6 C        1.909    -0.117    34.377     9.469
     8   1 H        0.925     0.032     2.562     2.503
     9   1 H        0.925     0.035     2.517     2.481
    10   1 H        0.925     0.034     2.533     2.489
    11   1 H        0.924     0.028     2.609     2.526
    12   1 H        0.924     0.030     2.593     2.518
    13   1 H        0.924     0.027     2.627     2.535
    14   1 H        0.924     0.030     2.582     2.513
    15   1 H        0.924     0.036     2.499     2.472
    16   1 H        0.924     0.033     2.547     2.496
    17   1 H        0.924     0.047     2.356     2.400
    18   1 H        0.924     0.048     2.348     2.396
    19   1 H        0.928     0.069     2.098     2.265

 Mol. C6AA /au·bohr⁶  :       2875.591580
 Mol. C8AA /au·bohr⁸  :      63738.881350
 Mol. α(0) /au        :         81.326909


Wiberg/Mayer (AO) data.
largest (>0.10) Wiberg bond orders for each atom

 ---------------------------------------------------------------------------
     #   Z sym  total        # sym  WBO       # sym  WBO       # sym  WBO
 ---------------------------------------------------------------------------
     1   6 C    3.997 --     2 C    1.020    10 H    0.988     8 H    0.988
                             9 H    0.986
     2   6 C    3.997 --     1 C    1.020     3 C    1.006    11 H    0.979
                            12 H    0.978
     3   6 C    3.997 --     4 C    1.008     2 C    1.006    13 H    0.977
                            14 H    0.977
     4   6 C    3.996 --     3 C    1.008     5 C    0.985    16 H    0.978
                            15 H    0.977
     5   6 C    3.998 --     6 C    1.053     4 C    0.985    18 H    0.956
                            17 H    0.956
     6   6 C    3.978 --     7 C    2.895     5 C    1.053
     7   6 C    3.973 --     6 C    2.895    19 H    0.972
     8   1 H    0.999 --     1 C    0.988
     9   1 H    0.999 --     1 C    0.986
    10   1 H    0.999 --     1 C    0.988
    11   1 H    0.999 --     2 C    0.979
    12   1 H    0.999 --     2 C    0.978
    13   1 H    0.999 --     3 C    0.977
    14   1 H    0.999 --     3 C    0.977
    15   1 H    0.999 --     4 C    0.977
    16   1 H    0.999 --     4 C    0.978
    17   1 H    0.998 --     5 C    0.956
    18   1 H    0.998 --     5 C    0.956
    19   1 H    0.995 --     7 C    0.972
 ---------------------------------------------------------------------------

Topologies differ in total number of bonds
Writing topology from bond orders to xtbtopo.mol

molecular dipole:
                 x           y           z       tot (Debye)
 q only:       -0.246       0.148      -0.061
   full:       -0.245       0.153      -0.060       0.750
molecular quadrupole (traceless):
                xx          xy          yy          xz          yz          zz
 q only:       -1.184       0.394       0.883      -0.078      -0.285       0.301
  q+dip:       -1.040      -2.401       1.182       1.172      -0.973      -0.141
   full:       -1.227      -0.747       0.993       0.449      -0.556       0.233


           -------------------------------------------------
          | TOTAL ENERGY              -21.038919793124 Eh   |
          | GRADIENT NORM               0.002403785568 Eh/α |
          | HOMO-LUMO GAP               6.891576514586 eV   |
           -------------------------------------------------

------------------------------------------------------------------------
 * finished run on 2025/04/11 at 16:12:37.050     
------------------------------------------------------------------------
 total:
 * wall-time:     0 d,  0 h,  0 min,  0.215 sec
 *  cpu-time:     0 d,  0 h,  0 min,  0.027 sec
 * ratio c/w:     0.128 speedup
 SCF:
 * wall-time:     0 d,  0 h,  0 min,  0.106 sec
 *  cpu-time:     0 d,  0 h,  0 min,  0.012 sec
 * ratio c/w:     0.115 speedup

