17
CONF2
C -2.6472533146 -1.5949487739 -0.1148423094
C -1.8022976526 -0.3394792736 -0.3419589306
C -2.3540763121 0.8465491840 0.4473174105
C -0.3722572873 -0.6661110987 0.0554957859
O 0.4280810421 0.5070750341 -0.3051906177
N 1.7868121346 0.3974913756 0.0156578997
O 2.1723737708 -0.6170757829 0.5492533409
O 2.4262669222 1.3765658729 -0.2954370853
H -2.2789775055 -2.4403963073 -0.7046004443
H -3.6855288004 -1.4048936623 -0.4021785155
H -2.6369794658 -1.8826585114 0.9426832218
H -1.8094467023 -0.0997528365 -1.4129536617
H -2.3517199086 0.6244923821 1.5209504309
H -3.3856031748 1.0543602316 0.1466973416
H -1.7664153463 1.7546107133 0.2843648149
H -0.2839308676 -0.8323322766 1.1344627882
H 0.0157999167 -1.5295220034 -0.4930979005
17
CONF6
C -2.6840034036 -1.4917017309 0.0577884717
C -1.7855879988 -0.2956613250 -0.2641267521
C -2.2125041216 0.9418097130 0.5232551581
C -0.3528789835 -0.6958386983 0.0470822382
O 0.4862236862 0.4208773183 -0.3956899930
N 1.8550160740 0.2408578425 -0.1645720296
O 2.2210039908 -0.7862091449 0.3592039430
O 2.5237030982 1.1787790946 -0.5362496389
H -2.6227769427 -1.7471619741 1.1218767350
H -2.4026199918 -2.3749691118 -0.5244284268
H -3.7259711219 -1.2497340527 -0.1712251116
H -1.8522675762 -0.0850929658 -1.3392199162
H -3.2501650404 1.2001496670 0.2902438413
H -1.5891648537 1.8097383064 0.2894611097
H -2.1443171548 0.7505794937 1.6006908026
H -0.2022297357 -0.8427141957 1.1220796146
H -0.0522091624 -1.5928943294 -0.5023574256
17
CONF5
C -2.1186698578 -1.3015136043 0.8142332178
C -1.8620602574 -0.4350339379 -0.4191424179
C -2.4141543168 0.9799587257 -0.2433053508
C -0.3950975583 -0.4298186014 -0.8179607568
O 0.3319359361 0.1817661026 0.3003943079
N 1.7128569490 0.2675055033 0.1111552959
O 2.1813000626 -0.1533032642 -0.9217942150
O 2.2883091117 0.7760121909 1.0470396219
H -1.6519931656 -0.8678295215 1.7047812669
H -1.7234989567 -2.3137005316 0.6786836783
H -3.1933957592 -1.3783970309 1.0048404694
H -2.3624972726 -0.8988734049 -1.2800955599
H -3.4947274182 0.9455504387 -0.0747243671
H -2.2269205528 1.5926649185 -1.1312331745
H -1.9575197031 1.4770596082 0.6188638345
H -0.0115833734 -1.4438858392 -0.9645612219
H -0.2211658502 0.1744688514 -1.7131423940
17
CONF1
C -1.8494301712 -1.4027396349 -0.5053757103
C -1.5097377545 0.0707724592 -0.2916352744
C -2.7669735496 0.8998831441 -0.0224166743
C -0.5728774013 0.2576181932 0.8923857536
O 0.6646720675 -0.5158697939 0.7684545730
N 1.6355122488 0.0559409417 -0.0717606562
O 2.6136133017 -0.6448418108 -0.1971302589
O 1.4198329486 1.1412194420 -0.5570173863
H -2.5226280100 -1.5177714687 -1.3606203871
H -2.3499188694 -1.8147245261 0.3789952333
H -0.9534644061 -1.9998681281 -0.7006415236
H -1.0200712556 0.4617838383 -1.1917247420
H -2.5284322048 1.9605974695 0.1073224796
H -3.2744435595 0.5489839220 0.8837256960
H -3.4672585888 0.8083790491 -0.8579524985
H -0.3203031678 1.3056551224 1.0727126767
H -1.0031658237 -0.1712146645 1.8030549724
17
CONF7
C -2.1429870925 -1.7496741280 -0.4746029419
C -1.4215040091 -0.4070919532 -0.3423776101
C -2.4051516134 0.7311315034 -0.0794695104
C -0.4093087979 -0.5351382721 0.7858239295
O 0.3542212909 0.6954333557 1.0061996232
N 1.4122442517 0.9002443547 0.1040379823
O 1.6574214871 0.0430146756 -0.7116592541
O 1.9740507480 1.9573178091 0.2775756151
H -2.8808115479 -1.7049502755 -1.2810975164
H -2.6716113200 -1.9983476433 0.4530981389
H -1.4428468946 -2.5612875075 -0.6980902916
H -0.8819301353 -0.2086902843 -1.2764503284
H -1.8930672727 1.6934480640 0.0179946343
H -2.9682927840 0.5475316295 0.8432803592
H -3.1210536421 0.8129615226 -0.9032488019
H -0.9121534840 -0.6527157660 1.7509314841
H 0.2879071935 -1.3642189529 0.6393387136
17
CONF3
C -1.3649494089 -0.8956261519 -1.1404863427
C -1.7223343126 0.1502692563 -0.0866410217
C -2.9424417595 -0.2823149886 0.7292008728
C -0.5844389531 0.4130282351 0.8879561202
O 0.5779005423 0.9923669386 0.2091626917
N 1.6179281339 0.1022574061 -0.1245945830
O 1.5309169853 -1.0565902222 0.2022090484
O 2.5153185555 0.6515386020 -0.7210320228
H -1.1249328589 -1.8559184126 -0.6704621417
H -0.5115388410 -0.5869528753 -1.7532556867
H -2.2128388828 -1.0502471275 -1.8152586145
H -1.9536172144 1.0984802305 -0.5889791562
H -3.2133375087 0.4694891790 1.4776933194
H -2.7453320682 -1.2273964427 1.2482331594
H -3.8031542746 -0.4321607285 0.0708265228
H -0.8498096235 1.1930533996 1.6070790517
H -0.2820300141 -0.4870999296 1.4287231329
