! r2scan-3c def2/J RI DEFGRID2 scfconv6 printgap
%output
    printlevel normal
end
* xyz 0 1
C -3.5752182483 -1.0498495992 0.4142273766
C -2.6741436512 0.1267334127 0.0584289094
C -1.1975129311 -0.2610044351 0.1124503586
C -0.2992923994 0.9180569693 -0.2485770742
C 1.1752750768 0.614677816 -0.2154139831
O 2.0391294321 1.4277784755 -0.4817901714
O 1.4470869326 -0.6341590496 0.1362998648
C 2.8224955883 -1.0184104279 0.198077425
H -3.4195543877 -1.87213244 -0.2800950126
H -3.3585922984 -1.4050409935 1.4188884854
H -4.6208952114 -0.7563858487 0.3710476851
H -2.9190188621 0.4803939025 -0.9451064946
H -2.8583140134 0.9479199234 0.7540327348
H -1.0112807623 -1.0839331842 -0.5793621177
H -0.9494227375 -0.6123421661 1.1151636321
H -0.4678884562 1.7546140674 0.4341282466
H -0.5273200761 1.284110096 -1.2526755675
H 3.3567697431 -0.3824064856 0.9048253373
H 3.2826215493 -0.9175789313 -0.785538908
H 2.8218180597 -2.0532628989 0.5252260985
*
