20
 xtb: 6.7.1 (edcfbbe)
C           -2.30763985008050       -1.30414000417051        0.33625785686589
C           -2.64918492180984        0.18471281986166        0.33607346435650
C           -1.70878983562929        1.06686149663627       -0.48994158543150
C           -0.28079899977009        1.14361924759505        0.00814080471789
O            0.41701965946547       -0.08374717526227       -0.38234498136580
C            1.69632391912916       -0.19271455240446        0.00673173793432
O            2.27921232485972        0.67345952569771        0.64303191804459
C            2.30913634262846       -1.49469143377403       -0.39957239266893
H           -3.08541592602219       -1.87710266042955        0.85199369640887
H           -2.22867578244939       -1.69033966579802       -0.68631115210130
H           -1.35882366454610       -1.50292033432118        0.84315781006133
H           -3.66486661559820        0.31751656239511       -0.05574650291365
H           -2.66512026066065        0.55698600269399        1.36863769384707
H           -1.70393696705553        0.74707962077389       -1.53986727105054
H           -2.09263429160907        2.09404517355308       -0.47993107273002
H            0.25379962349627        1.98576960670946       -0.44147717700018
H           -0.23426451885509        1.23692075720879        1.09863755067431
H            2.40972866093913       -2.11585752938707        0.49723725778507
H            3.31234929317361       -1.31323997327210       -0.79164666439928
H            1.70190624242925       -2.02448368773895       -1.13351363507362
