! r2scan-3c def2/J RI DEFGRID2 scfconv6 printgap
%output
    printlevel normal
end
* xyz 0 1
C -2.7384549626 -1.175829319 -0.0695499307
C -2.5243230556 0.332732482 -0.0390115962
C -1.2299529324 0.7024979465 0.6877574997
C -0.0140840003 0.2633818938 -0.0879391075
O 0.1158948265 0.3531575041 -1.2906583842
O 0.9163390248 -0.2394748912 0.7162564701
C 2.1629574973 -0.6652234727 0.1409906642
C 3.1326792824 0.4984865433 0.0037928618
H -3.6688348296 -1.4165320493 -0.5767099721
H -1.923208798 -1.6623418074 -0.6018761498
H -2.7797465952 -1.5775345344 0.9401363205
H -3.3633289092 0.8119589718 0.4658585194
H -2.4718083945 0.7145570952 -1.0602506715
H -1.1878644554 0.2548150812 1.6802046379
H -1.1644731766 1.7878817392 0.7903347582
H 2.540818738 -1.4177610838 0.8335706992
H 1.9605797391 -1.1144598703 -0.8361679301
H 4.0852217062 0.1312144824 -0.3638684985
H 2.7404866485 1.2290098158 -0.700317996
H 3.2799197439 0.9783875259 0.9675373625
*
