! pbe def2-sv(p) def2/J RI DEFGRID1 loosescf d4 GCP(DFT/SV(P)) printgap
%output
    printlevel normal
end
* xyz 0 1
C -2.709962756 -0.9703977633 -0.4707964719
C -2.2063428669 -0.2633216013 0.7815497145
C -1.294069602 0.9229496053 0.439700882
C -0.0285020097 0.4485064121 -0.2264382643
O 0.2589628448 0.6392117005 -1.3901530372
O 0.7387265657 -0.230100281 0.6177695428
C 1.9824316419 -0.7628609712 0.1354165613
C 3.0892216668 0.2787595796 0.197185276
H -3.3455282518 -1.8102335361 -0.2030713604
H -3.2837395738 -0.2852410019 -1.0904136052
H -1.8773710783 -1.3430449494 -1.0648519185
H -1.6528070135 -0.9651394671 1.4073028571
H -3.0561687417 0.1087802872 1.3546487382
H -1.018914202 1.4430012212 1.3572279282
H -1.8011118425 1.609516592 -0.2378365703
H 2.1934020839 -1.6055882055 0.7944053599
H 1.8393745055 -1.1098794799 -0.8926033157
H 3.1870690061 0.6616157221 1.2093909345
H 4.0268711188 -0.1743227478 -0.1076268278
H 2.8612472569 1.1038817645 -0.4739506157
*
