      -----------------------------------------------------------      
     |                   =====================                   |     
     |                           x T B                           |     
     |                   =====================                   |     
     |                         S. Grimme                         |     
     |          Mulliken Center for Theoretical Chemistry        |     
     |                    University of Bonn                     |     
      -----------------------------------------------------------      

   * xtb version 6.7.1 (edcfbbe) compiled by 'albert@albert-system' on 2024-07-22

   xtb is free software: you can redistribute it and/or modify it under
   the terms of the GNU Lesser General Public License as published by
   the Free Software Foundation, either version 3 of the License, or
   (at your option) any later version.
   
   xtb is distributed in the hope that it will be useful,
   but WITHOUT ANY WARRANTY; without even the implied warranty of
   MERCHANTABILITY or FITNESS FOR A PARTICULAR PURPOSE.  See the
   GNU Lesser General Public License for more details.
   
   Cite this work as:
   * C. Bannwarth, E. Caldeweyher, S. Ehlert, A. Hansen, P. Pracht,
     J. Seibert, S. Spicher, S. Grimme, WIREs Comput. Mol. Sci., 2020, 11,
     e01493. DOI: 10.1002/wcms.1493
   
   for GFN2-xTB:
   * C. Bannwarth, S. Ehlert and S. Grimme., J. Chem. Theory Comput., 2019,
     15, 1652-1671. DOI: 10.1021/acs.jctc.8b01176
   for GFN1-xTB:
   * S. Grimme, C. Bannwarth, P. Shushkov, J. Chem. Theory Comput., 2017,
     13, 1989-2009. DOI: 10.1021/acs.jctc.7b00118
   for GFN0-xTB:
   * P. Pracht, E. Caldeweyher, S. Ehlert, S. Grimme, ChemRxiv, 2019, preprint.
     DOI: 10.26434/chemrxiv.8326202.v1
   for GFN-FF:
   * S. Spicher and S. Grimme, Angew. Chem. Int. Ed., 2020, 59, 15665-15673.
     DOI: 10.1002/anie.202004239
   
   for ALPB and GBSA implicit solvation:
   * S. Ehlert, M. Stahn, S. Spicher, S. Grimme, J. Chem. Theory Comput.,
     2021, 17, 4250-4261. DOI: 10.1021/acs.jctc.1c00471
   
   for ddCOSMO and CPCM-X implicit solvation:
   * M. Stahn, S. Ehlert, S. Grimme, J. Phys. Chem. A,
     2023, XX, XXXX-XXXX. DOI: 10.1021/acs.jpca.3c04382
   
   for DFT-D4:
   * E. Caldeweyher, C. Bannwarth and S. Grimme, J. Chem. Phys., 2017,
     147, 034112. DOI: 10.1063/1.4993215
   * E. Caldeweyher, S. Ehlert, A. Hansen, H. Neugebauer, S. Spicher,
     C. Bannwarth and S. Grimme, J. Chem. Phys., 2019, 150, 154122.
     DOI: 10.1063/1.5090222
   * E. Caldeweyher, J.-M. Mewes, S. Ehlert and S. Grimme, Phys. Chem. Chem. Phys.
     2020, 22, 8499-8512. DOI: 10.1039/D0CP00502A
   
   for sTDA-xTB:
   * S. Grimme and C. Bannwarth, J. Chem. Phys., 2016, 145, 054103.
     DOI: 10.1063/1.4959605
   
   in the mass-spec context:
   * V. Asgeirsson, C. Bauer and S. Grimme, Chem. Sci., 2017, 8, 4879.
     DOI: 10.1039/c7sc00601b
   * J. Koopman and S. Grimme, ACS Omega 2019, 4, 12, 15120-15133.
     DOI: 10.1021/acsomega.9b02011
   
   for metadynamics refer to:
   * S. Grimme, J. Chem. Theory Comput., 2019, 155, 2847-2862
     DOI: 10.1021/acs.jctc.9b00143
   
   for SPH calculations refer to:
   * S. Spicher and S. Grimme, J. Chem. Theory Comput., 2021, 17, 1701-1714
     DOI: 10.1021/acs.jctc.0c01306
   
   for ONIOM refer to:
   * C. Plett, A. Katbashev, S. Ehlert, S. Grimme, M. Bursch,
     Phys. Chem. Chem. Phys., 2023, 25, 17860-17868. DOI: 10.1039/D3CP02178E
   
   for DIPRO refer to:
   * J. Kohn, N. Gildemeister, S. Grimme, D. Fazzi, A. Hansen,
     J. Chem. Phys., 2023, just accepted.
   
   for PTB refer to:
   * S. Grimme, M. Mueller, A. Hansen, J. Chem. Phys., 2023, 158, 124111.
     DOI: 10.1063/5.0137838
   
   with help from (in alphabetical order)
   P. Atkinson, C. Bannwarth, F. Bohle, G. Brandenburg, E. Caldeweyher
   M. Checinski, S. Dohm, S. Ehlert, S. Ehrlich, I. Gerasimov, C. Hölzer
   A. Katbashev, J. Kohn, J. Koopman, C. Lavigne, S. Lehtola, F. März, M. Müller,
   F. Musil, H. Neugebauer, J. Pisarek, C. Plett, P. Pracht, F. Pultar,
   J. Seibert, P. Shushkov, S. Spicher, M. Stahn, M. Steiner, T. Strunk,
   J. Stückrath, T. Rose, and J. Unsleber
   
 * started run on 2025/04/11 at 14:23:05.168     
   ID    Z sym.   atoms
    1    6 C      1-5, 7, 9
    2    8 O      6, 8
    3    1 H      10-23

           -------------------------------------------------
          |                Calculation Setup                |
           -------------------------------------------------

          program call               : /software/projects/pawsey0265/mwang1/xtb/bin/xtb solv.coord --gfn2 --sp --chrg 0 --norestart --parallel 1 --alpb water reference -I xtb_sp-xcontrol-inp
          hostname                   : nid001577
          coordinate file            : solv.coord
          omp threads                :                     1


           -------------------------------------------------
          |                 G F N 2 - x T B                 |
           -------------------------------------------------

        Reference                      10.1021/acs.jctc.8b01176
      * Hamiltonian:
        H0-scaling (s, p, d)           1.850000    2.230000    2.230000
        zeta-weighting                 0.500000
      * Dispersion:
        s8                             2.700000
        a1                             0.520000
        a2                             5.000000
        s9                             5.000000
      * Repulsion:
        kExp                           1.500000    1.000000
        rExp                           1.000000
      * Coulomb:
        alpha                          2.000000
        third order                    shell-resolved
        anisotropic                    true
        a3                             3.000000
        a5                             4.000000
        cn-shift                       1.200000
        cn-exp                         4.000000
        max-rad                        5.000000

      * Solvation model:               ALPB
        Solvent                        water
        Parameter file                 internal GFN2-xTB/ALPB
        Dielectric constant                8.0200E+01
        Reference state                gsolv=reference [X=1]
        Free energy shift                  2.8945E-03 Eh       1.8164E+00 kcal/mol
        Temperature                        2.9815E+02 K
        Density                            1.0000E+00 kg/L
        Solvent mass                       1.8000E+01 g/mol
        Interaction kernel             P16
        Born radius scaling (c1)           1.4744E+00
        Born radii integrator          GBOBC
        Born offset                        0.0000E+00 a0       0.0000E+00 AA
        H-bond correction              true
        Ion screening                  false
        Surface tension                    1.0000E-05 Eh       1.5569E+01 dyn/cm
        Grid points                               974 per atom

          ...................................................
          :                      SETUP                      :
          :.................................................:
          :  # basis functions                  50          :
          :  # atomic orbitals                  50          :
          :  # shells                           32          :
          :  # electrons                        54          :
          :  max. iterations                   250          :
          :  Hamiltonian                  GFN2-xTB          :
          :  restarted?                      false          :
          :  GBSA solvation                   true          :
          :  PC potential                    false          :
          :  electronic temp.          300.0000000     K    :
          :  accuracy                    1.0000000          :
          :  -> integral cutoff          0.2500000E+02      :
          :  -> integral neglect         0.1000000E-07      :
          :  -> SCF convergence          0.1000000E-05 Eh   :
          :  -> wf. convergence          0.1000000E-03 e    :
          :  Broyden damping             0.4000000          :
          :  net charge                          0          :
          :  unpaired electrons                  0          :
          ...................................................

 iter      E             dE          RMSdq      gap      omega  full diag
   1    -30.5836070 -0.305836E+02  0.362E+00    5.73       0.0  T
   2    -30.6488467 -0.652397E-01  0.183E+00    4.97       1.0  T
   3    -30.6509347 -0.208807E-02  0.943E-01    5.29       1.0  T
   4    -30.6523151 -0.138032E-02  0.151E-01    5.05       1.0  T
   5    -30.6525049 -0.189862E-03  0.644E-02    5.09       1.0  T
   6    -30.6525065 -0.162647E-05  0.170E-02    5.09       1.2  T
   7    -30.6525077 -0.114747E-05  0.437E-03    5.09       4.8  T
   8    -30.6525077 -0.370425E-07  0.245E-03    5.09       8.5  T
   9    -30.6525077 -0.164850E-07  0.585E-04    5.09      35.7  T
  10    -30.6525077 -0.121614E-08  0.310E-04    5.09      67.4  T

   *** convergence criteria satisfied after 10 iterations ***

         #    Occupation            Energy/Eh            Energy/eV
      -------------------------------------------------------------
         1        2.0000           -0.7482771             -20.3617
       ...           ...                  ...                  ...
        21        2.0000           -0.4593591             -12.4998
        22        2.0000           -0.4534941             -12.3402
        23        2.0000           -0.4476150             -12.1802
        24        2.0000           -0.4305313             -11.7154
        25        2.0000           -0.4292724             -11.6811
        26        2.0000           -0.4262312             -11.5983
        27        2.0000           -0.4228654             -11.5068 (HOMO)
        28                         -0.2357436              -6.4149 (LUMO)
        29                         -0.0021056              -0.0573
        30                          0.0645188               1.7556
        31                          0.0986775               2.6852
        32                          0.1042409               2.8365
       ...                                ...                  ...
        50                          0.6163326              16.7713
      -------------------------------------------------------------
                  HL-Gap            0.1871218 Eh            5.0918 eV
             Fermi-level           -0.3293045 Eh           -8.9608 eV

 SCC (total)                   0 d,  0 h,  0 min,  0.073 sec
 SCC setup                      ...        0 min,  0.002 sec (  3.096%)
 Dispersion                     ...        0 min,  0.000 sec (  0.283%)
 classical contributions        ...        0 min,  0.000 sec (  0.076%)
 integral evaluation            ...        0 min,  0.006 sec (  8.731%)
 iterations                     ...        0 min,  0.055 sec ( 75.536%)
 molecular gradient             ...        0 min,  0.009 sec ( 12.033%)
 printout                       ...        0 min,  0.000 sec (  0.206%)

         :::::::::::::::::::::::::::::::::::::::::::::::::::::
         ::                     SUMMARY                     ::
         :::::::::::::::::::::::::::::::::::::::::::::::::::::
         :: total energy             -30.288444416018 Eh    ::
         :: total w/o Gsasa/hb       -30.289840676216 Eh    ::
         :: gradient norm              0.000159721718 Eh/a0 ::
         :: HOMO-LUMO gap              5.091842810148 eV    ::
         ::.................................................::
         :: SCC energy               -30.652392942363 Eh    ::
         :: -> isotropic ES            0.060898692438 Eh    ::
         :: -> anisotropic ES          0.001186028116 Eh    ::
         :: -> anisotropic XC          0.009972866394 Eh    ::
         :: -> dispersion             -0.015190914493 Eh    ::
         :: -> Gsolv                  -0.007865131366 Eh    ::
         ::    -> Gelec               -0.009261391563 Eh    ::
         ::    -> Gsasa                0.001008039450 Eh    ::
         ::    -> Ghb                 -0.002506328413 Eh    ::
         ::    -> Gshift               0.002894549160 Eh    ::
         :: repulsion energy           0.363948526346 Eh    ::
         :: add. restraining           0.000000000000 Eh    ::
         :: total charge               0.000000000000 e     ::
         :::::::::::::::::::::::::::::::::::::::::::::::::::::

           -------------------------------------------------
          |                Property Printout                |
           -------------------------------------------------

    * Orbital Energies and Occupations

         #    Occupation            Energy/Eh            Energy/eV
      -------------------------------------------------------------
         1        2.0000           -0.7482771             -20.3617
       ...           ...                  ...                  ...
        15        2.0000           -0.5025012             -13.6738
        16        2.0000           -0.4933529             -13.4248
        17        2.0000           -0.4819934             -13.1157
        18        2.0000           -0.4773063             -12.9882
        19        2.0000           -0.4753211             -12.9341
        20        2.0000           -0.4679834             -12.7345
        21        2.0000           -0.4593591             -12.4998
        22        2.0000           -0.4534941             -12.3402
        23        2.0000           -0.4476150             -12.1802
        24        2.0000           -0.4305313             -11.7154
        25        2.0000           -0.4292724             -11.6811
        26        2.0000           -0.4262312             -11.5983
        27        2.0000           -0.4228654             -11.5068 (HOMO)
        28                         -0.2357436              -6.4149 (LUMO)
        29                         -0.0021056              -0.0573
        30                          0.0645188               1.7556
        31                          0.0986775               2.6852
        32                          0.1042409               2.8365
        33                          0.1308942               3.5618
        34                          0.1394981               3.7959
        35                          0.1442587               3.9255
        36                          0.1553220               4.2265
        37                          0.1674196               4.5557
        38                          0.1833445               4.9891
       ...                                ...                  ...
        50                          0.6163326              16.7713
      -------------------------------------------------------------
                  HL-Gap            0.1871218 Eh            5.0918 eV
             Fermi-level           -0.3293045 Eh           -8.9608 eV

     #   Z          covCN         q      C6AA      α(0)
     1   6 C        3.755    -0.114    22.738     6.799
     2   6 C        3.849    -0.006    20.656     6.465
     3   6 C        3.757    -0.119    22.826     6.812
     4   6 C        3.805    -0.077    21.974     6.673
     5   6 C        3.692     0.065    19.663     6.345
     6   8 O        1.704    -0.270    18.473     5.803
     7   6 C        2.707     0.370    20.721     7.451
     8   8 O        0.856    -0.493    23.640     6.519
     9   6 C        3.754    -0.170    23.868     6.966
    10   1 H        0.925     0.039     2.468     2.457
    11   1 H        0.925     0.042     2.428     2.437
    12   1 H        0.925     0.036     2.509     2.477
    13   1 H        0.924     0.021     2.720     2.579
    14   1 H        0.925     0.041     2.441     2.443
    15   1 H        0.925     0.045     2.385     2.415
    16   1 H        0.925     0.041     2.429     2.437
    17   1 H        0.924     0.061     2.190     2.314
    18   1 H        0.924     0.060     2.201     2.320
    19   1 H        0.924     0.072     2.060     2.244
    20   1 H        0.924     0.060     2.194     2.317
    21   1 H        0.925     0.105     1.737     2.061
    22   1 H        0.925     0.089     1.887     2.148
    23   1 H        0.925     0.103     1.760     2.075

 Mol. C6AA /au·bohr⁶  :       3916.912156
 Mol. C8AA /au·bohr⁸  :      83445.594675
 Mol. α(0) /au        :         92.557466


Wiberg/Mayer (AO) data.
largest (>0.10) Wiberg bond orders for each atom

 ---------------------------------------------------------------------------
     #   Z sym  total        # sym  WBO       # sym  WBO       # sym  WBO
 ---------------------------------------------------------------------------
     1   6 C    3.996 --     2 C    1.010    11 H    0.986    10 H    0.986
                            12 H    0.983
     2   6 C    3.996 --     1 C    1.010     3 C    1.008     4 C    0.997
                            13 H    0.969
     3   6 C    3.995 --     2 C    1.008    15 H    0.986    14 H    0.986
                            16 H    0.986
     4   6 C    3.991 --     5 C    0.999     2 C    0.997    18 H    0.973
                            17 H    0.970
     5   6 C    3.913 --     4 C    0.999    19 H    0.967    20 H    0.966
                             6 O    0.923
     6   8 O    2.320 --     7 C    1.166     5 C    0.923     8 O    0.169
     7   6 C    3.905 --     8 O    1.685     6 O    1.166     9 C    0.998
     8   8 O    1.971 --     7 C    1.685     6 O    0.169
     9   6 C    3.983 --     7 C    0.998    22 H    0.980    23 H    0.961
                            21 H    0.951
    10   1 H    0.999 --     1 C    0.986
    11   1 H    0.998 --     1 C    0.986
    12   1 H    0.999 --     1 C    0.983
    13   1 H    1.000 --     2 C    0.969
    14   1 H    0.998 --     3 C    0.986
    15   1 H    0.998 --     3 C    0.986
    16   1 H    0.998 --     3 C    0.986
    17   1 H    0.996 --     4 C    0.970
    18   1 H    0.996 --     4 C    0.973
    19   1 H    0.995 --     5 C    0.967
    20   1 H    0.996 --     5 C    0.966
    21   1 H    0.989 --     9 C    0.951
    22   1 H    0.992 --     9 C    0.980
    23   1 H    0.989 --     9 C    0.961
 ---------------------------------------------------------------------------

Topologies differ in total number of bonds
Writing topology from bond orders to xtbtopo.mol

molecular dipole:
                 x           y           z       tot (Debye)
 q only:        0.365      -0.992      -0.642
   full:        0.294      -1.013      -0.633       3.127
molecular quadrupole (traceless):
                xx          xy          yy          xz          yz          zz
 q only:        3.817       2.249      -4.039       6.826      -3.804       0.222
  q+dip:        2.969       3.149      -3.837       6.429      -4.527       0.868
   full:        3.464       3.285      -4.271       6.106      -4.804       0.806


           -------------------------------------------------
          | TOTAL ENERGY              -30.288444416018 Eh   |
          | GRADIENT NORM               0.000159721718 Eh/α |
          | HOMO-LUMO GAP               5.091842810148 eV   |
           -------------------------------------------------

------------------------------------------------------------------------
 * finished run on 2025/04/11 at 14:23:05.297     
------------------------------------------------------------------------
 total:
 * wall-time:     0 d,  0 h,  0 min,  0.129 sec
 *  cpu-time:     0 d,  0 h,  0 min,  0.050 sec
 * ratio c/w:     0.385 speedup
 SCF:
 * wall-time:     0 d,  0 h,  0 min,  0.074 sec
 *  cpu-time:     0 d,  0 h,  0 min,  0.034 sec
 * ratio c/w:     0.455 speedup

