      -----------------------------------------------------------      
     |                   =====================                   |     
     |                           x T B                           |     
     |                   =====================                   |     
     |                         S. Grimme                         |     
     |          Mulliken Center for Theoretical Chemistry        |     
     |                    University of Bonn                     |     
      -----------------------------------------------------------      

   * xtb version 6.7.1 (edcfbbe) compiled by 'albert@albert-system' on 2024-07-22

   xtb is free software: you can redistribute it and/or modify it under
   the terms of the GNU Lesser General Public License as published by
   the Free Software Foundation, either version 3 of the License, or
   (at your option) any later version.
   
   xtb is distributed in the hope that it will be useful,
   but WITHOUT ANY WARRANTY; without even the implied warranty of
   MERCHANTABILITY or FITNESS FOR A PARTICULAR PURPOSE.  See the
   GNU Lesser General Public License for more details.
   
   Cite this work as:
   * C. Bannwarth, E. Caldeweyher, S. Ehlert, A. Hansen, P. Pracht,
     J. Seibert, S. Spicher, S. Grimme, WIREs Comput. Mol. Sci., 2020, 11,
     e01493. DOI: 10.1002/wcms.1493
   
   for GFN2-xTB:
   * C. Bannwarth, S. Ehlert and S. Grimme., J. Chem. Theory Comput., 2019,
     15, 1652-1671. DOI: 10.1021/acs.jctc.8b01176
   for GFN1-xTB:
   * S. Grimme, C. Bannwarth, P. Shushkov, J. Chem. Theory Comput., 2017,
     13, 1989-2009. DOI: 10.1021/acs.jctc.7b00118
   for GFN0-xTB:
   * P. Pracht, E. Caldeweyher, S. Ehlert, S. Grimme, ChemRxiv, 2019, preprint.
     DOI: 10.26434/chemrxiv.8326202.v1
   for GFN-FF:
   * S. Spicher and S. Grimme, Angew. Chem. Int. Ed., 2020, 59, 15665-15673.
     DOI: 10.1002/anie.202004239
   
   for ALPB and GBSA implicit solvation:
   * S. Ehlert, M. Stahn, S. Spicher, S. Grimme, J. Chem. Theory Comput.,
     2021, 17, 4250-4261. DOI: 10.1021/acs.jctc.1c00471
   
   for ddCOSMO and CPCM-X implicit solvation:
   * M. Stahn, S. Ehlert, S. Grimme, J. Phys. Chem. A,
     2023, XX, XXXX-XXXX. DOI: 10.1021/acs.jpca.3c04382
   
   for DFT-D4:
   * E. Caldeweyher, C. Bannwarth and S. Grimme, J. Chem. Phys., 2017,
     147, 034112. DOI: 10.1063/1.4993215
   * E. Caldeweyher, S. Ehlert, A. Hansen, H. Neugebauer, S. Spicher,
     C. Bannwarth and S. Grimme, J. Chem. Phys., 2019, 150, 154122.
     DOI: 10.1063/1.5090222
   * E. Caldeweyher, J.-M. Mewes, S. Ehlert and S. Grimme, Phys. Chem. Chem. Phys.
     2020, 22, 8499-8512. DOI: 10.1039/D0CP00502A
   
   for sTDA-xTB:
   * S. Grimme and C. Bannwarth, J. Chem. Phys., 2016, 145, 054103.
     DOI: 10.1063/1.4959605
   
   in the mass-spec context:
   * V. Asgeirsson, C. Bauer and S. Grimme, Chem. Sci., 2017, 8, 4879.
     DOI: 10.1039/c7sc00601b
   * J. Koopman and S. Grimme, ACS Omega 2019, 4, 12, 15120-15133.
     DOI: 10.1021/acsomega.9b02011
   
   for metadynamics refer to:
   * S. Grimme, J. Chem. Theory Comput., 2019, 155, 2847-2862
     DOI: 10.1021/acs.jctc.9b00143
   
   for SPH calculations refer to:
   * S. Spicher and S. Grimme, J. Chem. Theory Comput., 2021, 17, 1701-1714
     DOI: 10.1021/acs.jctc.0c01306
   
   for ONIOM refer to:
   * C. Plett, A. Katbashev, S. Ehlert, S. Grimme, M. Bursch,
     Phys. Chem. Chem. Phys., 2023, 25, 17860-17868. DOI: 10.1039/D3CP02178E
   
   for DIPRO refer to:
   * J. Kohn, N. Gildemeister, S. Grimme, D. Fazzi, A. Hansen,
     J. Chem. Phys., 2023, just accepted.
   
   for PTB refer to:
   * S. Grimme, M. Mueller, A. Hansen, J. Chem. Phys., 2023, 158, 124111.
     DOI: 10.1063/5.0137838
   
   with help from (in alphabetical order)
   P. Atkinson, C. Bannwarth, F. Bohle, G. Brandenburg, E. Caldeweyher
   M. Checinski, S. Dohm, S. Ehlert, S. Ehrlich, I. Gerasimov, C. Hölzer
   A. Katbashev, J. Kohn, J. Koopman, C. Lavigne, S. Lehtola, F. März, M. Müller,
   F. Musil, H. Neugebauer, J. Pisarek, C. Plett, P. Pracht, F. Pultar,
   J. Seibert, P. Shushkov, S. Spicher, M. Stahn, M. Steiner, T. Strunk,
   J. Stückrath, T. Rose, and J. Unsleber
   
 * started run on 2025/04/11 at 16:09:19.100     
   ID    Z sym.   atoms
    1    6 C      1-5, 7
    2    8 O      6
    3    1 H      8-19

           -------------------------------------------------
          |                Calculation Setup                |
           -------------------------------------------------

          program call               : /srv/scratch/z5358697/.xtb/bin/xtb gas.coord --gfn2 --sp --chrg 0 --norestart --parallel 1
          hostname                   : k065
          coordinate file            : gas.coord
          omp threads                :                     1


           -------------------------------------------------
          |                 G F N 2 - x T B                 |
           -------------------------------------------------

        Reference                      10.1021/acs.jctc.8b01176
      * Hamiltonian:
        H0-scaling (s, p, d)           1.850000    2.230000    2.230000
        zeta-weighting                 0.500000
      * Dispersion:
        s8                             2.700000
        a1                             0.520000
        a2                             5.000000
        s9                             5.000000
      * Repulsion:
        kExp                           1.500000    1.000000
        rExp                           1.000000
      * Coulomb:
        alpha                          2.000000
        third order                    shell-resolved
        anisotropic                    true
        a3                             3.000000
        a5                             4.000000
        cn-shift                       1.200000
        cn-exp                         4.000000
        max-rad                        5.000000


          ...................................................
          :                      SETUP                      :
          :.................................................:
          :  # basis functions                  40          :
          :  # atomic orbitals                  40          :
          :  # shells                           26          :
          :  # electrons                        42          :
          :  max. iterations                   250          :
          :  Hamiltonian                  GFN2-xTB          :
          :  restarted?                      false          :
          :  GBSA solvation                  false          :
          :  PC potential                    false          :
          :  electronic temp.          300.0000000     K    :
          :  accuracy                    1.0000000          :
          :  -> integral cutoff          0.2500000E+02      :
          :  -> integral neglect         0.1000000E-07      :
          :  -> SCF convergence          0.1000000E-05 Eh   :
          :  -> wf. convergence          0.1000000E-03 e    :
          :  Broyden damping             0.4000000          :
          :  net charge                          0          :
          :  unpaired electrons                  0          :
          ...................................................

 iter      E             dE          RMSdq      gap      omega  full diag
   1    -23.2626486 -0.232626E+02  0.356E+00    4.68       0.0  T
   2    -23.3244054 -0.617568E-01  0.182E+00    3.61       1.0  T
   3    -23.3313647 -0.695928E-02  0.120E+00    4.13       1.0  T
   4    -23.3351549 -0.379020E-02  0.196E-01    3.86       1.0  T
   5    -23.3353451 -0.190229E-03  0.804E-02    3.92       1.0  T
   6    -23.3353633 -0.181840E-04  0.298E-02    3.90       1.0  T
   7    -23.3353639 -0.550785E-06  0.913E-03    3.90       2.5  T
   8    -23.3353640 -0.178879E-06  0.202E-03    3.90      11.4  T
   9    -23.3353640 -0.391164E-08  0.895E-04    3.90      25.6  T
  10    -23.3353640 -0.234520E-08  0.200E-04    3.90     114.7  T

   *** convergence criteria satisfied after 10 iterations ***

         #    Occupation            Energy/Eh            Energy/eV
      -------------------------------------------------------------
         1        2.0000           -0.7044824             -19.1699
       ...           ...                  ...                  ...
        15        2.0000           -0.4727183             -12.8633
        16        2.0000           -0.4699135             -12.7870
        17        2.0000           -0.4606698             -12.5355
        18        2.0000           -0.4464813             -12.1494
        19        2.0000           -0.4376863             -11.9101
        20        2.0000           -0.4330911             -11.7850
        21        2.0000           -0.3932857             -10.7018 (HOMO)
        22                         -0.2497998              -6.7974 (LUMO)
        23                          0.0674812               1.8363
        24                          0.0920053               2.5036
        25                          0.1044877               2.8433
        26                          0.1213763               3.3028
       ...                                ...                  ...
        40                          0.5950840              16.1931
      -------------------------------------------------------------
                  HL-Gap            0.1434859 Eh            3.9044 eV
             Fermi-level           -0.3215428 Eh           -8.7496 eV

 SCC (total)                   0 d,  0 h,  0 min,  0.029 sec
 SCC setup                      ...        0 min,  0.000 sec (  0.684%)
 Dispersion                     ...        0 min,  0.000 sec (  0.395%)
 classical contributions        ...        0 min,  0.000 sec (  0.079%)
 integral evaluation            ...        0 min,  0.001 sec (  4.802%)
 iterations                     ...        0 min,  0.023 sec ( 77.312%)
 molecular gradient             ...        0 min,  0.005 sec ( 16.115%)
 printout                       ...        0 min,  0.000 sec (  0.548%)

         :::::::::::::::::::::::::::::::::::::::::::::::::::::
         ::                     SUMMARY                     ::
         :::::::::::::::::::::::::::::::::::::::::::::::::::::
         :: total energy             -23.024813902806 Eh    ::
         :: gradient norm              0.025880648122 Eh/a0 ::
         :: HOMO-LUMO gap              3.904448995242 eV    ::
         ::.................................................::
         :: SCC energy               -23.335345896458 Eh    ::
         :: -> isotropic ES            0.029375006311 Eh    ::
         :: -> anisotropic ES          0.004307221139 Eh    ::
         :: -> anisotropic XC          0.010960194883 Eh    ::
         :: -> dispersion             -0.010941436668 Eh    ::
         :: repulsion energy           0.310531993652 Eh    ::
         :: add. restraining           0.000000000000 Eh    ::
         :: total charge               0.000000000000 e     ::
         :::::::::::::::::::::::::::::::::::::::::::::::::::::

           -------------------------------------------------
          |                Property Printout                |
           -------------------------------------------------

    * Orbital Energies and Occupations

         #    Occupation            Energy/Eh            Energy/eV
      -------------------------------------------------------------
         1        2.0000           -0.7044824             -19.1699
       ...           ...                  ...                  ...
         9        2.0000           -0.5354215             -14.5696
        10        2.0000           -0.5284969             -14.3811
        11        2.0000           -0.5094661             -13.8633
        12        2.0000           -0.5008983             -13.6301
        13        2.0000           -0.4922438             -13.3946
        14        2.0000           -0.4787533             -13.0275
        15        2.0000           -0.4727183             -12.8633
        16        2.0000           -0.4699135             -12.7870
        17        2.0000           -0.4606698             -12.5355
        18        2.0000           -0.4464813             -12.1494
        19        2.0000           -0.4376863             -11.9101
        20        2.0000           -0.4330911             -11.7850
        21        2.0000           -0.3932857             -10.7018 (HOMO)
        22                         -0.2497998              -6.7974 (LUMO)
        23                          0.0674812               1.8363
        24                          0.0920053               2.5036
        25                          0.1044877               2.8433
        26                          0.1213763               3.3028
        27                          0.1308343               3.5602
        28                          0.1358027               3.6954
        29                          0.1593221               4.3354
        30                          0.1695795               4.6145
        31                          0.1815474               4.9402
        32                          0.1960256               5.3341
       ...                                ...                  ...
        40                          0.5950840              16.1931
      -------------------------------------------------------------
                  HL-Gap            0.1434859 Eh            3.9044 eV
             Fermi-level           -0.3215428 Eh           -8.7496 eV

     #   Z          covCN         q      C6AA      α(0)
     1   6 C        3.751    -0.104    22.556     6.773
     2   6 C        3.800    -0.054    21.537     6.608
     3   6 C        3.802    -0.056    21.573     6.613
     4   6 C        3.804    -0.088    22.170     6.703
     5   6 C        2.811     0.239    23.013     7.860
     6   8 O        0.857    -0.367    21.025     6.148
     7   6 C        3.754    -0.138    23.212     6.870
     8   1 H        0.925     0.038     2.482     2.464
     9   1 H        0.925     0.035     2.518     2.482
    10   1 H        0.925     0.037     2.487     2.466
    11   1 H        0.924     0.032     2.552     2.498
    12   1 H        0.924     0.033     2.544     2.495
    13   1 H        0.925     0.035     2.515     2.480
    14   1 H        0.924     0.038     2.474     2.460
    15   1 H        0.924     0.056     2.250     2.346
    16   1 H        0.924     0.064     2.155     2.295
    17   1 H        0.925     0.072     2.064     2.247
    18   1 H        0.925     0.058     2.222     2.331
    19   1 H        0.925     0.069     2.094     2.263

 Mol. C6AA /au·bohr⁶  :       2628.080822
 Mol. C8AA /au·bohr⁸  :      56036.549779
 Mol. α(0) /au        :         76.400406


Wiberg/Mayer (AO) data.
largest (>0.10) Wiberg bond orders for each atom

 ---------------------------------------------------------------------------
     #   Z sym  total        # sym  WBO       # sym  WBO       # sym  WBO
 ---------------------------------------------------------------------------
     1   6 C    3.996 --     2 C    1.020    10 H    0.987     9 H    0.987
                             8 H    0.986
     2   6 C    3.998 --     1 C    1.020     3 C    1.006    11 H    0.978
                            12 H    0.977
     3   6 C    3.996 --     2 C    1.006     4 C    0.989    14 H    0.978
                            13 H    0.976
     4   6 C    3.995 --     5 C    0.993     3 C    0.989    16 H    0.971
                            15 H    0.951
     5   6 C    3.918 --     6 O    1.857     7 C    1.010     4 C    0.993
     6   8 O    2.058 --     5 C    1.857
     7   6 C    3.995 --     5 C    1.010    19 H    0.979    18 H    0.974
                            17 H    0.951
     8   1 H    0.999 --     1 C    0.986
     9   1 H    0.999 --     1 C    0.987
    10   1 H    0.999 --     1 C    0.987
    11   1 H    0.999 --     2 C    0.978
    12   1 H    0.998 --     2 C    0.977
    13   1 H    0.999 --     3 C    0.976
    14   1 H    0.999 --     3 C    0.978
    15   1 H    0.997 --     4 C    0.951
    16   1 H    0.996 --     4 C    0.971
    17   1 H    0.995 --     7 C    0.951
    18   1 H    0.997 --     7 C    0.974
    19   1 H    0.995 --     7 C    0.979
 ---------------------------------------------------------------------------

Topologies differ in total number of bonds
Writing topology from bond orders to xtbtopo.mol

molecular dipole:
                 x           y           z       tot (Debye)
 q only:        0.559       1.047       0.098
   full:        0.619       1.234       0.111       3.521
molecular quadrupole (traceless):
                xx          xy          yy          xz          yz          zz
 q only:       -0.395      -6.433      -1.616      -1.163      -0.004       2.011
  q+dip:       -1.372      -7.587      -2.041      -1.262      -0.635       3.413
   full:       -1.303      -7.720      -2.474      -0.971      -0.593       3.777


           -------------------------------------------------
          | TOTAL ENERGY              -23.024813902806 Eh   |
          | GRADIENT NORM               0.025880648122 Eh/α |
          | HOMO-LUMO GAP               3.904448995242 eV   |
           -------------------------------------------------

------------------------------------------------------------------------
 * finished run on 2025/04/11 at 16:09:19.181     
------------------------------------------------------------------------
 total:
 * wall-time:     0 d,  0 h,  0 min,  0.080 sec
 *  cpu-time:     0 d,  0 h,  0 min,  0.024 sec
 * ratio c/w:     0.296 speedup
 SCF:
 * wall-time:     0 d,  0 h,  0 min,  0.030 sec
 *  cpu-time:     0 d,  0 h,  0 min,  0.015 sec
 * ratio c/w:     0.510 speedup

