      -----------------------------------------------------------      
     |                   =====================                   |     
     |                           x T B                           |     
     |                   =====================                   |     
     |                         S. Grimme                         |     
     |          Mulliken Center for Theoretical Chemistry        |     
     |                    University of Bonn                     |     
      -----------------------------------------------------------      

   * xtb version 6.7.1 (edcfbbe) compiled by 'albert@albert-system' on 2024-07-22

   xtb is free software: you can redistribute it and/or modify it under
   the terms of the GNU Lesser General Public License as published by
   the Free Software Foundation, either version 3 of the License, or
   (at your option) any later version.
   
   xtb is distributed in the hope that it will be useful,
   but WITHOUT ANY WARRANTY; without even the implied warranty of
   MERCHANTABILITY or FITNESS FOR A PARTICULAR PURPOSE.  See the
   GNU Lesser General Public License for more details.
   
   Cite this work as:
   * C. Bannwarth, E. Caldeweyher, S. Ehlert, A. Hansen, P. Pracht,
     J. Seibert, S. Spicher, S. Grimme, WIREs Comput. Mol. Sci., 2020, 11,
     e01493. DOI: 10.1002/wcms.1493
   
   for GFN2-xTB:
   * C. Bannwarth, S. Ehlert and S. Grimme., J. Chem. Theory Comput., 2019,
     15, 1652-1671. DOI: 10.1021/acs.jctc.8b01176
   for GFN1-xTB:
   * S. Grimme, C. Bannwarth, P. Shushkov, J. Chem. Theory Comput., 2017,
     13, 1989-2009. DOI: 10.1021/acs.jctc.7b00118
   for GFN0-xTB:
   * P. Pracht, E. Caldeweyher, S. Ehlert, S. Grimme, ChemRxiv, 2019, preprint.
     DOI: 10.26434/chemrxiv.8326202.v1
   for GFN-FF:
   * S. Spicher and S. Grimme, Angew. Chem. Int. Ed., 2020, 59, 15665-15673.
     DOI: 10.1002/anie.202004239
   
   for ALPB and GBSA implicit solvation:
   * S. Ehlert, M. Stahn, S. Spicher, S. Grimme, J. Chem. Theory Comput.,
     2021, 17, 4250-4261. DOI: 10.1021/acs.jctc.1c00471
   
   for ddCOSMO and CPCM-X implicit solvation:
   * M. Stahn, S. Ehlert, S. Grimme, J. Phys. Chem. A,
     2023, XX, XXXX-XXXX. DOI: 10.1021/acs.jpca.3c04382
   
   for DFT-D4:
   * E. Caldeweyher, C. Bannwarth and S. Grimme, J. Chem. Phys., 2017,
     147, 034112. DOI: 10.1063/1.4993215
   * E. Caldeweyher, S. Ehlert, A. Hansen, H. Neugebauer, S. Spicher,
     C. Bannwarth and S. Grimme, J. Chem. Phys., 2019, 150, 154122.
     DOI: 10.1063/1.5090222
   * E. Caldeweyher, J.-M. Mewes, S. Ehlert and S. Grimme, Phys. Chem. Chem. Phys.
     2020, 22, 8499-8512. DOI: 10.1039/D0CP00502A
   
   for sTDA-xTB:
   * S. Grimme and C. Bannwarth, J. Chem. Phys., 2016, 145, 054103.
     DOI: 10.1063/1.4959605
   
   in the mass-spec context:
   * V. Asgeirsson, C. Bauer and S. Grimme, Chem. Sci., 2017, 8, 4879.
     DOI: 10.1039/c7sc00601b
   * J. Koopman and S. Grimme, ACS Omega 2019, 4, 12, 15120-15133.
     DOI: 10.1021/acsomega.9b02011
   
   for metadynamics refer to:
   * S. Grimme, J. Chem. Theory Comput., 2019, 155, 2847-2862
     DOI: 10.1021/acs.jctc.9b00143
   
   for SPH calculations refer to:
   * S. Spicher and S. Grimme, J. Chem. Theory Comput., 2021, 17, 1701-1714
     DOI: 10.1021/acs.jctc.0c01306
   
   for ONIOM refer to:
   * C. Plett, A. Katbashev, S. Ehlert, S. Grimme, M. Bursch,
     Phys. Chem. Chem. Phys., 2023, 25, 17860-17868. DOI: 10.1039/D3CP02178E
   
   for DIPRO refer to:
   * J. Kohn, N. Gildemeister, S. Grimme, D. Fazzi, A. Hansen,
     J. Chem. Phys., 2023, just accepted.
   
   for PTB refer to:
   * S. Grimme, M. Mueller, A. Hansen, J. Chem. Phys., 2023, 158, 124111.
     DOI: 10.1063/5.0137838
   
   with help from (in alphabetical order)
   P. Atkinson, C. Bannwarth, F. Bohle, G. Brandenburg, E. Caldeweyher
   M. Checinski, S. Dohm, S. Ehlert, S. Ehrlich, I. Gerasimov, C. Hölzer
   A. Katbashev, J. Kohn, J. Koopman, C. Lavigne, S. Lehtola, F. März, M. Müller,
   F. Musil, H. Neugebauer, J. Pisarek, C. Plett, P. Pracht, F. Pultar,
   J. Seibert, P. Shushkov, S. Spicher, M. Stahn, M. Steiner, T. Strunk,
   J. Stückrath, T. Rose, and J. Unsleber
   
 * started run on 2025/04/11 at 16:09:19.212     
   ID    Z sym.   atoms
    1    6 C      1-5, 7
    2    8 O      6
    3    1 H      8-19

           -------------------------------------------------
          |                Calculation Setup                |
           -------------------------------------------------

          program call               : /srv/scratch/z5358697/.xtb/bin/xtb solv.coord --gfn2 --sp --chrg 0 --norestart --parallel 1 --alpb water reference -I xtb_sp-xcontrol-inp
          hostname                   : k065
          coordinate file            : solv.coord
          omp threads                :                     1


           -------------------------------------------------
          |                 G F N 2 - x T B                 |
           -------------------------------------------------

        Reference                      10.1021/acs.jctc.8b01176
      * Hamiltonian:
        H0-scaling (s, p, d)           1.850000    2.230000    2.230000
        zeta-weighting                 0.500000
      * Dispersion:
        s8                             2.700000
        a1                             0.520000
        a2                             5.000000
        s9                             5.000000
      * Repulsion:
        kExp                           1.500000    1.000000
        rExp                           1.000000
      * Coulomb:
        alpha                          2.000000
        third order                    shell-resolved
        anisotropic                    true
        a3                             3.000000
        a5                             4.000000
        cn-shift                       1.200000
        cn-exp                         4.000000
        max-rad                        5.000000

      * Solvation model:               ALPB
        Solvent                        water
        Parameter file                 internal GFN2-xTB/ALPB
        Dielectric constant                8.0200E+01
        Reference state                gsolv=reference [X=1]
        Free energy shift                  2.8945E-03 Eh       1.8164E+00 kcal/mol
        Temperature                        2.9815E+02 K
        Density                            1.0000E+00 kg/L
        Solvent mass                       1.8000E+01 g/mol
        Interaction kernel             P16
        Born radius scaling (c1)           1.4744E+00
        Born radii integrator          GBOBC
        Born offset                        0.0000E+00 a0       0.0000E+00 AA
        H-bond correction              true
        Ion screening                  false
        Surface tension                    1.0000E-05 Eh       1.5569E+01 dyn/cm
        Grid points                               974 per atom

          ...................................................
          :                      SETUP                      :
          :.................................................:
          :  # basis functions                  40          :
          :  # atomic orbitals                  40          :
          :  # shells                           26          :
          :  # electrons                        42          :
          :  max. iterations                   250          :
          :  Hamiltonian                  GFN2-xTB          :
          :  restarted?                      false          :
          :  GBSA solvation                   true          :
          :  PC potential                    false          :
          :  electronic temp.          300.0000000     K    :
          :  accuracy                    1.0000000          :
          :  -> integral cutoff          0.2500000E+02      :
          :  -> integral neglect         0.1000000E-07      :
          :  -> SCF convergence          0.1000000E-05 Eh   :
          :  -> wf. convergence          0.1000000E-03 e    :
          :  Broyden damping             0.4000000          :
          :  net charge                          0          :
          :  unpaired electrons                  0          :
          ...................................................

 iter      E             dE          RMSdq      gap      omega  full diag
   1    -23.2705506 -0.232706E+02  0.373E+00    4.63       0.0  T
   2    -23.3335555 -0.630049E-01  0.180E+00    3.69       1.0  T
   3    -23.3369037 -0.334819E-02  0.106E+00    4.08       1.0  T
   4    -23.3388526 -0.194896E-02  0.178E-01    3.85       1.0  T
   5    -23.3391216 -0.268977E-03  0.700E-02    3.91       1.0  T
   6    -23.3391245 -0.289889E-05  0.189E-02    3.90       1.2  T
   7    -23.3391257 -0.117049E-05  0.522E-03    3.91       4.4  T
   8    -23.3391257 -0.387121E-07  0.225E-03    3.91      10.2  T
   9    -23.3391257 -0.876472E-08  0.710E-04    3.91      32.3  T
  10    -23.3391257 -0.125057E-08  0.201E-04    3.91     114.2  T

   *** convergence criteria satisfied after 10 iterations ***

         #    Occupation            Energy/Eh            Energy/eV
      -------------------------------------------------------------
         1        2.0000           -0.7146398             -19.4463
       ...           ...                  ...                  ...
        15        2.0000           -0.4672185             -12.7137
        16        2.0000           -0.4631493             -12.6029
        17        2.0000           -0.4543558             -12.3636
        18        2.0000           -0.4389375             -11.9441
        19        2.0000           -0.4288350             -11.6692
        20        2.0000           -0.4249135             -11.5625
        21        2.0000           -0.3974091             -10.8141 (HOMO)
        22                         -0.2538691              -6.9081 (LUMO)
        23                          0.0720446               1.9604
        24                          0.1004366               2.7330
        25                          0.1103960               3.0040
        26                          0.1290987               3.5130
       ...                                ...                  ...
        40                          0.5900486              16.0560
      -------------------------------------------------------------
                  HL-Gap            0.1435400 Eh            3.9059 eV
             Fermi-level           -0.3256391 Eh           -8.8611 eV

 SCC (total)                   0 d,  0 h,  0 min,  0.018 sec
 SCC setup                      ...        0 min,  0.002 sec ( 13.656%)
 Dispersion                     ...        0 min,  0.000 sec (  0.987%)
 classical contributions        ...        0 min,  0.000 sec (  0.246%)
 integral evaluation            ...        0 min,  0.001 sec (  7.916%)
 iterations                     ...        0 min,  0.009 sec ( 50.213%)
 molecular gradient             ...        0 min,  0.005 sec ( 26.010%)
 printout                       ...        0 min,  0.000 sec (  0.852%)

         :::::::::::::::::::::::::::::::::::::::::::::::::::::
         ::                     SUMMARY                     ::
         :::::::::::::::::::::::::::::::::::::::::::::::::::::
         :: total energy             -23.028575599622 Eh    ::
         :: total w/o Gsasa/hb       -23.030897294644 Eh    ::
         :: gradient norm              0.000041156167 Eh/a0 ::
         :: HOMO-LUMO gap              3.905921336329 eV    ::
         ::.................................................::
         :: SCC energy               -23.339107593274 Eh    ::
         :: -> isotropic ES            0.041578062393 Eh    ::
         :: -> anisotropic ES          0.002948257443 Eh    ::
         :: -> anisotropic XC          0.011350164278 Eh    ::
         :: -> dispersion             -0.010815478362 Eh    ::
         :: -> Gsolv                  -0.006176963115 Eh    ::
         ::    -> Gelec               -0.008498658137 Eh    ::
         ::    -> Gsasa                0.001435676713 Eh    ::
         ::    -> Ghb                 -0.002008530851 Eh    ::
         ::    -> Gshift               0.002894549160 Eh    ::
         :: repulsion energy           0.310531993652 Eh    ::
         :: add. restraining           0.000000000000 Eh    ::
         :: total charge               0.000000000000 e     ::
         :::::::::::::::::::::::::::::::::::::::::::::::::::::

           -------------------------------------------------
          |                Property Printout                |
           -------------------------------------------------

    * Orbital Energies and Occupations

         #    Occupation            Energy/Eh            Energy/eV
      -------------------------------------------------------------
         1        2.0000           -0.7146398             -19.4463
       ...           ...                  ...                  ...
         9        2.0000           -0.5333102             -14.5121
        10        2.0000           -0.5254637             -14.2986
        11        2.0000           -0.5045781             -13.7303
        12        2.0000           -0.4933282             -13.4241
        13        2.0000           -0.4849172             -13.1953
        14        2.0000           -0.4720793             -12.8459
        15        2.0000           -0.4672185             -12.7137
        16        2.0000           -0.4631493             -12.6029
        17        2.0000           -0.4543558             -12.3636
        18        2.0000           -0.4389375             -11.9441
        19        2.0000           -0.4288350             -11.6692
        20        2.0000           -0.4249135             -11.5625
        21        2.0000           -0.3974091             -10.8141 (HOMO)
        22                         -0.2538691              -6.9081 (LUMO)
        23                          0.0720446               1.9604
        24                          0.1004366               2.7330
        25                          0.1103960               3.0040
        26                          0.1290987               3.5130
        27                          0.1392632               3.7895
        28                          0.1443215               3.9272
        29                          0.1700181               4.6264
        30                          0.1764820               4.8023
        31                          0.1889599               5.1419
        32                          0.2048565               5.5744
       ...                                ...                  ...
        40                          0.5900486              16.0560
      -------------------------------------------------------------
                  HL-Gap            0.1435400 Eh            3.9059 eV
             Fermi-level           -0.3256391 Eh           -8.8611 eV

     #   Z          covCN         q      C6AA      α(0)
     1   6 C        3.751    -0.112    22.706     6.795
     2   6 C        3.800    -0.061    21.669     6.628
     3   6 C        3.802    -0.060    21.661     6.626
     4   6 C        3.804    -0.093    22.262     6.717
     5   6 C        2.811     0.250    22.802     7.823
     6   8 O        0.857    -0.446    22.631     6.378
     7   6 C        3.754    -0.159    23.633     6.932
     8   1 H        0.925     0.037     2.493     2.469
     9   1 H        0.925     0.039     2.465     2.455
    10   1 H        0.925     0.037     2.493     2.469
    11   1 H        0.924     0.040     2.445     2.445
    12   1 H        0.924     0.041     2.441     2.444
    13   1 H        0.925     0.051     2.306     2.375
    14   1 H        0.924     0.039     2.468     2.457
    15   1 H        0.924     0.077     2.008     2.216
    16   1 H        0.924     0.060     2.204     2.322
    17   1 H        0.925     0.099     1.795     2.095
    18   1 H        0.925     0.086     1.914     2.163
    19   1 H        0.925     0.076     2.025     2.225

 Mol. C6AA /au·bohr⁶  :       2607.653069
 Mol. C8AA /au·bohr⁸  :      55854.513908
 Mol. α(0) /au        :         76.035687


Wiberg/Mayer (AO) data.
largest (>0.10) Wiberg bond orders for each atom

 ---------------------------------------------------------------------------
     #   Z sym  total        # sym  WBO       # sym  WBO       # sym  WBO
 ---------------------------------------------------------------------------
     1   6 C    3.996 --     2 C    1.020    10 H    0.987     9 H    0.987
                             8 H    0.986
     2   6 C    3.997 --     1 C    1.020     3 C    1.006    11 H    0.977
                            12 H    0.977
     3   6 C    3.994 --     2 C    1.006     4 C    0.985    14 H    0.978
                            13 H    0.975
     4   6 C    3.994 --     5 C    1.000     3 C    0.985    16 H    0.972
                            15 H    0.944
     5   6 C    3.894 --     6 O    1.803     7 C    1.021     4 C    1.000
     6   8 O    2.006 --     5 C    1.803
     7   6 C    3.990 --     5 C    1.021    19 H    0.977    18 H    0.968
                            17 H    0.940
     8   1 H    0.999 --     1 C    0.986
     9   1 H    0.998 --     1 C    0.987
    10   1 H    0.999 --     1 C    0.987
    11   1 H    0.998 --     2 C    0.977
    12   1 H    0.998 --     2 C    0.977
    13   1 H    0.997 --     3 C    0.975
    14   1 H    0.999 --     3 C    0.978
    15   1 H    0.994 --     4 C    0.944
    16   1 H    0.996 --     4 C    0.972
    17   1 H    0.990 --     7 C    0.940
    18   1 H    0.993 --     7 C    0.968
    19   1 H    0.994 --     7 C    0.977
 ---------------------------------------------------------------------------

Topologies differ in total number of bonds
Writing topology from bond orders to xtbtopo.mol

molecular dipole:
                 x           y           z       tot (Debye)
 q only:        0.684       1.489       0.142
   full:        0.711       1.544       0.142       4.336
molecular quadrupole (traceless):
                xx          xy          yy          xz          yz          zz
 q only:       -0.837      -8.054      -1.674      -1.554      -0.014       2.511
  q+dip:       -1.692      -8.838      -2.157      -1.566      -0.670       3.848
   full:       -1.620      -8.948      -2.562      -1.273      -0.613       4.183


           -------------------------------------------------
          | TOTAL ENERGY              -23.028575599622 Eh   |
          | GRADIENT NORM               0.000041156167 Eh/α |
          | HOMO-LUMO GAP               3.905921336329 eV   |
           -------------------------------------------------

------------------------------------------------------------------------
 * finished run on 2025/04/11 at 16:09:19.277     
------------------------------------------------------------------------
 total:
 * wall-time:     0 d,  0 h,  0 min,  0.064 sec
 *  cpu-time:     0 d,  0 h,  0 min,  0.028 sec
 * ratio c/w:     0.439 speedup
 SCF:
 * wall-time:     0 d,  0 h,  0 min,  0.018 sec
 *  cpu-time:     0 d,  0 h,  0 min,  0.015 sec
 * ratio c/w:     0.814 speedup

