 Entering Gaussian System
 *********************************************
 Gaussian 98:
 frequency output generated by the xtb code
 *********************************************
                         Standard orientation:
 --------------------------------------------------------------------
  Center     Atomic     Atomic              Coordinates (Angstroms)
  Number     Number      Type              X           Y           Z
 --------------------------------------------------------------------
    1          6             0       -3.020368   -0.001160   -0.441944
    2          6             0       -2.178071    0.528182    0.712921
    3          6             0       -0.768308   -0.061239    0.752194
    4          6             0        0.087761    0.377312   -0.446682
    5          6             0        1.471567   -0.183435   -0.282625
    6          8             0        1.846156   -1.248476   -0.727862
    7          8             0        2.254580    0.597440    0.444650
    8          1             0       -2.617093    0.315488   -1.399827
    9          1             0       -3.051462   -1.088196   -0.422696
   10          1             0       -4.038276    0.372396   -0.364400
   11          1             0       -2.673342    0.280082    1.653700
   12          1             0       -2.112561    1.615691    0.648296
   13          1             0       -0.273154    0.263728    1.669714
   14          1             0       -0.826209   -1.151827    0.766464
   15          1             0        0.145495    1.464765   -0.475483
   16          1             0       -0.336486   -0.007883   -1.372106
   17          1             0        3.143996    0.218996    0.585976
 --------------------------------------------------------------------
     1 basis functions        1 primitive gaussians
     1 alpha electrons        1 beta electrons
 
 Harmonic frequencies (cm**-1), IR intensities (km*mol⁻¹),
 Raman scattering activities (A**4/amu), Raman depolarization ratios,
 reduced masses (AMU), force constants (mDyne/A) and normal coordinates:
                      1                      2                      3
                        a                      a                      a 
 Frequencies --    29.9991                50.9844               110.7897
 Red. masses --    11.8937                10.7067                 6.5775
 Frc consts  --     0.0000                 0.0000                 0.0000
 IR Inten    --     3.1858                 1.5254                 0.0339
 Raman Activ --     0.0000                 0.0000                 0.0000
 Depolar     --     0.0000                 0.0000                 0.0000
 Atom AN      X      Y      Z        X      Y      Z        X      Y      Z
   1   6    -0.04  -0.17   0.17    -0.05   0.41   0.03    -0.38  -0.04   0.25
   2   6     0.05   0.23  -0.08     0.07  -0.01   0.13     0.06   0.07  -0.13
   3   6     0.04   0.23   0.03    -0.02  -0.25  -0.05    -0.07  -0.26  -0.32
   4   6    -0.02  -0.16  -0.16    -0.11  -0.41  -0.17     0.13   0.12  -0.04
   5   6     0.01  -0.06  -0.05     0.02  -0.06  -0.02     0.10   0.05   0.03
   6   8     0.26   0.16  -0.39     0.39   0.01   0.11     0.08   0.01   0.12
   7   8    -0.27  -0.23   0.42    -0.28   0.24  -0.03     0.11   0.04   0.06
   8   1    -0.03  -0.15   0.01    -0.02   0.18   0.03    -0.06  -0.27   0.01
   9   1    -0.02  -0.05   0.17    -0.06   0.12  -0.08    -0.33  -0.00   0.27
  10   1    -0.01  -0.03   0.03     0.00   0.15   0.05    -0.03   0.21   0.02
  11   1     0.03   0.16   0.01     0.02  -0.04   0.03     0.06   0.13   0.02
  12   1     0.01   0.06  -0.13     0.07  -0.00   0.11     0.09   0.01  -0.13
  13   1     0.03   0.15  -0.03     0.04  -0.09  -0.03    -0.02  -0.22  -0.04
  14   1     0.01   0.07   0.11    -0.05  -0.07  -0.00    -0.08  -0.07  -0.23
  15   1    -0.01  -0.05  -0.15    -0.09  -0.12  -0.13     0.05   0.04   0.10
  16   1    -0.01  -0.13  -0.01    -0.01  -0.21  -0.02     0.08   0.13  -0.07
  17   1    -0.06  -0.04   0.12    -0.04   0.13   0.02     0.02  -0.00   0.04
                      4                      5                      6
                        a                      a                      a 
 Frequencies --   161.8730               227.1572               286.0756
 Red. masses --     9.2884                 5.8819                 6.8829
 Frc consts  --     0.0000                 0.0000                 0.0000
 IR Inten    --     0.0353                 0.1603                 0.0157
 Raman Activ --     0.0000                 0.0000                 0.0000
 Depolar     --     0.0000                 0.0000                 0.0000
 Atom AN      X      Y      Z        X      Y      Z        X      Y      Z
   1   6    -0.01   0.02  -0.15     0.37  -0.00  -0.06    -0.31   0.09  -0.05
   2   6    -0.15   0.13  -0.10     0.17  -0.09   0.10    -0.26  -0.31   0.12
   3   6    -0.24  -0.09   0.32     0.16  -0.06   0.04     0.05   0.33  -0.01
   4   6    -0.06  -0.23   0.40    -0.10   0.06  -0.09     0.09   0.02  -0.13
   5   6     0.06  -0.06   0.07    -0.15   0.06  -0.06     0.12  -0.01   0.00
   6   8     0.18   0.12  -0.27    -0.24  -0.00   0.04     0.14  -0.02   0.02
   7   8     0.21   0.05  -0.20    -0.26   0.05   0.03     0.21  -0.09   0.01
   8   1     0.13  -0.18  -0.05     0.38  -0.32  -0.01     0.04  -0.08   0.01
   9   1    -0.16   0.01   0.09    -0.23   0.01   0.19    -0.32   0.03   0.01
  10   1     0.04   0.16  -0.19     0.21   0.33  -0.29    -0.02   0.24  -0.09
  11   1    -0.12   0.13  -0.04     0.02  -0.05   0.01    -0.03  -0.29   0.01
  12   1     0.02   0.03  -0.10     0.06  -0.02   0.05    -0.21  -0.07   0.20
  13   1    -0.11  -0.02   0.11     0.08  -0.01  -0.01    -0.02   0.26  -0.04
  14   1    -0.11  -0.02   0.12     0.06  -0.02   0.00     0.14   0.09   0.13
  15   1    -0.02  -0.06   0.11    -0.05   0.02  -0.02     0.03   0.00  -0.14
  16   1    -0.02  -0.07   0.12    -0.04   0.00  -0.01     0.04  -0.08  -0.01
  17   1     0.10   0.07  -0.17    -0.08   0.00   0.06     0.04  -0.05  -0.00
                      7                      8                      9
                        a                      a                      a 
 Frequencies --   403.3007               427.4203               566.8945
 Red. masses --    10.4266                 8.3537                 9.8318
 Frc consts  --     0.0000                 0.0000                 0.0000
 IR Inten    --     4.0105                 4.9129                94.7049
 Raman Activ --     0.0000                 0.0000                 0.0000
 Depolar     --     0.0000                 0.0000                 0.0000
 Atom AN      X      Y      Z        X      Y      Z        X      Y      Z
   1   6     0.04  -0.02   0.01     0.27  -0.08   0.11    -0.01   0.00  -0.03
   2   6    -0.12   0.04   0.10    -0.29   0.21   0.33     0.00  -0.00  -0.01
   3   6    -0.06   0.14  -0.01    -0.34   0.05  -0.28    -0.02  -0.08   0.17
   4   6     0.13   0.25   0.15    -0.07  -0.04  -0.19    -0.28   0.12  -0.04
   5   6    -0.01  -0.30  -0.13     0.02   0.02   0.06    -0.14   0.20  -0.33
   6   8     0.41  -0.25  -0.03     0.11   0.06   0.04     0.37   0.13   0.30
   7   8    -0.42   0.04  -0.16     0.22  -0.09   0.00     0.12  -0.28  -0.15
   8   1     0.06  -0.02   0.02     0.22  -0.05   0.08    -0.02   0.00  -0.01
   9   1     0.02  -0.01   0.02     0.18  -0.02   0.09    -0.01   0.00  -0.01
  10   1     0.01  -0.01  -0.06     0.03  -0.11  -0.17     0.00   0.01   0.00
  11   1    -0.02  -0.05   0.02    -0.05  -0.05   0.08    -0.04   0.07  -0.01
  12   1    -0.09   0.02   0.07    -0.15   0.07   0.16     0.05  -0.01  -0.06
  13   1    -0.03  -0.02   0.02    -0.01  -0.15  -0.07     0.00   0.00   0.03
  14   1    -0.03   0.04  -0.06    -0.21   0.02  -0.20     0.02  -0.02   0.06
  15   1     0.25   0.07   0.25    -0.03  -0.01  -0.11    -0.11   0.04   0.06
  16   1    -0.06   0.34  -0.02     0.07  -0.06  -0.08    -0.17   0.09   0.01
  17   1    -0.07   0.13   0.04     0.05  -0.07  -0.06    -0.16  -0.45   0.17
                     10                     11                     12
                        a                      a                      a 
 Frequencies --   611.7063               709.6745               785.9427
 Red. masses --     5.1585                10.8387                 2.9219
 Frc consts  --     0.0000                 0.0000                 0.0000
 IR Inten    --   161.6710               128.3606                15.8735
 Raman Activ --     0.0000                 0.0000                 0.0000
 Depolar     --     0.0000                 0.0000                 0.0000
 Atom AN      X      Y      Z        X      Y      Z        X      Y      Z
   1   6     0.02   0.00  -0.00     0.04   0.00   0.03    -0.00  -0.01  -0.09
   2   6     0.11  -0.05  -0.05     0.12  -0.06  -0.05     0.15   0.12  -0.15
   3   6     0.06   0.02  -0.06     0.03   0.06  -0.15     0.11   0.17   0.10
   4   6    -0.16   0.11  -0.06    -0.06  -0.01  -0.00     0.04   0.05   0.18
   5   6    -0.26  -0.04   0.14    -0.37  -0.28   0.62    -0.05   0.02  -0.03
   6   8     0.18   0.14   0.16     0.10   0.24  -0.12     0.04   0.02   0.03
   7   8    -0.06  -0.27   0.08     0.06   0.05  -0.30    -0.08  -0.06  -0.06
   8   1    -0.02   0.00  -0.01    -0.02   0.00  -0.01    -0.21  -0.16  -0.16
   9   1    -0.02   0.00  -0.01    -0.01   0.00   0.00    -0.00  -0.00   0.18
  10   1     0.02   0.03   0.04     0.02   0.03   0.05     0.00  -0.02   0.13
  11   1     0.03   0.00  -0.01     0.06  -0.04  -0.01     0.01  -0.34  -0.15
  12   1     0.04  -0.02  -0.03     0.02  -0.01   0.00    -0.16   0.06   0.28
  13   1     0.04   0.04  -0.04     0.02   0.06  -0.06    -0.02  -0.33   0.18
  14   1     0.06   0.00  -0.00     0.04   0.02  -0.01    -0.15   0.05  -0.33
  15   1    -0.01   0.03   0.01     0.10  -0.01   0.01    -0.03   0.00  -0.24
  16   1    -0.04   0.06  -0.03     0.06   0.03  -0.05    -0.11  -0.24   0.20
  17   1     0.21   0.18  -0.76    -0.15  -0.26   0.21    -0.03  -0.04  -0.02
                     13                     14                     15
                        a                      a                      a 
 Frequencies --   825.6155               918.9506               928.7462
 Red. masses --     3.1295                 9.7486                 7.5153
 Frc consts  --     0.0000                 0.0000                 0.0000
 IR Inten    --     2.1603                 5.7334                 3.5203
 Raman Activ --     0.0000                 0.0000                 0.0000
 Depolar     --     0.0000                 0.0000                 0.0000
 Atom AN      X      Y      Z        X      Y      Z        X      Y      Z
   1   6    -0.08  -0.09  -0.02     0.12   0.02  -0.00     0.31  -0.05   0.25
   2   6    -0.10  -0.13   0.16     0.07  -0.07  -0.04     0.15  -0.22  -0.21
   3   6     0.10   0.10   0.12    -0.12   0.01   0.05    -0.34   0.23  -0.22
   4   6     0.06   0.24  -0.00    -0.52   0.28  -0.16    -0.03  -0.10   0.23
   5   6    -0.01  -0.07   0.08     0.10  -0.22   0.10     0.05   0.09  -0.13
   6   8     0.06  -0.03  -0.03     0.11  -0.27  -0.15    -0.01   0.00   0.04
   7   8    -0.05  -0.03  -0.06     0.27   0.15   0.16    -0.04  -0.03  -0.00
   8   1     0.15   0.18   0.13    -0.11  -0.04  -0.07     0.03   0.16   0.10
   9   1    -0.12  -0.02  -0.29    -0.03   0.01   0.06    -0.17  -0.01  -0.17
  10   1     0.01   0.07  -0.09     0.06   0.05   0.15     0.19   0.23   0.28
  11   1    -0.02   0.33   0.14    -0.09  -0.01  -0.06     0.15  -0.05   0.00
  12   1     0.05  -0.06  -0.33     0.07  -0.02   0.01    -0.13  -0.05  -0.16
  13   1     0.01  -0.25   0.14    -0.00   0.00  -0.00    -0.19   0.07  -0.01
  14   1     0.04   0.02  -0.30     0.03  -0.00  -0.03    -0.15   0.07  -0.02
  15   1     0.02   0.05  -0.35    -0.19   0.08  -0.08    -0.01  -0.03   0.03
  16   1    -0.03  -0.23   0.14    -0.22   0.07  -0.00     0.01  -0.04   0.06
  17   1    -0.00   0.02   0.02     0.13   0.26   0.19    -0.01  -0.02   0.00
                     16                     17                     18
                        a                      a                      a 
 Frequencies --   960.3397              1012.3455              1058.7806
 Red. masses --     5.2152                 6.4931                 5.8264
 Frc consts  --     0.0000                 0.0000                 0.0000
 IR Inten    --    20.7988                14.7093               195.1653
 Raman Activ --     0.0000                 0.0000                 0.0000
 Depolar     --     0.0000                 0.0000                 0.0000
 Atom AN      X      Y      Z        X      Y      Z        X      Y      Z
   1   6    -0.06  -0.20  -0.16    -0.25  -0.03  -0.01    -0.02   0.12   0.12
   2   6     0.06   0.13   0.12     0.15   0.09  -0.03    -0.03  -0.14  -0.12
   3   6     0.19   0.16   0.14     0.22   0.10  -0.33    -0.03   0.08  -0.02
   4   6    -0.11  -0.28  -0.17    -0.30  -0.06   0.37    -0.02  -0.17  -0.05
   5   6    -0.05  -0.02  -0.01     0.04  -0.01  -0.03    -0.14  -0.06  -0.12
   6   8    -0.05   0.01  -0.01     0.03  -0.05  -0.00    -0.03  -0.08  -0.05
   7   8     0.14   0.14   0.12     0.04  -0.03   0.01     0.16   0.34   0.26
   8   1    -0.05   0.08  -0.02     0.22   0.06   0.13     0.09  -0.01   0.06
   9   1    -0.22  -0.05  -0.24     0.08  -0.01  -0.08     0.13   0.03   0.11
  10   1     0.05   0.13   0.07    -0.12  -0.11  -0.34    -0.05  -0.08  -0.13
  11   1     0.06  -0.01   0.04     0.35  -0.07   0.13     0.03   0.01  -0.00
  12   1    -0.27   0.04  -0.07    -0.06   0.03   0.04     0.13  -0.04  -0.01
  13   1     0.31  -0.21  -0.01     0.04   0.05  -0.08    -0.19  -0.02   0.10
  14   1    -0.31   0.06  -0.06     0.04   0.03  -0.04     0.15   0.01  -0.15
  15   1     0.13  -0.07   0.25    -0.22  -0.01   0.11     0.40  -0.07  -0.06
  16   1    -0.13   0.23  -0.12    -0.14  -0.05   0.14    -0.37   0.08   0.11
  17   1     0.01  -0.05  -0.03     0.04   0.09   0.08    -0.08  -0.30  -0.20
                     19                     20                     21
                        a                      a                      a 
 Frequencies --  1110.5979              1122.5096              1128.2289
 Red. masses --     7.0167                 7.4414                 6.5025
 Frc consts  --     0.0000                 0.0000                 0.0000
 IR Inten    --    16.3924                65.0871                50.9808
 Raman Activ --     0.0000                 0.0000                 0.0000
 Depolar     --     0.0000                 0.0000                 0.0000
 Atom AN      X      Y      Z        X      Y      Z        X      Y      Z
   1   6     0.04  -0.04  -0.31    -0.13  -0.17  -0.21    -0.17  -0.03  -0.06
   2   6     0.03  -0.07   0.41     0.34   0.08   0.21     0.35  -0.10   0.03
   3   6    -0.07   0.20  -0.29    -0.29  -0.03   0.04    -0.30   0.11   0.21
   4   6    -0.11  -0.18   0.26     0.09   0.22  -0.00     0.02  -0.06  -0.21
   5   6     0.06   0.07  -0.07     0.00  -0.07  -0.02    -0.05   0.06  -0.02
   6   8    -0.03   0.06   0.05     0.05  -0.20  -0.10    -0.04   0.18   0.09
   7   8    -0.02  -0.06  -0.02    -0.03   0.25   0.12     0.05  -0.22  -0.10
   8   1    -0.25  -0.13  -0.23    -0.03  -0.01  -0.05     0.08  -0.01   0.03
   9   1    -0.07  -0.01   0.07    -0.09  -0.04  -0.13     0.05  -0.01  -0.03
  10   1     0.03  -0.00   0.15    -0.02   0.00  -0.04    -0.08  -0.07  -0.17
  11   1    -0.14   0.19   0.08     0.20  -0.03   0.10     0.19  -0.05   0.06
  12   1     0.32  -0.04   0.01     0.16   0.02   0.15     0.22  -0.03   0.11
  13   1     0.10   0.05  -0.14    -0.07   0.09  -0.02    -0.16  -0.03   0.12
  14   1     0.19   0.04  -0.14    -0.16   0.00   0.16    -0.17   0.03   0.02
  15   1     0.18  -0.06  -0.01    -0.16   0.06  -0.09     0.30  -0.03  -0.07
  16   1    -0.04   0.00   0.05     0.16  -0.08  -0.01    -0.06   0.09  -0.07
  17   1     0.01   0.03   0.04    -0.13  -0.35  -0.24     0.14   0.35   0.23
                     22                     23                     24
                        a                      a                      a 
 Frequencies --  1182.6758              1237.9073              1244.1915
 Red. masses --     5.7766                 5.2085                 5.7625
 Frc consts  --     0.0000                 0.0000                 0.0000
 IR Inten    --    18.4249                61.2054               125.9052
 Raman Activ --     0.0000                 0.0000                 0.0000
 Depolar     --     0.0000                 0.0000                 0.0000
 Atom AN      X      Y      Z        X      Y      Z        X      Y      Z
   1   6    -0.07   0.24   0.04    -0.06  -0.06   0.10    -0.06  -0.22   0.12
   2   6     0.08  -0.39  -0.06     0.03   0.06  -0.14     0.05   0.19  -0.10
   3   6    -0.02   0.35   0.13    -0.04  -0.02   0.07    -0.01   0.09   0.07
   4   6    -0.11  -0.08  -0.01    -0.19   0.04   0.25    -0.20  -0.12  -0.06
   5   6     0.15   0.03   0.05    -0.31  -0.05  -0.27     0.38   0.11   0.19
   6   8     0.01  -0.07  -0.03     0.05  -0.05   0.01    -0.04  -0.01  -0.02
   7   8    -0.08   0.02  -0.02     0.14   0.09   0.12    -0.15  -0.06  -0.09
   8   1     0.05  -0.10  -0.01     0.10   0.06   0.10     0.10   0.14   0.14
   9   1     0.20   0.05   0.20    -0.00  -0.01  -0.07    -0.10  -0.05  -0.21
  10   1    -0.09  -0.14  -0.09    -0.00   0.02  -0.02     0.03   0.09  -0.03
  11   1    -0.07   0.08  -0.02    -0.15  -0.08  -0.14    -0.23  -0.08  -0.18
  12   1     0.10  -0.11  -0.16     0.06   0.02   0.09     0.26   0.05   0.27
  13   1     0.16  -0.16   0.03     0.31  -0.01  -0.15    -0.13  -0.02   0.10
  14   1    -0.20   0.10  -0.15     0.08  -0.01  -0.04     0.30   0.00  -0.22
  15   1    -0.24  -0.00   0.16     0.30  -0.01  -0.20    -0.01  -0.03   0.06
  16   1     0.31   0.06  -0.19     0.50  -0.08  -0.16     0.05   0.13  -0.13
  17   1    -0.06  -0.14  -0.09     0.04   0.07   0.07    -0.06  -0.13  -0.10
                     25                     26                     27
                        a                      a                      a 
 Frequencies --  1267.9342              1278.5900              1343.1335
 Red. masses --     4.5607                 3.7919                 4.1567
 Frc consts  --     0.0000                 0.0000                 0.0000
 IR Inten    --   114.6344                63.2221                16.8411
 Raman Activ --     0.0000                 0.0000                 0.0000
 Depolar     --     0.0000                 0.0000                 0.0000
 Atom AN      X      Y      Z        X      Y      Z        X      Y      Z
   1   6     0.03  -0.04  -0.07     0.05   0.10  -0.13     0.04  -0.03  -0.04
   2   6    -0.06   0.08   0.06    -0.02   0.06   0.03    -0.23   0.01  -0.22
   3   6     0.05   0.12   0.06    -0.02  -0.14   0.14    -0.31   0.04   0.22
   4   6     0.12  -0.14  -0.09    -0.31  -0.00   0.02     0.17  -0.01  -0.04
   5   6    -0.38  -0.09  -0.18     0.24   0.08   0.07     0.01   0.00   0.03
   6   8     0.05  -0.02   0.00    -0.02  -0.03  -0.01    -0.00   0.01  -0.00
   7   8     0.15   0.06   0.09    -0.08  -0.02  -0.04    -0.01  -0.01  -0.02
   8   1    -0.04   0.00  -0.03    -0.08  -0.08  -0.10     0.03   0.06   0.03
   9   1    -0.04  -0.01  -0.00     0.03   0.03   0.10     0.03  -0.00   0.08
  10   1     0.03   0.03   0.07     0.00  -0.02   0.06     0.05   0.07   0.10
  11   1     0.13   0.04   0.09     0.41  -0.01   0.22     0.40  -0.05   0.18
  12   1     0.03   0.02   0.05    -0.37   0.02  -0.17     0.19  -0.00   0.11
  13   1    -0.38  -0.04   0.25    -0.14   0.01   0.10     0.49  -0.07  -0.22
  14   1     0.32   0.01  -0.24     0.25  -0.05  -0.08     0.28  -0.01  -0.15
  15   1    -0.32  -0.02   0.28     0.28  -0.02  -0.17    -0.12   0.01   0.06
  16   1     0.25  -0.02  -0.13     0.25   0.09  -0.19    -0.15  -0.00   0.08
  17   1     0.06   0.12   0.08    -0.04  -0.08  -0.05    -0.00   0.00   0.01
                     28                     29                     30
                        a                      a                      a 
 Frequencies --  1347.3826              1412.5800              1438.4073
 Red. masses --     4.9229                 3.2205                 2.2669
 Frc consts  --     0.0000                 0.0000                 0.0000
 IR Inten    --     3.8687                 2.6729                 7.9952
 Raman Activ --     0.0000                 0.0000                 0.0000
 Depolar     --     0.0000                 0.0000                 0.0000
 Atom AN      X      Y      Z        X      Y      Z        X      Y      Z
   1   6     0.09  -0.07  -0.05     0.26   0.14   0.31     0.04   0.02   0.03
   2   6    -0.42  -0.02  -0.14    -0.11   0.01  -0.05    -0.00   0.01  -0.01
   3   6     0.34   0.03  -0.06     0.00   0.00   0.05    -0.02   0.01   0.01
   4   6    -0.15   0.04   0.03     0.02  -0.02   0.03    -0.16   0.17  -0.21
   5   6     0.03   0.01  -0.00    -0.01  -0.00  -0.00     0.07   0.06   0.03
   6   8     0.00  -0.01  -0.00     0.00  -0.00   0.00     0.01  -0.04  -0.02
   7   8    -0.00   0.00   0.00     0.00   0.00   0.00    -0.02  -0.01  -0.01
   8   1     0.01   0.07   0.02    -0.37  -0.23  -0.22    -0.04  -0.01  -0.02
   9   1    -0.04  -0.01   0.07    -0.32   0.01  -0.40    -0.09   0.00  -0.03
  10   1     0.06   0.07   0.15    -0.11  -0.26  -0.40    -0.03  -0.08  -0.05
  11   1     0.26   0.03   0.17     0.11  -0.07   0.03     0.02  -0.03  -0.00
  12   1     0.45  -0.02   0.21     0.12  -0.01  -0.01     0.03  -0.00  -0.01
  13   1    -0.14  -0.05   0.13     0.04   0.02  -0.02     0.02  -0.00  -0.01
  14   1    -0.39   0.03   0.17    -0.02   0.00  -0.05     0.01   0.00  -0.01
  15   1     0.10   0.00  -0.07    -0.05  -0.00  -0.08     0.31   0.02   0.58
  16   1     0.12   0.01  -0.07     0.02   0.09  -0.04     0.09  -0.62   0.19
  17   1    -0.00  -0.01  -0.01     0.00   0.00   0.00    -0.01  -0.01  -0.01
                     31                     32                     33
                        a                      a                      a 
 Frequencies --  1478.2575              1485.5491              1499.5847
 Red. masses --     1.8743                 1.9190                 1.5961
 Frc consts  --     0.0000                 0.0000                 0.0000
 IR Inten    --     0.6969                 0.8493                 1.0161
 Raman Activ --     0.0000                 0.0000                 0.0000
 Depolar     --     0.0000                 0.0000                 0.0000
 Atom AN      X      Y      Z        X      Y      Z        X      Y      Z
   1   6    -0.02  -0.01   0.03    -0.00  -0.02  -0.06     0.16   0.02  -0.13
   2   6    -0.04   0.10   0.09    -0.06   0.16   0.18     0.07  -0.01  -0.04
   3   6    -0.09   0.15  -0.17     0.04  -0.07   0.10    -0.04   0.04  -0.04
   4   6    -0.01   0.01  -0.01     0.02  -0.01   0.00     0.01  -0.01   0.01
   5   6    -0.00   0.00  -0.00    -0.00   0.00   0.00     0.00  -0.00  -0.00
   6   8     0.00  -0.00  -0.00     0.00  -0.00  -0.00    -0.00   0.00   0.00
   7   8     0.00   0.00   0.00    -0.00  -0.00  -0.00    -0.00   0.00  -0.00
   8   1    -0.03  -0.02  -0.02     0.04   0.13   0.06     0.10   0.36   0.15
   9   1     0.08  -0.00  -0.04    -0.07   0.00   0.14    -0.59   0.03   0.36
  10   1     0.02   0.08  -0.03    -0.02  -0.04   0.03    -0.16  -0.48   0.03
  11   1     0.02  -0.33  -0.08     0.03  -0.56  -0.12    -0.04   0.06  -0.02
  12   1     0.15  -0.02  -0.30     0.26  -0.04  -0.52    -0.05   0.01   0.06
  13   1     0.04  -0.55   0.17    -0.04   0.30  -0.08     0.02  -0.13   0.03
  14   1     0.27  -0.00   0.52    -0.15   0.00  -0.28     0.07   0.00   0.12
  15   1     0.00   0.00  -0.01    -0.03   0.00  -0.01    -0.02  -0.00  -0.04
  16   1     0.02   0.01  -0.01    -0.01   0.02  -0.00    -0.01   0.05  -0.02
  17   1    -0.00  -0.00   0.00     0.00   0.00  -0.00    -0.00  -0.00   0.00
                     34                     35                     36
                        a                      a                      a 
 Frequencies --  1505.1749              1707.1721              2968.9462
 Red. masses --     1.5452                13.2462                 1.9425
 Frc consts  --     0.0000                 0.0000                 0.0000
 IR Inten    --     1.4619               751.5841                25.7002
 Raman Activ --     0.0000                 0.0000                 0.0000
 Depolar     --     0.0000                 0.0000                 0.0000
 Atom AN      X      Y      Z        X      Y      Z        X      Y      Z
   1   6    -0.07   0.19  -0.05    -0.00  -0.00  -0.00    -0.01  -0.00   0.01
   2   6    -0.03   0.06  -0.00    -0.00  -0.00   0.00     0.04   0.11  -0.07
   3   6     0.00  -0.00  -0.00     0.01   0.00  -0.02    -0.07  -0.22  -0.12
   4   6     0.01  -0.00  -0.01     0.06  -0.06   0.01     0.01   0.02   0.01
   5   6     0.00  -0.00   0.00    -0.29   0.69   0.27     0.00   0.00   0.00
   6   8    -0.00   0.00   0.00     0.19  -0.51  -0.21    -0.00   0.00   0.00
   7   8     0.00  -0.00   0.00    -0.00  -0.06  -0.03     0.00  -0.00   0.00
   8   1     0.47  -0.49   0.04     0.00   0.00   0.00     0.01   0.01  -0.03
   9   1    -0.11   0.01  -0.34    -0.00   0.00   0.00     0.00   0.02   0.00
  10   1    -0.09  -0.32   0.49     0.00  -0.00   0.00     0.01  -0.01  -0.00
  11   1     0.01  -0.05  -0.01    -0.01   0.01  -0.00    -0.12  -0.05   0.22
  12   1     0.05   0.01  -0.01     0.00  -0.00   0.00    -0.02  -0.39   0.02
  13   1    -0.00  -0.01   0.00     0.00   0.00  -0.00     0.23   0.13   0.42
  14   1     0.02  -0.00   0.00    -0.01   0.00   0.01     0.03   0.66  -0.02
  15   1    -0.00  -0.00   0.00     0.05  -0.01  -0.02    -0.00  -0.07   0.00
  16   1    -0.04   0.01   0.01    -0.04   0.05   0.01    -0.02  -0.02  -0.05
  17   1     0.00   0.00   0.00     0.03   0.06   0.04    -0.00   0.00   0.00
                     37                     38                     39
                        a                      a                      a 
 Frequencies --  2971.9778              2983.7586              2988.3472
 Red. masses --     1.9124                 1.5511                 1.5109
 Frc consts  --     0.0000                 0.0000                 0.0000
 IR Inten    --    50.8130                70.2890                69.3606
 Raman Activ --     0.0000                 0.0000                 0.0000
 Depolar     --     0.0000                 0.0000                 0.0000
 Atom AN      X      Y      Z        X      Y      Z        X      Y      Z
   1   6     0.01   0.01  -0.01    -0.00   0.01  -0.00    -0.02   0.02   0.00
   2   6    -0.10  -0.15   0.17    -0.01  -0.11   0.02     0.06  -0.14  -0.12
   3   6    -0.06  -0.08  -0.11     0.06  -0.13   0.12    -0.03  -0.01  -0.07
   4   6     0.00   0.02   0.00    -0.01   0.02  -0.01     0.00   0.00   0.01
   5   6     0.00   0.00   0.00     0.00  -0.00   0.00    -0.00   0.00  -0.00
   6   8    -0.00   0.00  -0.00    -0.00   0.00   0.00     0.00  -0.00  -0.00
   7   8    -0.00   0.00   0.00     0.00  -0.00  -0.00    -0.00   0.00   0.00
   8   1    -0.02  -0.01   0.05    -0.01  -0.00   0.01     0.01   0.01  -0.02
   9   1     0.00  -0.05  -0.00    -0.00  -0.04   0.00    -0.01  -0.05   0.00
  10   1    -0.01   0.01  -0.00     0.01  -0.00  -0.00     0.07  -0.03  -0.01
  11   1     0.33   0.16  -0.62     0.03  -0.00  -0.05    -0.26  -0.17   0.50
  12   1     0.01   0.37  -0.00     0.03   0.38  -0.03     0.06   0.69  -0.07
  13   1     0.22   0.15   0.41    -0.25  -0.20  -0.47     0.15   0.10   0.27
  14   1    -0.00   0.12  -0.02     0.05   0.68   0.02    -0.01  -0.08  -0.01
  15   1    -0.00  -0.05   0.00    -0.01  -0.12   0.00     0.00  -0.00   0.00
  16   1    -0.01  -0.01  -0.03     0.02   0.02   0.05    -0.01  -0.01  -0.03
  17   1     0.00  -0.00   0.00    -0.00   0.00  -0.00     0.00  -0.00   0.00
                     40                     41                     42
                        a                      a                      a 
 Frequencies --  3006.8331              3022.9072              3030.3242
 Red. masses --     1.6315                 1.8746                 1.8793
 Frc consts  --     0.0000                 0.0000                 0.0000
 IR Inten    --    27.7801                28.4881                81.8936
 Raman Activ --     0.0000                 0.0000                 0.0000
 Depolar     --     0.0000                 0.0000                 0.0000
 Atom AN      X      Y      Z        X      Y      Z        X      Y      Z
   1   6    -0.00  -0.01   0.00     0.02   0.01  -0.02    -0.06   0.27  -0.02
   2   6     0.00   0.01  -0.01     0.00   0.00   0.00     0.00   0.03  -0.00
   3   6     0.00   0.04  -0.01     0.01   0.02   0.03     0.00   0.01   0.00
   4   6    -0.01   0.23  -0.05     0.10   0.15   0.21    -0.00   0.00  -0.00
   5   6    -0.00   0.01   0.00     0.00   0.01   0.01     0.00   0.00  -0.00
   6   8    -0.00  -0.00  -0.00    -0.00  -0.00  -0.00    -0.00  -0.00  -0.00
   7   8     0.00  -0.00  -0.00    -0.00  -0.00  -0.00     0.00  -0.00   0.00
   8   1     0.01   0.01  -0.01    -0.03  -0.03   0.07    -0.05   0.01   0.08
   9   1    -0.00   0.02   0.00     0.00  -0.01  -0.00    -0.03  -0.91   0.03
  10   1     0.00  -0.00   0.00    -0.02   0.01  -0.00     0.28  -0.07  -0.03
  11   1    -0.01  -0.00   0.02     0.00   0.00  -0.00    -0.00   0.00   0.00
  12   1    -0.00  -0.04   0.00     0.00  -0.00   0.00    -0.01  -0.09   0.01
  13   1     0.01   0.01   0.02    -0.04  -0.03  -0.07    -0.01  -0.00  -0.01
  14   1    -0.01  -0.13  -0.00    -0.00  -0.03   0.00     0.00  -0.02   0.00
  15   1    -0.05  -0.93   0.01     0.00  -0.20   0.03    -0.00  -0.01  -0.00
  16   1     0.09   0.11   0.18    -0.37  -0.33  -0.78     0.01   0.01   0.01
  17   1    -0.01   0.00  -0.00     0.00   0.00   0.00    -0.00   0.00  -0.00
                     43                     44                     45
                        a                      a                      a 
 Frequencies --  3036.5544              3047.9276              3340.4624
 Red. masses --     1.8967                 1.3685                 1.8505
 Frc consts  --     0.0000                 0.0000                 0.0000
 IR Inten    --    75.0586                46.5844               182.3060
 Raman Activ --     0.0000                 0.0000                 0.0000
 Depolar     --     0.0000                 0.0000                 0.0000
 Atom AN      X      Y      Z        X      Y      Z        X      Y      Z
   1   6     0.24   0.02  -0.14    -0.04   0.05  -0.17     0.00   0.00  -0.00
   2   6     0.02   0.00  -0.02     0.00   0.01  -0.01     0.00   0.00   0.00
   3   6    -0.00  -0.00  -0.01     0.00  -0.00  -0.00     0.00  -0.00   0.00
   4   6    -0.01  -0.01  -0.02    -0.01  -0.01  -0.01     0.00   0.00  -0.00
   5   6    -0.00  -0.00  -0.00     0.00  -0.00  -0.00    -0.01  -0.01  -0.01
   6   8     0.00  -0.00   0.00    -0.00   0.00   0.00    -0.00   0.00   0.00
   7   8     0.00   0.00   0.00     0.00  -0.00  -0.00    -0.21   0.10  -0.03
   8   1    -0.18  -0.16   0.46    -0.32  -0.24   0.70    -0.00  -0.00   0.00
   9   1     0.03  -0.20  -0.02     0.00   0.25  -0.03    -0.00   0.00  -0.00
  10   1    -0.72   0.29   0.05     0.47  -0.17  -0.07    -0.00  -0.00  -0.00
  11   1    -0.04  -0.02   0.07    -0.01  -0.01   0.02     0.00   0.00  -0.00
  12   1     0.00   0.01  -0.00    -0.00  -0.02   0.00    -0.00  -0.00   0.00
  13   1     0.01   0.01   0.02     0.00   0.00   0.00    -0.00  -0.00  -0.00
  14   1     0.00   0.00  -0.00     0.00   0.00  -0.00    -0.00   0.00  -0.00
  15   1    -0.00  -0.00  -0.00    -0.00   0.00  -0.00     0.00  -0.01   0.00
  16   1     0.03   0.02   0.06     0.02   0.02   0.05    -0.00   0.00   0.00
  17   1    -0.00   0.00  -0.00    -0.00   0.00  -0.00     0.89  -0.37   0.15
