      -----------------------------------------------------------      
     |                   =====================                   |     
     |                           x T B                           |     
     |                   =====================                   |     
     |                         S. Grimme                         |     
     |          Mulliken Center for Theoretical Chemistry        |     
     |                    University of Bonn                     |     
      -----------------------------------------------------------      

   * xtb version 6.7.1 (edcfbbe) compiled by 'albert@albert-system' on 2024-07-22

   xtb is free software: you can redistribute it and/or modify it under
   the terms of the GNU Lesser General Public License as published by
   the Free Software Foundation, either version 3 of the License, or
   (at your option) any later version.
   
   xtb is distributed in the hope that it will be useful,
   but WITHOUT ANY WARRANTY; without even the implied warranty of
   MERCHANTABILITY or FITNESS FOR A PARTICULAR PURPOSE.  See the
   GNU Lesser General Public License for more details.
   
   Cite this work as:
   * C. Bannwarth, E. Caldeweyher, S. Ehlert, A. Hansen, P. Pracht,
     J. Seibert, S. Spicher, S. Grimme, WIREs Comput. Mol. Sci., 2020, 11,
     e01493. DOI: 10.1002/wcms.1493
   
   for GFN2-xTB:
   * C. Bannwarth, S. Ehlert and S. Grimme., J. Chem. Theory Comput., 2019,
     15, 1652-1671. DOI: 10.1021/acs.jctc.8b01176
   for GFN1-xTB:
   * S. Grimme, C. Bannwarth, P. Shushkov, J. Chem. Theory Comput., 2017,
     13, 1989-2009. DOI: 10.1021/acs.jctc.7b00118
   for GFN0-xTB:
   * P. Pracht, E. Caldeweyher, S. Ehlert, S. Grimme, ChemRxiv, 2019, preprint.
     DOI: 10.26434/chemrxiv.8326202.v1
   for GFN-FF:
   * S. Spicher and S. Grimme, Angew. Chem. Int. Ed., 2020, 59, 15665-15673.
     DOI: 10.1002/anie.202004239
   
   for ALPB and GBSA implicit solvation:
   * S. Ehlert, M. Stahn, S. Spicher, S. Grimme, J. Chem. Theory Comput.,
     2021, 17, 4250-4261. DOI: 10.1021/acs.jctc.1c00471
   
   for ddCOSMO and CPCM-X implicit solvation:
   * M. Stahn, S. Ehlert, S. Grimme, J. Phys. Chem. A,
     2023, XX, XXXX-XXXX. DOI: 10.1021/acs.jpca.3c04382
   
   for DFT-D4:
   * E. Caldeweyher, C. Bannwarth and S. Grimme, J. Chem. Phys., 2017,
     147, 034112. DOI: 10.1063/1.4993215
   * E. Caldeweyher, S. Ehlert, A. Hansen, H. Neugebauer, S. Spicher,
     C. Bannwarth and S. Grimme, J. Chem. Phys., 2019, 150, 154122.
     DOI: 10.1063/1.5090222
   * E. Caldeweyher, J.-M. Mewes, S. Ehlert and S. Grimme, Phys. Chem. Chem. Phys.
     2020, 22, 8499-8512. DOI: 10.1039/D0CP00502A
   
   for sTDA-xTB:
   * S. Grimme and C. Bannwarth, J. Chem. Phys., 2016, 145, 054103.
     DOI: 10.1063/1.4959605
   
   in the mass-spec context:
   * V. Asgeirsson, C. Bauer and S. Grimme, Chem. Sci., 2017, 8, 4879.
     DOI: 10.1039/c7sc00601b
   * J. Koopman and S. Grimme, ACS Omega 2019, 4, 12, 15120-15133.
     DOI: 10.1021/acsomega.9b02011
   
   for metadynamics refer to:
   * S. Grimme, J. Chem. Theory Comput., 2019, 155, 2847-2862
     DOI: 10.1021/acs.jctc.9b00143
   
   for SPH calculations refer to:
   * S. Spicher and S. Grimme, J. Chem. Theory Comput., 2021, 17, 1701-1714
     DOI: 10.1021/acs.jctc.0c01306
   
   for ONIOM refer to:
   * C. Plett, A. Katbashev, S. Ehlert, S. Grimme, M. Bursch,
     Phys. Chem. Chem. Phys., 2023, 25, 17860-17868. DOI: 10.1039/D3CP02178E
   
   for DIPRO refer to:
   * J. Kohn, N. Gildemeister, S. Grimme, D. Fazzi, A. Hansen,
     J. Chem. Phys., 2023, just accepted.
   
   for PTB refer to:
   * S. Grimme, M. Mueller, A. Hansen, J. Chem. Phys., 2023, 158, 124111.
     DOI: 10.1063/5.0137838
   
   with help from (in alphabetical order)
   P. Atkinson, C. Bannwarth, F. Bohle, G. Brandenburg, E. Caldeweyher
   M. Checinski, S. Dohm, S. Ehlert, S. Ehrlich, I. Gerasimov, C. Hölzer
   A. Katbashev, J. Kohn, J. Koopman, C. Lavigne, S. Lehtola, F. März, M. Müller,
   F. Musil, H. Neugebauer, J. Pisarek, C. Plett, P. Pracht, F. Pultar,
   J. Seibert, P. Shushkov, S. Spicher, M. Stahn, M. Steiner, T. Strunk,
   J. Stückrath, T. Rose, and J. Unsleber
   
 * started run on 2025/04/11 at 16:20:40.710     
   ID    Z sym.   atoms
    1    6 C      1-5
    2    8 O      6, 7
    3    1 H      8-17

           -------------------------------------------------
          |                Calculation Setup                |
           -------------------------------------------------

          program call               : /srv/scratch/z5358697/.xtb/bin/xtb xtb_rrho.coord --gfn2 --bhess vtight --chrg 0 --enso --norestart -I rrho-xcontrol-inp --parallel 1 --alpb water
          hostname                   : k018
          coordinate file            : xtb_rrho.coord
          omp threads                :                     1


           -------------------------------------------------
          |                 G F N 2 - x T B                 |
           -------------------------------------------------

        Reference                      10.1021/acs.jctc.8b01176
      * Hamiltonian:
        H0-scaling (s, p, d)           1.850000    2.230000    2.230000
        zeta-weighting                 0.500000
      * Dispersion:
        s8                             2.700000
        a1                             0.520000
        a2                             5.000000
        s9                             5.000000
      * Repulsion:
        kExp                           1.500000    1.000000
        rExp                           1.000000
      * Coulomb:
        alpha                          2.000000
        third order                    shell-resolved
        anisotropic                    true
        a3                             3.000000
        a5                             4.000000
        cn-shift                       1.200000
        cn-exp                         4.000000
        max-rad                        5.000000

      * Solvation model:               ALPB
        Solvent                        water
        Parameter file                 internal GFN2-xTB/ALPB
        Dielectric constant                8.0200E+01
        Reference state                gsolv [1 M gas/solution]
        Free energy shift                  1.0808E-03 Eh       6.7819E-01 kcal/mol
        Temperature                        2.9815E+02 K
        Density                            1.0000E+00 kg/L
        Solvent mass                       1.8000E+01 g/mol
        Interaction kernel             P16
        Born radius scaling (c1)           1.4744E+00
        Born radii integrator          GBOBC
        Born offset                        0.0000E+00 a0       0.0000E+00 AA
        H-bond correction              true
        Ion screening                  false
        Surface tension                    1.0000E-05 Eh       1.5569E+01 dyn/cm
        Grid points                               974 per atom

          ...................................................
          :                      SETUP                      :
          :.................................................:
          :  # basis functions                  38          :
          :  # atomic orbitals                  38          :
          :  # shells                           24          :
          :  # electrons                        42          :
          :  max. iterations                   250          :
          :  Hamiltonian                  GFN2-xTB          :
          :  restarted?                      false          :
          :  GBSA solvation                   true          :
          :  PC potential                    false          :
          :  electronic temp.          300.0000000     K    :
          :  accuracy                    1.0000000          :
          :  -> integral cutoff          0.2500000E+02      :
          :  -> integral neglect         0.1000000E-07      :
          :  -> SCF convergence          0.1000000E-05 Eh   :
          :  -> wf. convergence          0.1000000E-03 e    :
          :  Broyden damping             0.4000000          :
          :  net charge                          0          :
          :  unpaired electrons                  0          :
          ...................................................

 iter      E             dE          RMSdq      gap      omega  full diag
   1    -24.1673897 -0.241674E+02  0.389E+00    5.42       0.0  T
   2    -24.2198511 -0.524614E-01  0.190E+00    4.62       1.0  T
   3    -24.2217955 -0.194437E-02  0.102E+00    4.94       1.0  T
   4    -24.2232021 -0.140660E-02  0.165E-01    4.71       1.0  T
   5    -24.2233615 -0.159402E-03  0.744E-02    4.76       1.0  T
   6    -24.2233635 -0.196350E-05  0.198E-02    4.75       1.2  T
   7    -24.2233644 -0.925020E-06  0.498E-03    4.75       4.9  T
   8    -24.2233644 -0.261188E-07  0.268E-03    4.75       9.0  T
   9    -24.2233644 -0.778771E-08  0.395E-04    4.75      61.3  T
  10    -24.2233644 -0.759471E-09  0.140E-04    4.75     173.8  T

   *** convergence criteria satisfied after 10 iterations ***

         #    Occupation            Energy/Eh            Energy/eV
      -------------------------------------------------------------
         1        2.0000           -0.7431261             -20.2215
       ...           ...                  ...                  ...
        15        2.0000           -0.4793387             -13.0435
        16        2.0000           -0.4744321             -12.9100
        17        2.0000           -0.4572488             -12.4424
        18        2.0000           -0.4435388             -12.0693
        19        2.0000           -0.4322686             -11.7626
        20        2.0000           -0.4267249             -11.6118
        21        2.0000           -0.4233257             -11.5193 (HOMO)
        22                         -0.2486939              -6.7673 (LUMO)
        23                          0.0627076               1.7064
        24                          0.0895809               2.4376
        25                          0.1025118               2.7895
        26                          0.1188815               3.2349
       ...                                ...                  ...
        38                          0.5764026              15.6847
      -------------------------------------------------------------
                  HL-Gap            0.1746318 Eh            4.7520 eV
             Fermi-level           -0.3360098 Eh           -9.1433 eV

 SCC (total)                   0 d,  0 h,  0 min,  0.027 sec
 SCC setup                      ...        0 min,  0.001 sec (  3.822%)
 Dispersion                     ...        0 min,  0.000 sec (  0.324%)
 classical contributions        ...        0 min,  0.000 sec (  0.079%)
 integral evaluation            ...        0 min,  0.001 sec (  4.644%)
 iterations                     ...        0 min,  0.021 sec ( 76.458%)
 molecular gradient             ...        0 min,  0.004 sec ( 13.983%)
 printout                       ...        0 min,  0.000 sec (  0.633%)

         :::::::::::::::::::::::::::::::::::::::::::::::::::::
         ::                     SUMMARY                     ::
         :::::::::::::::::::::::::::::::::::::::::::::::::::::
         :: total energy             -23.961945836322 Eh    ::
         :: total w/o Gsasa/hb       -23.956554695757 Eh    ::
         :: gradient norm              0.036615188678 Eh/a0 ::
         :: HOMO-LUMO gap              4.751972390068 eV    ::
         ::.................................................::
         :: SCC energy               -24.223353960073 Eh    ::
         :: -> isotropic ES            0.065096875032 Eh    ::
         :: -> anisotropic ES          0.002440349877 Eh    ::
         :: -> anisotropic XC          0.006511123116 Eh    ::
         :: -> dispersion             -0.009441897329 Eh    ::
         :: -> Gsolv                  -0.014966598500 Eh    ::
         ::    -> Gelec               -0.009575457935 Eh    ::
         ::    -> Gsasa                0.002664524883 Eh    ::
         ::    -> Ghb                 -0.009136425146 Eh    ::
         ::    -> Gshift               0.001080759698 Eh    ::
         :: repulsion energy           0.261408123750 Eh    ::
         :: add. restraining           0.000000000000 Eh    ::
         :: total charge               0.000000000000 e     ::
         :::::::::::::::::::::::::::::::::::::::::::::::::::::

metadynamics with 1 initial structures loaded
           -------------------------------------------------
          |           Optimal kpush determination           |
           -------------------------------------------------
      ----------------------------------------------------------- 
     |                   =====================                   |
     |                        A N C O P T                        |
     |                   =====================                   |
     |               Approximate Normal Coordinate               |
     |                Rational Function Optimizer                |
      ----------------------------------------------------------- 
target rmsd / Å         0.100000
unbiased initial rmsd   0.042454
 
iter. min.        max.        rmsd       kpush
final kpush:  0.000000
           -------------------------------------------------
          |            Biased Numerical Hessian             |
           -------------------------------------------------
kpush                :   0.00000
alpha                :   1.00000
step length          :   0.00500
SCC accuracy         :   0.30000
Hessian scale factor :   1.00000
frozen atoms in %    :   0.00000    0
RMS gradient         :   0.00006
estimated CPU  time      0.01 min
estimated wall time      0.01 min

writing file <hessian>.

 projected vibrational frequencies (cm⁻¹)
eigval :       -0.00    -0.00    -0.00    -0.00     0.00     0.00
eigval :       30.00    50.98   110.79   161.87   227.16   286.08
eigval :      403.30   427.42   566.89   611.71   709.67   785.94
eigval :      825.62   918.95   928.75   960.34  1012.35  1058.78
eigval :     1110.60  1122.51  1128.23  1182.68  1237.91  1244.19
eigval :     1267.93  1278.59  1343.13  1347.38  1412.58  1438.41
eigval :     1478.26  1485.55  1499.58  1505.17  1707.17  2968.95
eigval :     2971.98  2983.76  2988.35  3006.83  3022.91  3030.32
eigval :     3036.55  3047.93  3340.46
           -------------------------------------------------
          |                Property Printout                |
           -------------------------------------------------

    * Orbital Energies and Occupations

         #    Occupation            Energy/Eh            Energy/eV
      -------------------------------------------------------------
         1        2.0000           -0.7462590             -20.3067
       ...           ...                  ...                  ...
         9        2.0000           -0.5596028             -15.2276
        10        2.0000           -0.5495228             -14.9533
        11        2.0000           -0.5133992             -13.9703
        12        2.0000           -0.5079171             -13.8211
        13        2.0000           -0.4935548             -13.4303
        14        2.0000           -0.4823922             -13.1266
        15        2.0000           -0.4789930             -13.0341
        16        2.0000           -0.4730564             -12.8725
        17        2.0000           -0.4572709             -12.4430
        18        2.0000           -0.4426377             -12.0448
        19        2.0000           -0.4313946             -11.7388
        20        2.0000           -0.4273945             -11.6300
        21        2.0000           -0.4202768             -11.4363 (HOMO)
        22                         -0.2396114              -6.5202 (LUMO)
        23                          0.0605331               1.6472
        24                          0.0977967               2.6612
        25                          0.1079861               2.9385
        26                          0.1247436               3.3944
        27                          0.1390934               3.7849
        28                          0.1446993               3.9375
        29                          0.1659965               4.5170
        30                          0.1919386               5.2229
        31                          0.1981817               5.3928
        32                          0.2177890               5.9263
       ...                                ...                  ...
        38                          0.6094825              16.5849
      -------------------------------------------------------------
                  HL-Gap            0.1806653 Eh            4.9162 eV
             Fermi-level           -0.3299441 Eh           -8.9782 eV

     #   Z          covCN         q      C6AA      α(0)
     1   6 C        3.751    -0.115    22.758     6.803
     2   6 C        3.800    -0.061    21.676     6.629
     3   6 C        3.805    -0.054    21.545     6.608
     4   6 C        3.804    -0.097    22.352     6.731
     5   6 C        2.693     0.371    20.706     7.447
     6   8 O        0.856    -0.496    23.702     6.527
     7   8 O        1.659    -0.414    21.125     6.205
     8   1 H        0.925     0.040     2.445     2.445
     9   1 H        0.925     0.039     2.464     2.455
    10   1 H        0.925     0.042     2.418     2.432
    11   1 H        0.924     0.043     2.405     2.425
    12   1 H        0.924     0.044     2.397     2.421
    13   1 H        0.924     0.045     2.379     2.412
    14   1 H        0.924     0.042     2.421     2.433
    15   1 H        0.925     0.081     1.968     2.194
    16   1 H        0.925     0.074     2.038     2.232
    17   1 H        0.803     0.415     0.458     1.063

 Mol. C6AA /au·bohr⁶  :       2216.216181
 Mol. C8AA /au·bohr⁸  :      47342.122561
 Mol. α(0) /au        :         69.462637


Wiberg/Mayer (AO) data.
largest (>0.10) Wiberg bond orders for each atom

 ---------------------------------------------------------------------------
     #   Z sym  total        # sym  WBO       # sym  WBO       # sym  WBO
 ---------------------------------------------------------------------------
     1   6 C    3.996 --     2 C    1.021     9 H    0.987    10 H    0.986
                             8 H    0.986
     2   6 C    3.996 --     1 C    1.021     3 C    1.005    12 H    0.977
                            11 H    0.975
     3   6 C    3.991 --     2 C    1.005    14 H    0.977    13 H    0.977
                             4 C    0.973
     4   6 C    3.989 --     5 C    0.986     3 C    0.973    16 H    0.966
                            15 H    0.966
     5   6 C    3.902 --     6 O    1.698     7 O    1.181     4 C    0.986
     6   8 O    1.964 --     5 C    1.698     7 O    0.172
     7   8 O    2.187 --     5 C    1.181    17 H    0.803     6 O    0.172
     8   1 H    0.998 --     1 C    0.986
     9   1 H    0.998 --     1 C    0.987
    10   1 H    0.998 --     1 C    0.986
    11   1 H    0.997 --     2 C    0.975
    12   1 H    0.998 --     2 C    0.977
    13   1 H    0.998 --     3 C    0.977
    14   1 H    0.998 --     3 C    0.977
    15   1 H    0.993 --     4 C    0.966
    16   1 H    0.994 --     4 C    0.966
    17   1 H    0.828 --     7 O    0.803
 ---------------------------------------------------------------------------

Topologies differ in total number of bonds
Writing topology from bond orders to xtbtopo.mol

molecular dipole:
                 x           y           z       tot (Debye)
 q only:       -0.284       0.907       0.575
   full:       -0.156       0.878       0.588       2.716
molecular quadrupole (traceless):
                xx          xy          yy          xz          yz          zz
 q only:        6.213       3.960      -5.182       4.435      -2.706      -1.031
  q+dip:        6.573       4.056      -5.436       4.629      -3.746      -1.138
   full:        6.732       4.208      -5.977       4.467      -4.026      -0.755

           -------------------------------------------------
          |                Geometry Summary                 |
           -------------------------------------------------

      molecular mass/u    :      102.1318968
   center of mass at/Å    :       -0.0006508      -0.0018781       0.0029196
  moments of inertia/u·Å² :        0.8122603E+02   0.4158882E+03   0.4556689E+03
rotational constants/cm⁻¹ :        0.2075398E+00   0.4053405E-01   0.3699536E-01

 * 15 selected distances

     #   Z          #   Z                                           value/Å
     1   6 C        2   6 C                                       1.5242644
     2   6 C        3   6 C                                       1.5285259
     3   6 C        4   6 C                                       1.5370378 (max)
     5   6 C        6   8 O                                       1.2136166
     5   6 C        7   8 O                                       1.3235574
     1   6 C        8   1 H                                       1.0864797
     1   6 C        9   1 H                                       1.0876500
     1   6 C       10   1 H                                       1.0870574
     2   6 C       11   1 H                                       1.0917467
     2   6 C       12   1 H                                       1.0913955
     3   6 C       13   1 H                                       1.0920727
     3   6 C       14   1 H                                       1.0922181
     4   6 C       15   1 H                                       1.0893650
     4   6 C       16   1 H                                       1.0884716
     7   8 O       17   1 H                                       0.9768587 (min)

 * 4 distinct bonds (by element types)

   Z      Z             #   av. dist./Å        max./Å        min./Å
   1 H    6 C           9     1.0896063     1.0922181     1.0864797
   6 C    6 C           3     1.5299427     1.5370378     1.5242644
   1 H    8 O           1     0.9768587     0.9768587     0.9768587
   6 C    8 O           2     1.2685870     1.3235574     1.2136166

           -------------------------------------------------
          |               Frequency Printout                |
           -------------------------------------------------
 projected vibrational frequencies (cm⁻¹)
eigval :       -0.00    -0.00    -0.00    -0.00     0.00     0.00
eigval :       30.00    50.98   110.79   161.87   227.16   286.08
eigval :      403.30   427.42   566.89   611.71   709.67   785.94
eigval :      825.62   918.95   928.75   960.34  1012.35  1058.78
eigval :     1110.60  1122.51  1128.23  1182.68  1237.91  1244.19
eigval :     1267.93  1278.59  1343.13  1347.38  1412.58  1438.41
eigval :     1478.26  1485.55  1499.58  1505.17  1707.17  2968.95
eigval :     2971.98  2983.76  2988.35  3006.83  3022.91  3030.32
eigval :     3036.55  3047.93  3340.46
 reduced masses (amu)
   1: 12.94   2: 11.37   3: 11.75   4: 11.51   5: 12.31   6: 11.59   7: 11.89   8: 10.71
   9:  6.58  10:  9.29  11:  5.88  12:  6.88  13: 10.43  14:  8.35  15:  9.83  16:  5.16
  17: 10.84  18:  2.92  19:  3.13  20:  9.75  21:  7.52  22:  5.22  23:  6.49  24:  5.83
  25:  7.02  26:  7.44  27:  6.50  28:  5.78  29:  5.21  30:  5.76  31:  4.56  32:  3.79
  33:  4.16  34:  4.92  35:  3.22  36:  2.27  37:  1.87  38:  1.92  39:  1.60  40:  1.55
  41: 13.25  42:  1.94  43:  1.91  44:  1.55  45:  1.51  46:  1.63  47:  1.87  48:  1.88
  49:  1.90  50:  1.37  51:  1.85
 IR intensities (km·mol⁻¹)
   1:  0.41   2:  0.28   3:  0.50   4:  1.22   5:  1.63   6:  0.29   7:  3.19   8:  1.53
   9:  0.03  10:  0.04  11:  0.16  12:  0.02  13:  4.01  14:  4.91  15: 94.70  16:161.67
  17:128.36  18: 15.87  19:  2.16  20:  5.73  21:  3.52  22: 20.80  23: 14.71  24:195.17
  25: 16.39  26: 65.09  27: 50.98  28: 18.42  29: 61.21  30:125.91  31:114.63  32: 63.22
  33: 16.84  34:  3.87  35:  2.67  36:  8.00  37:  0.70  38:  0.85  39:  1.02  40:  1.46
  41:751.58  42: 25.70  43: 50.81  44: 70.29  45: 69.36  46: 27.78  47: 28.49  48: 81.89
  49: 75.06  50: 46.58  51:182.31
 Raman intensities (Ä⁴*amu⁻¹)
   1:  0.00   2:  0.00   3:  0.00   4:  0.00   5:  0.00   6:  0.00   7:  0.00   8:  0.00
   9:  0.00  10:  0.00  11:  0.00  12:  0.00  13:  0.00  14:  0.00  15:  0.00  16:  0.00
  17:  0.00  18:  0.00  19:  0.00  20:  0.00  21:  0.00  22:  0.00  23:  0.00  24:  0.00
  25:  0.00  26:  0.00  27:  0.00  28:  0.00  29:  0.00  30:  0.00  31:  0.00  32:  0.00
  33:  0.00  34:  0.00  35:  0.00  36:  0.00  37:  0.00  38:  0.00  39:  0.00  40:  0.00
  41:  0.00  42:  0.00  43:  0.00  44:  0.00  45:  0.00  46:  0.00  47:  0.00  48:  0.00
  49:  0.00  50:  0.00  51:  0.00
 output can be read by thermo (or use thermo option).
 writing <g98.out> molden fake output.
 recommended (thermochemical) frequency scaling factor: 1.0
           -------------------------------------------------
          |             Thermodynamic Functions             |
           -------------------------------------------------

Molecule has no symmetry elements
It seems to be the C1 point group
c1  symmetry found (for desy threshold:  0.10E+00) used in thermo

          ...................................................
          :                      SETUP                      :
          :.................................................:
          :  # frequencies                          45      :
          :  # imaginary freq.                       0      :
          :  linear?                             false      :
          :  only rotor calc.                    false      :
          :  symmetry                               c1      :
          :  rotational number                       1      :
          :  scaling factor                  1.0000000      :
          :  rotor cutoff                    0.0000000 cm⁻¹ :
          :  imag. cutoff                 -100.0000000 cm⁻¹ :
          :.................................................:

    mode    ω/cm⁻¹     T·S(HO)/kcal·mol⁻¹    T·S(FR)/kcal·mol⁻¹   T·S(vib)
   ------------------------------------------------------------------------
       1     30.00    -1.73806 (100.00%)    -1.20736 (  0.00%)    -1.73806
       2     50.98    -1.42481 (100.00%)    -1.05047 (  0.00%)    -1.42481
       3    110.79    -0.97049 (100.00%)    -0.82072 (  0.00%)    -0.97049
       4    161.87    -0.75366 (100.00%)    -0.70843 (  0.00%)    -0.75366
       5    227.16    -0.56687 (100.00%)    -0.60808 (  0.00%)    -0.56687
       6    286.08    -0.44635 (100.00%)    -0.53978 (  0.00%)    -0.44635
   ------------------------------------------------------------------------

   temp. (K)  partition function   enthalpy   heat capacity  entropy
                                   cal/mol     cal/K/mol   cal/K/mol   J/K/mol
 298.15  VIB   536.                 3508.338     22.891     24.254
         ROT  0.300E+06              888.752      2.981     28.041
         INT  0.161E+09             4397.090     25.872     52.296
         TR   0.999E+27             1481.254      4.968     39.763
         TOT                        5878.3439    30.8403    92.0587   385.1735

       T/K    H(0)-H(T)+PV         H(T)/Eh          T*S/Eh         G(T)/Eh
   ------------------------------------------------------------------------
    298.15    0.936774E-02    0.153495E+00    0.437400E-01    0.109755E+00
   ------------------------------------------------------------------------

         :::::::::::::::::::::::::::::::::::::::::::::::::::::
         ::                  THERMODYNAMIC                  ::
         :::::::::::::::::::::::::::::::::::::::::::::::::::::
         :: total free energy         -23.853753500025 Eh   ::
         ::.................................................::
         :: total energy              -23.963508356942 Eh   ::
         :: zero point energy           0.144127163344 Eh   ::
         :: G(RRHO) w/o ZPVE           -0.034372306427 Eh   ::
         :: G(RRHO) contrib.            0.109754856917 Eh   ::
         :::::::::::::::::::::::::::::::::::::::::::::::::::::

optimized geometry written to: xtbopt.coord


           -------------------------------------------------
          | TOTAL ENERGY              -23.963508356942 Eh   |
          | TOTAL ENTHALPY            -23.810013456359 Eh   |
          | TOTAL FREE ENERGY         -23.853753500025 Eh   |
          | GRADIENT NORM               0.000055644593 Eh/α |
          | HOMO-LUMO GAP               4.916153497093 eV   |
           -------------------------------------------------

------------------------------------------------------------------------
 * finished run on 2025/04/11 at 16:20:41.767     
------------------------------------------------------------------------
 total:
 * wall-time:     0 d,  0 h,  0 min,  1.057 sec
 *  cpu-time:     0 d,  0 h,  0 min,  0.980 sec
 * ratio c/w:     0.928 speedup
 SCF:
 * wall-time:     0 d,  0 h,  0 min,  0.027 sec
 *  cpu-time:     0 d,  0 h,  0 min,  0.012 sec
 * ratio c/w:     0.446 speedup
 analytical hessian:
 * wall-time:     0 d,  0 h,  0 min,  0.837 sec
 *  cpu-time:     0 d,  0 h,  0 min,  0.824 sec
 * ratio c/w:     0.986 speedup

