      -----------------------------------------------------------      
     |                   =====================                   |     
     |                           x T B                           |     
     |                   =====================                   |     
     |                         S. Grimme                         |     
     |          Mulliken Center for Theoretical Chemistry        |     
     |                    University of Bonn                     |     
      -----------------------------------------------------------      

   * xtb version 6.7.1 (edcfbbe) compiled by 'albert@albert-system' on 2024-07-22

   xtb is free software: you can redistribute it and/or modify it under
   the terms of the GNU Lesser General Public License as published by
   the Free Software Foundation, either version 3 of the License, or
   (at your option) any later version.
   
   xtb is distributed in the hope that it will be useful,
   but WITHOUT ANY WARRANTY; without even the implied warranty of
   MERCHANTABILITY or FITNESS FOR A PARTICULAR PURPOSE.  See the
   GNU Lesser General Public License for more details.
   
   Cite this work as:
   * C. Bannwarth, E. Caldeweyher, S. Ehlert, A. Hansen, P. Pracht,
     J. Seibert, S. Spicher, S. Grimme, WIREs Comput. Mol. Sci., 2020, 11,
     e01493. DOI: 10.1002/wcms.1493
   
   for GFN2-xTB:
   * C. Bannwarth, S. Ehlert and S. Grimme., J. Chem. Theory Comput., 2019,
     15, 1652-1671. DOI: 10.1021/acs.jctc.8b01176
   for GFN1-xTB:
   * S. Grimme, C. Bannwarth, P. Shushkov, J. Chem. Theory Comput., 2017,
     13, 1989-2009. DOI: 10.1021/acs.jctc.7b00118
   for GFN0-xTB:
   * P. Pracht, E. Caldeweyher, S. Ehlert, S. Grimme, ChemRxiv, 2019, preprint.
     DOI: 10.26434/chemrxiv.8326202.v1
   for GFN-FF:
   * S. Spicher and S. Grimme, Angew. Chem. Int. Ed., 2020, 59, 15665-15673.
     DOI: 10.1002/anie.202004239
   
   for ALPB and GBSA implicit solvation:
   * S. Ehlert, M. Stahn, S. Spicher, S. Grimme, J. Chem. Theory Comput.,
     2021, 17, 4250-4261. DOI: 10.1021/acs.jctc.1c00471
   
   for ddCOSMO and CPCM-X implicit solvation:
   * M. Stahn, S. Ehlert, S. Grimme, J. Phys. Chem. A,
     2023, XX, XXXX-XXXX. DOI: 10.1021/acs.jpca.3c04382
   
   for DFT-D4:
   * E. Caldeweyher, C. Bannwarth and S. Grimme, J. Chem. Phys., 2017,
     147, 034112. DOI: 10.1063/1.4993215
   * E. Caldeweyher, S. Ehlert, A. Hansen, H. Neugebauer, S. Spicher,
     C. Bannwarth and S. Grimme, J. Chem. Phys., 2019, 150, 154122.
     DOI: 10.1063/1.5090222
   * E. Caldeweyher, J.-M. Mewes, S. Ehlert and S. Grimme, Phys. Chem. Chem. Phys.
     2020, 22, 8499-8512. DOI: 10.1039/D0CP00502A
   
   for sTDA-xTB:
   * S. Grimme and C. Bannwarth, J. Chem. Phys., 2016, 145, 054103.
     DOI: 10.1063/1.4959605
   
   in the mass-spec context:
   * V. Asgeirsson, C. Bauer and S. Grimme, Chem. Sci., 2017, 8, 4879.
     DOI: 10.1039/c7sc00601b
   * J. Koopman and S. Grimme, ACS Omega 2019, 4, 12, 15120-15133.
     DOI: 10.1021/acsomega.9b02011
   
   for metadynamics refer to:
   * S. Grimme, J. Chem. Theory Comput., 2019, 155, 2847-2862
     DOI: 10.1021/acs.jctc.9b00143
   
   for SPH calculations refer to:
   * S. Spicher and S. Grimme, J. Chem. Theory Comput., 2021, 17, 1701-1714
     DOI: 10.1021/acs.jctc.0c01306
   
   for ONIOM refer to:
   * C. Plett, A. Katbashev, S. Ehlert, S. Grimme, M. Bursch,
     Phys. Chem. Chem. Phys., 2023, 25, 17860-17868. DOI: 10.1039/D3CP02178E
   
   for DIPRO refer to:
   * J. Kohn, N. Gildemeister, S. Grimme, D. Fazzi, A. Hansen,
     J. Chem. Phys., 2023, just accepted.
   
   for PTB refer to:
   * S. Grimme, M. Mueller, A. Hansen, J. Chem. Phys., 2023, 158, 124111.
     DOI: 10.1063/5.0137838
   
   with help from (in alphabetical order)
   P. Atkinson, C. Bannwarth, F. Bohle, G. Brandenburg, E. Caldeweyher
   M. Checinski, S. Dohm, S. Ehlert, S. Ehrlich, I. Gerasimov, C. Hölzer
   A. Katbashev, J. Kohn, J. Koopman, C. Lavigne, S. Lehtola, F. März, M. Müller,
   F. Musil, H. Neugebauer, J. Pisarek, C. Plett, P. Pracht, F. Pultar,
   J. Seibert, P. Shushkov, S. Spicher, M. Stahn, M. Steiner, T. Strunk,
   J. Stückrath, T. Rose, and J. Unsleber
   
 * started run on 2025/04/11 at 16:20:26.871     
   ID    Z sym.   atoms
    1    6 C      1-5
    2   35 Br     6
    3    1 H      7-17

           -------------------------------------------------
          |                Calculation Setup                |
           -------------------------------------------------

          program call               : /srv/scratch/z5358697/.xtb/bin/xtb xtb_rrho.coord --gfn2 --bhess vtight --chrg 0 --enso --norestart -I rrho-xcontrol-inp --parallel 1 --alpb water
          hostname                   : k124
          coordinate file            : xtb_rrho.coord
          omp threads                :                     1


           -------------------------------------------------
          |                 G F N 2 - x T B                 |
           -------------------------------------------------

        Reference                      10.1021/acs.jctc.8b01176
      * Hamiltonian:
        H0-scaling (s, p, d)           1.850000    2.230000    2.230000
        zeta-weighting                 0.500000
      * Dispersion:
        s8                             2.700000
        a1                             0.520000
        a2                             5.000000
        s9                             5.000000
      * Repulsion:
        kExp                           1.500000    1.000000
        rExp                           1.000000
      * Coulomb:
        alpha                          2.000000
        third order                    shell-resolved
        anisotropic                    true
        a3                             3.000000
        a5                             4.000000
        cn-shift                       1.200000
        cn-exp                         4.000000
        max-rad                        5.000000

      * Solvation model:               ALPB
        Solvent                        water
        Parameter file                 internal GFN2-xTB/ALPB
        Dielectric constant                8.0200E+01
        Reference state                gsolv [1 M gas/solution]
        Free energy shift                  1.0808E-03 Eh       6.7819E-01 kcal/mol
        Temperature                        2.9815E+02 K
        Density                            1.0000E+00 kg/L
        Solvent mass                       1.8000E+01 g/mol
        Interaction kernel             P16
        Born radius scaling (c1)           1.4744E+00
        Born radii integrator          GBOBC
        Born offset                        0.0000E+00 a0       0.0000E+00 AA
        H-bond correction              true
        Ion screening                  false
        Surface tension                    1.0000E-05 Eh       1.5569E+01 dyn/cm
        Grid points                               974 per atom

          ...................................................
          :                      SETUP                      :
          :.................................................:
          :  # basis functions                  41          :
          :  # atomic orbitals                  40          :
          :  # shells                           24          :
          :  # electrons                        38          :
          :  max. iterations                   250          :
          :  Hamiltonian                  GFN2-xTB          :
          :  restarted?                      false          :
          :  GBSA solvation                   true          :
          :  PC potential                    false          :
          :  electronic temp.          300.0000000     K    :
          :  accuracy                    1.0000000          :
          :  -> integral cutoff          0.2500000E+02      :
          :  -> integral neglect         0.1000000E-07      :
          :  -> SCF convergence          0.1000000E-05 Eh   :
          :  -> wf. convergence          0.1000000E-03 e    :
          :  Broyden damping             0.4000000          :
          :  net charge                          0          :
          :  unpaired electrons                  0          :
          ...................................................

 iter      E             dE          RMSdq      gap      omega  full diag
   1    -20.5958421 -0.205958E+02  0.333E+00    5.80       0.0  T
   2    -20.6350155 -0.391735E-01  0.222E+00    5.10       1.0  T
   3    -20.6376219 -0.260639E-02  0.879E-01    5.22       1.0  T
   4    -20.6388699 -0.124797E-02  0.391E-01    5.06       1.0  T
   5    -20.6390411 -0.171180E-03  0.256E-01    5.07       1.0  T
   6    -20.6391832 -0.142145E-03  0.151E-01    5.04       1.0  T
   7    -20.6392464 -0.631812E-04  0.829E-02    5.02       1.0  T
   8    -20.6392681 -0.217004E-04  0.183E-02    5.01       1.3  T
   9    -20.6392686 -0.462131E-06  0.794E-03    5.01       3.1  T
  10    -20.6392686 -0.900265E-07  0.246E-03    5.01       9.9  T
  11    -20.6392687 -0.983076E-08  0.143E-03    5.01      16.9  T
  12    -20.6392687 -0.472508E-08  0.603E-04    5.01      40.2  T
  13    -20.6392687 -0.467832E-09  0.205E-04    5.01     118.5  T

   *** convergence criteria satisfied after 13 iterations ***

         #    Occupation            Energy/Eh            Energy/eV
      -------------------------------------------------------------
         1        2.0000           -0.8373162             -22.7845
       ...           ...                  ...                  ...
        13        2.0000           -0.4714428             -12.8286
        14        2.0000           -0.4506654             -12.2632
        15        2.0000           -0.4355734             -11.8526
        16        2.0000           -0.4302778             -11.7085
        17        2.0000           -0.4254819             -11.5780
        18        2.0000           -0.4078771             -11.0989
        19        2.0000           -0.4059387             -11.0462 (HOMO)
        20                         -0.2218109              -6.0358 (LUMO)
        21                          0.0281051               0.7648
        22                          0.0357524               0.9729
        23                          0.0432963               1.1782
        24                          0.0544632               1.4820
       ...                                ...                  ...
        40                          0.3430031               9.3336
      -------------------------------------------------------------
                  HL-Gap            0.1841278 Eh            5.0104 eV
             Fermi-level           -0.3138748 Eh           -8.5410 eV

 SCC (total)                   0 d,  0 h,  0 min,  0.025 sec
 SCC setup                      ...        0 min,  0.001 sec (  4.179%)
 Dispersion                     ...        0 min,  0.000 sec (  0.322%)
 classical contributions        ...        0 min,  0.000 sec (  0.075%)
 integral evaluation            ...        0 min,  0.014 sec ( 53.882%)
 iterations                     ...        0 min,  0.006 sec ( 24.504%)
 molecular gradient             ...        0 min,  0.004 sec ( 16.389%)
 printout                       ...        0 min,  0.000 sec (  0.588%)

         :::::::::::::::::::::::::::::::::::::::::::::::::::::
         ::                     SUMMARY                     ::
         :::::::::::::::::::::::::::::::::::::::::::::::::::::
         :: total energy             -20.403307370721 Eh    ::
         :: total w/o Gsasa/hb       -20.402438558792 Eh    ::
         :: gradient norm              0.018060818979 Eh/a0 ::
         :: HOMO-LUMO gap              5.010372124685 eV    ::
         ::.................................................::
         :: SCC energy               -20.639226383990 Eh    ::
         :: -> isotropic ES            0.011736971738 Eh    ::
         :: -> anisotropic ES          0.004324037408 Eh    ::
         :: -> anisotropic XC          0.009539007772 Eh    ::
         :: -> dispersion             -0.011249780016 Eh    ::
         :: -> Gsolv                  -0.003696696970 Eh    ::
         ::    -> Gelec               -0.002827885041 Eh    ::
         ::    -> Gsasa               -0.001002280054 Eh    ::
         ::    -> Ghb                 -0.000947291573 Eh    ::
         ::    -> Gshift               0.001080759698 Eh    ::
         :: repulsion energy           0.235919013269 Eh    ::
         :: add. restraining           0.000000000000 Eh    ::
         :: total charge              -0.000000000000 e     ::
         :::::::::::::::::::::::::::::::::::::::::::::::::::::

metadynamics with 1 initial structures loaded
           -------------------------------------------------
          |           Optimal kpush determination           |
           -------------------------------------------------
      ----------------------------------------------------------- 
     |                   =====================                   |
     |                        A N C O P T                        |
     |                   =====================                   |
     |               Approximate Normal Coordinate               |
     |                Rational Function Optimizer                |
      ----------------------------------------------------------- 
target rmsd / Å         0.100000
unbiased initial rmsd   0.274076
 
iter. min.        max.        rmsd       kpush
      ----------------------------------------------------------- 
     |                   =====================                   |
     |                        A N C O P T                        |
     |                   =====================                   |
     |               Approximate Normal Coordinate               |
     |                Rational Function Optimizer                |
      ----------------------------------------------------------- 
 1    0.000000    0.772727    0.010191   -0.386364
      ----------------------------------------------------------- 
     |                   =====================                   |
     |                        A N C O P T                        |
     |                   =====================                   |
     |               Approximate Normal Coordinate               |
     |                Rational Function Optimizer                |
      ----------------------------------------------------------- 
 2    0.000000    0.386364    0.014341   -0.193182
      ----------------------------------------------------------- 
     |                   =====================                   |
     |                        A N C O P T                        |
     |                   =====================                   |
     |               Approximate Normal Coordinate               |
     |                Rational Function Optimizer                |
      ----------------------------------------------------------- 
 3    0.000000    0.193182    0.020234   -0.096591
      ----------------------------------------------------------- 
     |                   =====================                   |
     |                        A N C O P T                        |
     |                   =====================                   |
     |               Approximate Normal Coordinate               |
     |                Rational Function Optimizer                |
      ----------------------------------------------------------- 
 4    0.000000    0.096591    0.028052   -0.048295
      ----------------------------------------------------------- 
     |                   =====================                   |
     |                        A N C O P T                        |
     |                   =====================                   |
     |               Approximate Normal Coordinate               |
     |                Rational Function Optimizer                |
      ----------------------------------------------------------- 
 5    0.000000    0.048295    0.038664   -0.024148
      ----------------------------------------------------------- 
     |                   =====================                   |
     |                        A N C O P T                        |
     |                   =====================                   |
     |               Approximate Normal Coordinate               |
     |                Rational Function Optimizer                |
      ----------------------------------------------------------- 
 6    0.000000    0.024148    0.053623   -0.012074
      ----------------------------------------------------------- 
     |                   =====================                   |
     |                        A N C O P T                        |
     |                   =====================                   |
     |               Approximate Normal Coordinate               |
     |                Rational Function Optimizer                |
      ----------------------------------------------------------- 
 7    0.000000    0.012074    0.082676   -0.006037
      ----------------------------------------------------------- 
     |                   =====================                   |
     |                        A N C O P T                        |
     |                   =====================                   |
     |               Approximate Normal Coordinate               |
     |                Rational Function Optimizer                |
      ----------------------------------------------------------- 
 8    0.000000    0.006037    0.149228   -0.003018
      ----------------------------------------------------------- 
     |                   =====================                   |
     |                        A N C O P T                        |
     |                   =====================                   |
     |               Approximate Normal Coordinate               |
     |                Rational Function Optimizer                |
      ----------------------------------------------------------- 
 9    0.003018    0.006037    0.104344   -0.004528
      ----------------------------------------------------------- 
     |                   =====================                   |
     |                        A N C O P T                        |
     |                   =====================                   |
     |               Approximate Normal Coordinate               |
     |                Rational Function Optimizer                |
      ----------------------------------------------------------- 
10    0.004528    0.006037    0.091748   -0.005282
final kpush: -0.005282
           -------------------------------------------------
          |            Biased Numerical Hessian             |
           -------------------------------------------------
kpush                :  -0.00528
alpha                :   1.00000
step length          :   0.00500
SCC accuracy         :   0.30000
Hessian scale factor :   1.00000
frozen atoms in %    :   0.00000    0
RMS gradient         :   0.00004
estimated CPU  time      0.01 min
estimated wall time      0.01 min

writing file <hessian>.

 projected vibrational frequencies (cm⁻¹)
eigval :       -0.00    -0.00     0.00     0.00     0.00     0.00
eigval :       47.35    49.67   161.16   197.40   217.16   339.34
eigval :      357.35   446.95   545.58   784.29   786.72   859.38
eigval :      912.38   957.57   997.45  1060.16  1091.10  1098.39
eigval :     1150.21  1158.44  1194.58  1243.63  1266.24  1276.58
eigval :     1344.45  1349.80  1363.91  1411.91  1431.31  1462.81
eigval :     1479.32  1489.23  1502.38  1506.99  2961.00  2963.36
eigval :     2969.15  2976.34  2983.53  2990.06  2999.53  3021.78
eigval :     3026.59  3030.60  3049.09
           -------------------------------------------------
          |                Property Printout                |
           -------------------------------------------------

    * Orbital Energies and Occupations

         #    Occupation            Energy/Eh            Energy/eV
      -------------------------------------------------------------
         1        2.0000           -0.8387256             -22.8229
       ...           ...                  ...                  ...
         7        2.0000           -0.5356473             -14.5757
         8        2.0000           -0.5240067             -14.2589
         9        2.0000           -0.5085256             -13.8377
        10        2.0000           -0.4971696             -13.5287
        11        2.0000           -0.4810581             -13.0903
        12        2.0000           -0.4805271             -13.0758
        13        2.0000           -0.4705089             -12.8032
        14        2.0000           -0.4525703             -12.3151
        15        2.0000           -0.4352935             -11.8449
        16        2.0000           -0.4322869             -11.7631
        17        2.0000           -0.4250640             -11.5666
        18        2.0000           -0.4087369             -11.1223
        19        2.0000           -0.4068768             -11.0717 (HOMO)
        20                         -0.2171271              -5.9083 (LUMO)
        21                          0.0260589               0.7091
        22                          0.0328348               0.8935
        23                          0.0420853               1.1452
        24                          0.0537553               1.4628
        25                          0.0688068               1.8723
        26                          0.0907638               2.4698
        27                          0.1005963               2.7374
        28                          0.1154853               3.1425
        29                          0.1391108               3.7854
        30                          0.1484339               4.0391
       ...                                ...                  ...
        40                          0.3672451               9.9932
      -------------------------------------------------------------
                  HL-Gap            0.1897497 Eh            5.1634 eV
             Fermi-level           -0.3120020 Eh           -8.4900 eV

     #   Z          covCN         q      C6AA      α(0)
     1   6 C        3.751    -0.105    22.571     6.775
     2   6 C        3.799    -0.059    21.641     6.624
     3   6 C        3.800    -0.064    21.733     6.638
     4   6 C        3.847    -0.060    21.629     6.615
     5   6 C        3.738     0.025    20.231     6.418
     6  35 Br       0.962    -0.248   191.933    22.338
     7   1 H        0.925     0.038     2.480     2.463
     8   1 H        0.925     0.034     2.526     2.486
     9   1 H        0.925     0.032     2.554     2.499
    10   1 H        0.924     0.036     2.506     2.476
    11   1 H        0.924     0.036     2.507     2.476
    12   1 H        0.924     0.049     2.329     2.387
    13   1 H        0.924     0.041     2.433     2.440
    14   1 H        0.924     0.050     2.314     2.379
    15   1 H        0.924     0.059     2.214     2.327
    16   1 H        0.926     0.071     2.079     2.255
    17   1 H        0.926     0.066     2.131     2.283

 Mol. C6AA /au·bohr⁶  :       2905.332476
 Mol. C8AA /au·bohr⁸  :      86045.715731
 Mol. α(0) /au        :         81.875847


Wiberg/Mayer (AO) data.
largest (>0.10) Wiberg bond orders for each atom

 ---------------------------------------------------------------------------
     #   Z sym  total        # sym  WBO       # sym  WBO       # sym  WBO
 ---------------------------------------------------------------------------
     1   6 C    3.996 --     2 C    1.020     8 H    0.987     7 H    0.987
                             9 H    0.982
     2   6 C    3.997 --     1 C    1.020     3 C    1.006    10 H    0.979
                            11 H    0.977
     3   6 C    3.995 --     4 C    1.008     2 C    1.006    13 H    0.977
                            12 H    0.971
     4   6 C    3.992 --     5 C    1.020     3 C    1.008    14 H    0.975
                            15 H    0.960
     5   6 C    3.935 --     4 C    1.020    17 H    0.976    16 H    0.970
                             6 Br   0.941
     6  35 Br   1.003 --     5 C    0.941
     7   1 H    0.999 --     1 C    0.987
     8   1 H    0.999 --     1 C    0.987
     9   1 H    0.999 --     1 C    0.982
    10   1 H    0.999 --     2 C    0.979
    11   1 H    0.999 --     2 C    0.977
    12   1 H    0.998 --     3 C    0.971
    13   1 H    0.998 --     3 C    0.977
    14   1 H    0.997 --     4 C    0.975
    15   1 H    0.997 --     4 C    0.960
    16   1 H    0.995 --     5 C    0.970
    17   1 H    0.996 --     5 C    0.976
 ---------------------------------------------------------------------------

Topologies differ in total number of bonds
Writing topology from bond orders to xtbtopo.mol

molecular dipole:
                 x           y           z       tot (Debye)
 q only:       -0.721       0.847       0.302
   full:       -0.919       1.236       0.588       4.191
molecular quadrupole (traceless):
                xx          xy          yy          xz          yz          zz
 q only:       -1.648       0.784       0.947       0.496       0.844       0.701
  q+dip:       -2.347       3.342      -0.020       1.277       0.619       2.367
   full:       -2.485       2.678       0.510       1.026       0.973       1.975

           -------------------------------------------------
          |                Geometry Summary                 |
           -------------------------------------------------

      molecular mass/u    :      151.0445555
   center of mass at/Å    :       -0.0778165      -0.0685407       0.1090323
  moments of inertia/u·Å² :        0.1393189E+03   0.4336641E+03   0.5049543E+03
rotational constants/cm⁻¹ :        0.1210003E+00   0.3887256E-01   0.3338447E-01

 * 16 selected distances

     #   Z          #   Z                                           value/Å
     1   6 C        2   6 C                                       1.5263458
     2   6 C        3   6 C                                       1.5344110
     3   6 C        4   6 C                                       1.5300093
     4   6 C        5   6 C                                       1.5157803
     5   6 C        6  35 Br                                      1.9739468 (max)
     1   6 C        7   1 H                                       1.0878462
     1   6 C        8   1 H                                       1.0877996
     1   6 C        9   1 H                                       1.0862476 (min)
     2   6 C       10   1 H                                       1.0919870
     2   6 C       11   1 H                                       1.0920882
     3   6 C       12   1 H                                       1.0921852
     3   6 C       13   1 H                                       1.0918127
     4   6 C       14   1 H                                       1.0929043
     4   6 C       15   1 H                                       1.0931827
     5   6 C       16   1 H                                       1.0867663
     5   6 C       17   1 H                                       1.0888499

 * 3 distinct bonds (by element types)

   Z      Z             #   av. dist./Å        max./Å        min./Å
   1 H    6 C          11     1.0901518     1.0931827     1.0862476
   6 C    6 C           4     1.5266366     1.5344110     1.5157803
   6 C   35 Br          1     1.9739468     1.9739468     1.9739468

           -------------------------------------------------
          |               Frequency Printout                |
           -------------------------------------------------
 projected vibrational frequencies (cm⁻¹)
eigval :       -0.00    -0.00     0.00     0.00     0.00     0.00
eigval :       47.35    49.67   161.16   197.40   217.16   339.34
eigval :      357.35   446.95   545.58   784.29   786.72   859.38
eigval :      912.38   957.57   997.45  1060.16  1091.10  1098.39
eigval :     1150.21  1158.44  1194.58  1243.63  1266.24  1276.58
eigval :     1344.45  1349.80  1363.91  1411.91  1431.31  1462.81
eigval :     1479.32  1489.23  1502.38  1506.99  2961.00  2963.36
eigval :     2969.15  2976.34  2983.53  2990.06  2999.53  3021.78
eigval :     3026.59  3030.60  3049.09
 reduced masses (amu)
   1: 21.08   2: 42.70   3: 52.76   4: 53.42   5: 38.69   6:  9.28   7: 27.01   8:  9.31
   9: 20.99  10:  9.12  11:  5.56  12: 11.97  13:  8.05  14:  9.43  15: 14.71  16:  4.86
  17:  3.87  18:  6.34  19:  5.89  20:  4.68  21:  7.11  22:  5.21  23:  5.49  24:  5.44
  25:  7.38  26:  4.54  27:  4.48  28:  3.25  29:  2.33  30:  2.19  31:  3.82  32:  4.69
  33:  4.59  34:  2.78  35:  2.29  36:  1.91  37:  1.89  38:  1.81  39:  1.63  40:  1.54
  41:  1.92  42:  1.92  43:  1.84  44:  1.56  45:  1.62  46:  1.53  47:  1.75  48:  1.78
  49:  1.91  50:  1.77  51:  1.43
 IR intensities (km·mol⁻¹)
   1:  0.69   2:  0.60   3:  0.21   4:  0.06   5:  1.24   6:  1.92   7:  1.87   8:  0.30
   9:  1.28  10:  4.37  11:  1.71  12:  1.45  13:  1.83  14:  4.63  15:  4.83  16:  5.62
  17: 12.78  18:  3.70  19:  3.92  20:  6.01  21:  1.86  22:  3.28  23:  6.28  24:  1.68
  25:  0.67  26:  1.92  27:  1.84  28: 48.10  29: 11.64  30:  0.66  31:  6.20  32:  1.73
  33:  0.31  34:  4.78  35:  1.91  36:  5.21  37:  3.43  38:  0.63  39:  6.49  40:  2.53
  41: 12.57  42: 52.27  43: 26.61  44: 27.05  45:106.92  46: 57.22  47: 14.12  48: 32.40
  49: 74.18  50: 63.16  51: 59.47
 Raman intensities (Ä⁴*amu⁻¹)
   1:  0.00   2:  0.00   3:  0.00   4:  0.00   5:  0.00   6:  0.00   7:  0.00   8:  0.00
   9:  0.00  10:  0.00  11:  0.00  12:  0.00  13:  0.00  14:  0.00  15:  0.00  16:  0.00
  17:  0.00  18:  0.00  19:  0.00  20:  0.00  21:  0.00  22:  0.00  23:  0.00  24:  0.00
  25:  0.00  26:  0.00  27:  0.00  28:  0.00  29:  0.00  30:  0.00  31:  0.00  32:  0.00
  33:  0.00  34:  0.00  35:  0.00  36:  0.00  37:  0.00  38:  0.00  39:  0.00  40:  0.00
  41:  0.00  42:  0.00  43:  0.00  44:  0.00  45:  0.00  46:  0.00  47:  0.00  48:  0.00
  49:  0.00  50:  0.00  51:  0.00
 output can be read by thermo (or use thermo option).
 writing <g98.out> molden fake output.
 recommended (thermochemical) frequency scaling factor: 1.0
           -------------------------------------------------
          |             Thermodynamic Functions             |
           -------------------------------------------------

Molecule has no symmetry elements
It seems to be the C1 point group
c1  symmetry found (for desy threshold:  0.10E+00) used in thermo

          ...................................................
          :                      SETUP                      :
          :.................................................:
          :  # frequencies                          45      :
          :  # imaginary freq.                       0      :
          :  linear?                             false      :
          :  only rotor calc.                    false      :
          :  symmetry                               c1      :
          :  rotational number                       1      :
          :  scaling factor                  1.0000000      :
          :  rotor cutoff                    0.0000000 cm⁻¹ :
          :  imag. cutoff                 -100.0000000 cm⁻¹ :
          :.................................................:

    mode    ω/cm⁻¹     T·S(HO)/kcal·mol⁻¹    T·S(FR)/kcal·mol⁻¹   T·S(vib)
   ------------------------------------------------------------------------
       1     47.35    -1.46845 (100.00%)    -1.07241 (  0.00%)    -1.46845
       2     49.67    -1.44021 (100.00%)    -1.05824 (  0.00%)    -1.44021
       3    161.16    -0.75616 (100.00%)    -0.70976 (  0.00%)    -0.75616
       4    197.40    -0.64318 (100.00%)    -0.64968 (  0.00%)    -0.64318
       5    217.16    -0.59113 (100.00%)    -0.62142 (  0.00%)    -0.59113
   ------------------------------------------------------------------------

   temp. (K)  partition function   enthalpy   heat capacity  entropy
                                   cal/mol     cal/K/mol   cal/K/mol   J/K/mol
 298.15  VIB   225.                 3255.821     21.409     21.681
         ROT  0.422E+06              888.752      2.981     28.721
         INT  0.948E+08             4144.574     24.390     50.402
         TR   0.180E+28             1481.254      4.968     40.929
         TOT                        5625.8275    29.3583    91.3305   382.1267

       T/K    H(0)-H(T)+PV         H(T)/Eh          T*S/Eh         G(T)/Eh
   ------------------------------------------------------------------------
    298.15    0.896533E-02    0.158213E+00    0.433941E-01    0.114819E+00
   ------------------------------------------------------------------------

         :::::::::::::::::::::::::::::::::::::::::::::::::::::
         ::                  THERMODYNAMIC                  ::
         :::::::::::::::::::::::::::::::::::::::::::::::::::::
         :: total free energy         -20.294857048280 Eh   ::
         ::.................................................::
         :: total energy              -20.409676074816 Eh   ::
         :: zero point energy           0.149247755861 Eh   ::
         :: G(RRHO) w/o ZPVE           -0.034428729325 Eh   ::
         :: G(RRHO) contrib.            0.114819026536 Eh   ::
         :::::::::::::::::::::::::::::::::::::::::::::::::::::

optimized geometry written to: xtbopt.coord


           -------------------------------------------------
          | TOTAL ENERGY              -20.409676074816 Eh   |
          | TOTAL ENTHALPY            -20.251462992172 Eh   |
          | TOTAL FREE ENERGY         -20.294857048280 Eh   |
          | GRADIENT NORM               0.000038367673 Eh/α |
          | HOMO-LUMO GAP               5.163352589749 eV   |
           -------------------------------------------------

------------------------------------------------------------------------
 * finished run on 2025/04/11 at 16:20:29.777     
------------------------------------------------------------------------
 total:
 * wall-time:     0 d,  0 h,  0 min,  2.905 sec
 *  cpu-time:     0 d,  0 h,  0 min,  2.732 sec
 * ratio c/w:     0.940 speedup
 SCF:
 * wall-time:     0 d,  0 h,  0 min,  0.026 sec
 *  cpu-time:     0 d,  0 h,  0 min,  0.014 sec
 * ratio c/w:     0.556 speedup
 analytical hessian:
 * wall-time:     0 d,  0 h,  0 min,  0.853 sec
 *  cpu-time:     0 d,  0 h,  0 min,  0.844 sec
 * ratio c/w:     0.989 speedup

