! r2scan-3c def2/J RI DEFGRID2 scfconv6 printgap
%output
    printlevel normal
end
* xyz 0 1
C 2.1767271299 1.1408338749 -0.5235718673
C 1.1981870323 0.2726698782 0.2671740849
C 1.8703653472 -1.044685535 0.6786271904
N -0.0014500661 0.083118019 -0.5346034592
C -1.2101481639 -0.3038901499 0.1842989634
C -2.1451233471 -1.0553298642 -0.759258057
C -1.9002035742 0.9534359893 0.7189128499
H 1.694574021 2.0699047964 -0.8119346943
H 3.0535556553 1.366152302 0.0770482453
H 2.4933164836 0.6217491362 -1.425005055
H 0.9013207696 0.8147367425 1.1720046554
H 2.2094259901 -1.5828588231 -0.2049629329
H 1.1760965089 -1.6799313518 1.2254028028
H 2.7282315202 -0.8485211196 1.3160119261
H 0.1963673991 -0.5848715972 -1.2723701443
H -0.9772024324 -0.963271101 1.0417066979
H -3.0743940723 -1.3001391388 -0.2520413661
H -2.3696353002 -0.4359993831 -1.6238053831
H -1.6850044817 -1.980631706 -1.1007874854
H -2.1598314615 1.6055207582 -0.110052126
H -1.2417903633 1.4977601826 1.3903938039
H -2.8033795744 0.6858325359 1.260605846
*
