      -----------------------------------------------------------      
     |                   =====================                   |     
     |                           x T B                           |     
     |                   =====================                   |     
     |                         S. Grimme                         |     
     |          Mulliken Center for Theoretical Chemistry        |     
     |                    University of Bonn                     |     
      -----------------------------------------------------------      

   * xtb version 6.7.1 (edcfbbe) compiled by 'albert@albert-system' on 2024-07-22

   xtb is free software: you can redistribute it and/or modify it under
   the terms of the GNU Lesser General Public License as published by
   the Free Software Foundation, either version 3 of the License, or
   (at your option) any later version.
   
   xtb is distributed in the hope that it will be useful,
   but WITHOUT ANY WARRANTY; without even the implied warranty of
   MERCHANTABILITY or FITNESS FOR A PARTICULAR PURPOSE.  See the
   GNU Lesser General Public License for more details.
   
   Cite this work as:
   * C. Bannwarth, E. Caldeweyher, S. Ehlert, A. Hansen, P. Pracht,
     J. Seibert, S. Spicher, S. Grimme, WIREs Comput. Mol. Sci., 2020, 11,
     e01493. DOI: 10.1002/wcms.1493
   
   for GFN2-xTB:
   * C. Bannwarth, S. Ehlert and S. Grimme., J. Chem. Theory Comput., 2019,
     15, 1652-1671. DOI: 10.1021/acs.jctc.8b01176
   for GFN1-xTB:
   * S. Grimme, C. Bannwarth, P. Shushkov, J. Chem. Theory Comput., 2017,
     13, 1989-2009. DOI: 10.1021/acs.jctc.7b00118
   for GFN0-xTB:
   * P. Pracht, E. Caldeweyher, S. Ehlert, S. Grimme, ChemRxiv, 2019, preprint.
     DOI: 10.26434/chemrxiv.8326202.v1
   for GFN-FF:
   * S. Spicher and S. Grimme, Angew. Chem. Int. Ed., 2020, 59, 15665-15673.
     DOI: 10.1002/anie.202004239
   
   for ALPB and GBSA implicit solvation:
   * S. Ehlert, M. Stahn, S. Spicher, S. Grimme, J. Chem. Theory Comput.,
     2021, 17, 4250-4261. DOI: 10.1021/acs.jctc.1c00471
   
   for ddCOSMO and CPCM-X implicit solvation:
   * M. Stahn, S. Ehlert, S. Grimme, J. Phys. Chem. A,
     2023, XX, XXXX-XXXX. DOI: 10.1021/acs.jpca.3c04382
   
   for DFT-D4:
   * E. Caldeweyher, C. Bannwarth and S. Grimme, J. Chem. Phys., 2017,
     147, 034112. DOI: 10.1063/1.4993215
   * E. Caldeweyher, S. Ehlert, A. Hansen, H. Neugebauer, S. Spicher,
     C. Bannwarth and S. Grimme, J. Chem. Phys., 2019, 150, 154122.
     DOI: 10.1063/1.5090222
   * E. Caldeweyher, J.-M. Mewes, S. Ehlert and S. Grimme, Phys. Chem. Chem. Phys.
     2020, 22, 8499-8512. DOI: 10.1039/D0CP00502A
   
   for sTDA-xTB:
   * S. Grimme and C. Bannwarth, J. Chem. Phys., 2016, 145, 054103.
     DOI: 10.1063/1.4959605
   
   in the mass-spec context:
   * V. Asgeirsson, C. Bauer and S. Grimme, Chem. Sci., 2017, 8, 4879.
     DOI: 10.1039/c7sc00601b
   * J. Koopman and S. Grimme, ACS Omega 2019, 4, 12, 15120-15133.
     DOI: 10.1021/acsomega.9b02011
   
   for metadynamics refer to:
   * S. Grimme, J. Chem. Theory Comput., 2019, 155, 2847-2862
     DOI: 10.1021/acs.jctc.9b00143
   
   for SPH calculations refer to:
   * S. Spicher and S. Grimme, J. Chem. Theory Comput., 2021, 17, 1701-1714
     DOI: 10.1021/acs.jctc.0c01306
   
   for ONIOM refer to:
   * C. Plett, A. Katbashev, S. Ehlert, S. Grimme, M. Bursch,
     Phys. Chem. Chem. Phys., 2023, 25, 17860-17868. DOI: 10.1039/D3CP02178E
   
   for DIPRO refer to:
   * J. Kohn, N. Gildemeister, S. Grimme, D. Fazzi, A. Hansen,
     J. Chem. Phys., 2023, just accepted.
   
   for PTB refer to:
   * S. Grimme, M. Mueller, A. Hansen, J. Chem. Phys., 2023, 158, 124111.
     DOI: 10.1063/5.0137838
   
   with help from (in alphabetical order)
   P. Atkinson, C. Bannwarth, F. Bohle, G. Brandenburg, E. Caldeweyher
   M. Checinski, S. Dohm, S. Ehlert, S. Ehrlich, I. Gerasimov, C. Hölzer
   A. Katbashev, J. Kohn, J. Koopman, C. Lavigne, S. Lehtola, F. März, M. Müller,
   F. Musil, H. Neugebauer, J. Pisarek, C. Plett, P. Pracht, F. Pultar,
   J. Seibert, P. Shushkov, S. Spicher, M. Stahn, M. Steiner, T. Strunk,
   J. Stückrath, T. Rose, and J. Unsleber
   
 * started run on 2025/04/11 at 16:01:11.320     
   ID    Z sym.   atoms
    1    6 C      1-4, 6, 8
    2    8 O      5, 7
    3    1 H      9-20

           -------------------------------------------------
          |                Calculation Setup                |
           -------------------------------------------------

          program call               : /srv/scratch/z5358697/.xtb/bin/xtb solv.coord --gfn2 --sp --chrg 0 --norestart --parallel 1 --alpb water reference -I xtb_sp-xcontrol-inp
          hostname                   : k124
          coordinate file            : solv.coord
          omp threads                :                     1


           -------------------------------------------------
          |                 G F N 2 - x T B                 |
           -------------------------------------------------

        Reference                      10.1021/acs.jctc.8b01176
      * Hamiltonian:
        H0-scaling (s, p, d)           1.850000    2.230000    2.230000
        zeta-weighting                 0.500000
      * Dispersion:
        s8                             2.700000
        a1                             0.520000
        a2                             5.000000
        s9                             5.000000
      * Repulsion:
        kExp                           1.500000    1.000000
        rExp                           1.000000
      * Coulomb:
        alpha                          2.000000
        third order                    shell-resolved
        anisotropic                    true
        a3                             3.000000
        a5                             4.000000
        cn-shift                       1.200000
        cn-exp                         4.000000
        max-rad                        5.000000

      * Solvation model:               ALPB
        Solvent                        water
        Parameter file                 internal GFN2-xTB/ALPB
        Dielectric constant                8.0200E+01
        Reference state                gsolv=reference [X=1]
        Free energy shift                  2.8945E-03 Eh       1.8164E+00 kcal/mol
        Temperature                        2.9815E+02 K
        Density                            1.0000E+00 kg/L
        Solvent mass                       1.8000E+01 g/mol
        Interaction kernel             P16
        Born radius scaling (c1)           1.4744E+00
        Born radii integrator          GBOBC
        Born offset                        0.0000E+00 a0       0.0000E+00 AA
        H-bond correction              true
        Ion screening                  false
        Surface tension                    1.0000E-05 Eh       1.5569E+01 dyn/cm
        Grid points                               974 per atom

          ...................................................
          :                      SETUP                      :
          :.................................................:
          :  # basis functions                  44          :
          :  # atomic orbitals                  44          :
          :  # shells                           28          :
          :  # electrons                        48          :
          :  max. iterations                   250          :
          :  Hamiltonian                  GFN2-xTB          :
          :  restarted?                      false          :
          :  GBSA solvation                   true          :
          :  PC potential                    false          :
          :  electronic temp.          300.0000000     K    :
          :  accuracy                    1.0000000          :
          :  -> integral cutoff          0.2500000E+02      :
          :  -> integral neglect         0.1000000E-07      :
          :  -> SCF convergence          0.1000000E-05 Eh   :
          :  -> wf. convergence          0.1000000E-03 e    :
          :  Broyden damping             0.4000000          :
          :  net charge                          0          :
          :  unpaired electrons                  0          :
          ...................................................

 iter      E             dE          RMSdq      gap      omega  full diag
   1    -27.3709336 -0.273709E+02  0.392E+00    5.69       0.0  T
   2    -27.4336640 -0.627304E-01  0.196E+00    4.97       1.0  T
   3    -27.4355519 -0.188791E-02  0.100E+00    5.30       1.0  T
   4    -27.4368342 -0.128227E-02  0.160E-01    5.07       1.0  T
   5    -27.4370263 -0.192128E-03  0.685E-02    5.12       1.0  T
   6    -27.4370287 -0.237640E-05  0.226E-02    5.11       1.0  T
   7    -27.4370300 -0.132969E-05  0.528E-03    5.11       4.2  T
   8    -27.4370301 -0.571122E-07  0.311E-03    5.11       7.2  T
   9    -27.4370301 -0.245267E-07  0.637E-04    5.11      35.1  T
  10    -27.4370301 -0.139003E-08  0.305E-04    5.11      73.3  T

   *** convergence criteria satisfied after 10 iterations ***

         #    Occupation            Energy/Eh            Energy/eV
      -------------------------------------------------------------
         1        2.0000           -0.7497458             -20.4016
       ...           ...                  ...                  ...
        18        2.0000           -0.4754236             -12.9369
        19        2.0000           -0.4608902             -12.5415
        20        2.0000           -0.4546284             -12.3711
        21        2.0000           -0.4410220             -12.0008
        22        2.0000           -0.4315795             -11.7439
        23        2.0000           -0.4285213             -11.6607
        24        2.0000           -0.4239460             -11.5362 (HOMO)
        25                         -0.2360345              -6.4228 (LUMO)
        26                         -0.0100893              -0.2745
        27                          0.0952688               2.5924
        28                          0.1069345               2.9098
        29                          0.1312097               3.5704
       ...                                ...                  ...
        44                          0.6126552              16.6712
      -------------------------------------------------------------
                  HL-Gap            0.1879115 Eh            5.1133 eV
             Fermi-level           -0.3299902 Eh           -8.9795 eV

 SCC (total)                   0 d,  0 h,  0 min,  0.015 sec
 SCC setup                      ...        0 min,  0.001 sec (  8.658%)
 Dispersion                     ...        0 min,  0.000 sec (  0.833%)
 classical contributions        ...        0 min,  0.000 sec (  0.168%)
 integral evaluation            ...        0 min,  0.002 sec ( 10.486%)
 iterations                     ...        0 min,  0.007 sec ( 46.211%)
 molecular gradient             ...        0 min,  0.005 sec ( 32.500%)
 printout                       ...        0 min,  0.000 sec (  1.027%)

         :::::::::::::::::::::::::::::::::::::::::::::::::::::
         ::                     SUMMARY                     ::
         :::::::::::::::::::::::::::::::::::::::::::::::::::::
         :: total energy             -27.120443161220 Eh    ::
         :: total w/o Gsasa/hb       -27.122069453181 Eh    ::
         :: gradient norm              0.000152076905 Eh/a0 ::
         :: HOMO-LUMO gap              5.113332554478 eV    ::
         ::.................................................::
         :: SCC energy               -27.437051275477 Eh    ::
         :: -> isotropic ES            0.060617816184 Eh    ::
         :: -> anisotropic ES          0.000306951144 Eh    ::
         :: -> anisotropic XC          0.008227430928 Eh    ::
         :: -> dispersion             -0.011108707743 Eh    ::
         :: -> Gsolv                  -0.007896147015 Eh    ::
         ::    -> Gelec               -0.009522438975 Eh    ::
         ::    -> Gsasa                0.001492464185 Eh    ::
         ::    -> Ghb                 -0.002760721385 Eh    ::
         ::    -> Gshift               0.002894549160 Eh    ::
         :: repulsion energy           0.316608114256 Eh    ::
         :: add. restraining           0.000000000000 Eh    ::
         :: total charge              -0.000000000000 e     ::
         :::::::::::::::::::::::::::::::::::::::::::::::::::::

           -------------------------------------------------
          |                Property Printout                |
           -------------------------------------------------

    * Orbital Energies and Occupations

         #    Occupation            Energy/Eh            Energy/eV
      -------------------------------------------------------------
         1        2.0000           -0.7497458             -20.4016
       ...           ...                  ...                  ...
        12        2.0000           -0.5286509             -14.3853
        13        2.0000           -0.5077688             -13.8171
        14        2.0000           -0.4957929             -13.4912
        15        2.0000           -0.4902848             -13.3413
        16        2.0000           -0.4860613             -13.2264
        17        2.0000           -0.4760589             -12.9542
        18        2.0000           -0.4754236             -12.9369
        19        2.0000           -0.4608902             -12.5415
        20        2.0000           -0.4546284             -12.3711
        21        2.0000           -0.4410220             -12.0008
        22        2.0000           -0.4315795             -11.7439
        23        2.0000           -0.4285213             -11.6607
        24        2.0000           -0.4239460             -11.5362 (HOMO)
        25                         -0.2360345              -6.4228 (LUMO)
        26                         -0.0100893              -0.2745
        27                          0.0952688               2.5924
        28                          0.1069345               2.9098
        29                          0.1312097               3.5704
        30                          0.1341745               3.6511
        31                          0.1421954               3.8693
        32                          0.1472800               4.0077
        33                          0.1669565               4.5431
        34                          0.1768469               4.8123
        35                          0.1803440               4.9074
       ...                                ...                  ...
        44                          0.6126552              16.6712
      -------------------------------------------------------------
                  HL-Gap            0.1879115 Eh            5.1133 eV
             Fermi-level           -0.3299902 Eh           -8.9795 eV

     #   Z          covCN         q      C6AA      α(0)
     1   6 C        3.752    -0.118    22.819     6.812
     2   6 C        3.801    -0.064    21.724     6.636
     3   6 C        3.801    -0.072    21.882     6.660
     4   6 C        3.694     0.073    19.521     6.321
     5   8 O        1.704    -0.270    18.481     5.804
     6   6 C        2.709     0.369    20.737     7.454
     7   8 O        0.856    -0.499    23.766     6.536
     8   6 C        3.754    -0.173    23.924     6.974
     9   1 H        0.925     0.046     2.374     2.410
    10   1 H        0.925     0.036     2.502     2.473
    11   1 H        0.925     0.046     2.375     2.410
    12   1 H        0.924     0.039     2.466     2.456
    13   1 H        0.924     0.050     2.315     2.379
    14   1 H        0.924     0.054     2.268     2.355
    15   1 H        0.924     0.062     2.176     2.307
    16   1 H        0.924     0.060     2.197     2.318
    17   1 H        0.924     0.054     2.268     2.355
    18   1 H        0.925     0.096     1.825     2.113
    19   1 H        0.925     0.107     1.720     2.051
    20   1 H        0.925     0.103     1.757     2.073

 Mol. C6AA /au·bohr⁶  :       2995.055452
 Mol. C8AA /au·bohr⁸  :      63851.096350
 Mol. α(0) /au        :         80.897351


Wiberg/Mayer (AO) data.
largest (>0.10) Wiberg bond orders for each atom

 ---------------------------------------------------------------------------
     #   Z sym  total        # sym  WBO       # sym  WBO       # sym  WBO
 ---------------------------------------------------------------------------
     1   6 C    3.995 --     2 C    1.020    11 H    0.987    10 H    0.987
                             9 H    0.986
     2   6 C    3.995 --     1 C    1.020     3 C    1.005    12 H    0.978
                            13 H    0.977
     3   6 C    3.990 --     2 C    1.005     4 C    1.003    14 H    0.975
                            15 H    0.974
     4   6 C    3.913 --     3 C    1.003    17 H    0.968    16 H    0.965
                             5 O    0.922
     5   8 O    2.319 --     6 C    1.167     4 C    0.922     7 O    0.170
     6   6 C    3.903 --     7 O    1.683     5 O    1.167     8 C    0.999
     7   8 O    1.963 --     6 C    1.683     5 O    0.170
     8   6 C    3.981 --     6 C    0.999    18 H    0.980    20 H    0.957
                            19 H    0.950
     9   1 H    0.998 --     1 C    0.986
    10   1 H    0.999 --     1 C    0.987
    11   1 H    0.998 --     1 C    0.987
    12   1 H    0.998 --     2 C    0.978
    13   1 H    0.997 --     2 C    0.977
    14   1 H    0.997 --     3 C    0.975
    15   1 H    0.996 --     3 C    0.974
    16   1 H    0.996 --     4 C    0.965
    17   1 H    0.997 --     4 C    0.968
    18   1 H    0.991 --     8 C    0.980
    19   1 H    0.988 --     8 C    0.950
    20   1 H    0.989 --     8 C    0.957
 ---------------------------------------------------------------------------

Topologies differ in total number of bonds
Writing topology from bond orders to xtbtopo.mol

molecular dipole:
                 x           y           z       tot (Debye)
 q only:       -0.548      -0.623       1.007
   full:       -0.484      -0.624       0.966       3.171
molecular quadrupole (traceless):
                xx          xy          yy          xz          yz          zz
 q only:        6.943      -5.111      -2.799       6.817       2.195      -4.144
  q+dip:        4.644      -4.774      -0.856       6.623       3.153      -3.787
   full:        5.137      -5.053      -1.199       6.952       3.598      -3.938


           -------------------------------------------------
          | TOTAL ENERGY              -27.120443161220 Eh   |
          | GRADIENT NORM               0.000152076905 Eh/α |
          | HOMO-LUMO GAP               5.113332554478 eV   |
           -------------------------------------------------

------------------------------------------------------------------------
 * finished run on 2025/04/11 at 16:01:11.380     
------------------------------------------------------------------------
 total:
 * wall-time:     0 d,  0 h,  0 min,  0.059 sec
 *  cpu-time:     0 d,  0 h,  0 min,  0.024 sec
 * ratio c/w:     0.400 speedup
 SCF:
 * wall-time:     0 d,  0 h,  0 min,  0.015 sec
 *  cpu-time:     0 d,  0 h,  0 min,  0.015 sec
 * ratio c/w:     0.966 speedup

