      -----------------------------------------------------------      
     |                   =====================                   |     
     |                           x T B                           |     
     |                   =====================                   |     
     |                         S. Grimme                         |     
     |          Mulliken Center for Theoretical Chemistry        |     
     |                    University of Bonn                     |     
      -----------------------------------------------------------      

   * xtb version 6.7.1 (edcfbbe) compiled by 'albert@albert-system' on 2024-07-22

   xtb is free software: you can redistribute it and/or modify it under
   the terms of the GNU Lesser General Public License as published by
   the Free Software Foundation, either version 3 of the License, or
   (at your option) any later version.
   
   xtb is distributed in the hope that it will be useful,
   but WITHOUT ANY WARRANTY; without even the implied warranty of
   MERCHANTABILITY or FITNESS FOR A PARTICULAR PURPOSE.  See the
   GNU Lesser General Public License for more details.
   
   Cite this work as:
   * C. Bannwarth, E. Caldeweyher, S. Ehlert, A. Hansen, P. Pracht,
     J. Seibert, S. Spicher, S. Grimme, WIREs Comput. Mol. Sci., 2020, 11,
     e01493. DOI: 10.1002/wcms.1493
   
   for GFN2-xTB:
   * C. Bannwarth, S. Ehlert and S. Grimme., J. Chem. Theory Comput., 2019,
     15, 1652-1671. DOI: 10.1021/acs.jctc.8b01176
   for GFN1-xTB:
   * S. Grimme, C. Bannwarth, P. Shushkov, J. Chem. Theory Comput., 2017,
     13, 1989-2009. DOI: 10.1021/acs.jctc.7b00118
   for GFN0-xTB:
   * P. Pracht, E. Caldeweyher, S. Ehlert, S. Grimme, ChemRxiv, 2019, preprint.
     DOI: 10.26434/chemrxiv.8326202.v1
   for GFN-FF:
   * S. Spicher and S. Grimme, Angew. Chem. Int. Ed., 2020, 59, 15665-15673.
     DOI: 10.1002/anie.202004239
   
   for ALPB and GBSA implicit solvation:
   * S. Ehlert, M. Stahn, S. Spicher, S. Grimme, J. Chem. Theory Comput.,
     2021, 17, 4250-4261. DOI: 10.1021/acs.jctc.1c00471
   
   for ddCOSMO and CPCM-X implicit solvation:
   * M. Stahn, S. Ehlert, S. Grimme, J. Phys. Chem. A,
     2023, XX, XXXX-XXXX. DOI: 10.1021/acs.jpca.3c04382
   
   for DFT-D4:
   * E. Caldeweyher, C. Bannwarth and S. Grimme, J. Chem. Phys., 2017,
     147, 034112. DOI: 10.1063/1.4993215
   * E. Caldeweyher, S. Ehlert, A. Hansen, H. Neugebauer, S. Spicher,
     C. Bannwarth and S. Grimme, J. Chem. Phys., 2019, 150, 154122.
     DOI: 10.1063/1.5090222
   * E. Caldeweyher, J.-M. Mewes, S. Ehlert and S. Grimme, Phys. Chem. Chem. Phys.
     2020, 22, 8499-8512. DOI: 10.1039/D0CP00502A
   
   for sTDA-xTB:
   * S. Grimme and C. Bannwarth, J. Chem. Phys., 2016, 145, 054103.
     DOI: 10.1063/1.4959605
   
   in the mass-spec context:
   * V. Asgeirsson, C. Bauer and S. Grimme, Chem. Sci., 2017, 8, 4879.
     DOI: 10.1039/c7sc00601b
   * J. Koopman and S. Grimme, ACS Omega 2019, 4, 12, 15120-15133.
     DOI: 10.1021/acsomega.9b02011
   
   for metadynamics refer to:
   * S. Grimme, J. Chem. Theory Comput., 2019, 155, 2847-2862
     DOI: 10.1021/acs.jctc.9b00143
   
   for SPH calculations refer to:
   * S. Spicher and S. Grimme, J. Chem. Theory Comput., 2021, 17, 1701-1714
     DOI: 10.1021/acs.jctc.0c01306
   
   for ONIOM refer to:
   * C. Plett, A. Katbashev, S. Ehlert, S. Grimme, M. Bursch,
     Phys. Chem. Chem. Phys., 2023, 25, 17860-17868. DOI: 10.1039/D3CP02178E
   
   for DIPRO refer to:
   * J. Kohn, N. Gildemeister, S. Grimme, D. Fazzi, A. Hansen,
     J. Chem. Phys., 2023, just accepted.
   
   for PTB refer to:
   * S. Grimme, M. Mueller, A. Hansen, J. Chem. Phys., 2023, 158, 124111.
     DOI: 10.1063/5.0137838
   
   with help from (in alphabetical order)
   P. Atkinson, C. Bannwarth, F. Bohle, G. Brandenburg, E. Caldeweyher
   M. Checinski, S. Dohm, S. Ehlert, S. Ehrlich, I. Gerasimov, C. Hölzer
   A. Katbashev, J. Kohn, J. Koopman, C. Lavigne, S. Lehtola, F. März, M. Müller,
   F. Musil, H. Neugebauer, J. Pisarek, C. Plett, P. Pracht, F. Pultar,
   J. Seibert, P. Shushkov, S. Spicher, M. Stahn, M. Steiner, T. Strunk,
   J. Stückrath, T. Rose, and J. Unsleber
   
 * started run on 2025/04/11 at 16:59:05.522     
   ID    Z sym.   atoms
    1    6 C      1-4, 6, 8
    2    8 O      5, 7
    3    1 H      9-20

           -------------------------------------------------
          |                Calculation Setup                |
           -------------------------------------------------

          program call               : /srv/scratch/z5358697/.xtb/bin/xtb xtb_rrho.coord --gfn2 --ohess vtight --chrg 0 --enso --norestart -I rrho-xcontrol-inp --parallel 1 --alpb water
          hostname                   : k124
          coordinate file            : xtb_rrho.coord
          omp threads                :                     1


           -------------------------------------------------
          |                 G F N 2 - x T B                 |
           -------------------------------------------------

        Reference                      10.1021/acs.jctc.8b01176
      * Hamiltonian:
        H0-scaling (s, p, d)           1.850000    2.230000    2.230000
        zeta-weighting                 0.500000
      * Dispersion:
        s8                             2.700000
        a1                             0.520000
        a2                             5.000000
        s9                             5.000000
      * Repulsion:
        kExp                           1.500000    1.000000
        rExp                           1.000000
      * Coulomb:
        alpha                          2.000000
        third order                    shell-resolved
        anisotropic                    true
        a3                             3.000000
        a5                             4.000000
        cn-shift                       1.200000
        cn-exp                         4.000000
        max-rad                        5.000000

      * Solvation model:               ALPB
        Solvent                        water
        Parameter file                 internal GFN2-xTB/ALPB
        Dielectric constant                8.0200E+01
        Reference state                gsolv [1 M gas/solution]
        Free energy shift                  1.0808E-03 Eh       6.7819E-01 kcal/mol
        Temperature                        2.9815E+02 K
        Density                            1.0000E+00 kg/L
        Solvent mass                       1.8000E+01 g/mol
        Interaction kernel             P16
        Born radius scaling (c1)           1.4744E+00
        Born radii integrator          GBOBC
        Born offset                        0.0000E+00 a0       0.0000E+00 AA
        H-bond correction              true
        Ion screening                  false
        Surface tension                    1.0000E-05 Eh       1.5569E+01 dyn/cm
        Grid points                               974 per atom

          ...................................................
          :                      SETUP                      :
          :.................................................:
          :  # basis functions                  44          :
          :  # atomic orbitals                  44          :
          :  # shells                           28          :
          :  # electrons                        48          :
          :  max. iterations                   250          :
          :  Hamiltonian                  GFN2-xTB          :
          :  restarted?                      false          :
          :  GBSA solvation                   true          :
          :  PC potential                    false          :
          :  electronic temp.          300.0000000     K    :
          :  accuracy                    1.0000000          :
          :  -> integral cutoff          0.2500000E+02      :
          :  -> integral neglect         0.1000000E-07      :
          :  -> SCF convergence          0.1000000E-05 Eh   :
          :  -> wf. convergence          0.1000000E-03 e    :
          :  Broyden damping             0.4000000          :
          :  net charge                          0          :
          :  unpaired electrons                  0          :
          ...................................................

 iter      E             dE          RMSdq      gap      omega  full diag
   1    -27.3585628 -0.273586E+02  0.399E+00    5.65       0.0  T
   2    -27.4223870 -0.638242E-01  0.197E+00    4.84       1.0  T
   3    -27.4244330 -0.204607E-02  0.103E+00    5.19       1.0  T
   4    -27.4259301 -0.149703E-02  0.165E-01    4.93       1.0  T
   5    -27.4261409 -0.210879E-03  0.695E-02    4.96       1.0  T
   6    -27.4261432 -0.226002E-05  0.216E-02    4.96       1.0  T
   7    -27.4261443 -0.111642E-05  0.498E-03    4.96       4.5  T
   8    -27.4261444 -0.444390E-07  0.288E-03    4.96       7.8  T
   9    -27.4261444 -0.211136E-07  0.556E-04    4.96      40.2  T
  10    -27.4261444 -0.982688E-09  0.308E-04    4.96      72.7  T

   *** convergence criteria satisfied after 10 iterations ***

         #    Occupation            Energy/Eh            Energy/eV
      -------------------------------------------------------------
         1        2.0000           -0.7442460             -20.2520
       ...           ...                  ...                  ...
        18        2.0000           -0.4731232             -12.8743
        19        2.0000           -0.4607949             -12.5389
        20        2.0000           -0.4496397             -12.2353
        21        2.0000           -0.4462759             -12.1438
        22        2.0000           -0.4317958             -11.7498
        23        2.0000           -0.4278968             -11.6437
        24        2.0000           -0.4231832             -11.5154 (HOMO)
        25                         -0.2407937              -6.5523 (LUMO)
        26                         -0.0251939              -0.6856
        27                          0.0664983               1.8095
        28                          0.1106400               3.0107
        29                          0.1242799               3.3818
       ...                                ...                  ...
        44                          0.5842631              15.8986
      -------------------------------------------------------------
                  HL-Gap            0.1823896 Eh            4.9631 eV
             Fermi-level           -0.3319885 Eh           -9.0339 eV

 SCC (total)                   0 d,  0 h,  0 min,  0.027 sec
 SCC setup                      ...        0 min,  0.001 sec (  4.602%)
 Dispersion                     ...        0 min,  0.000 sec (  0.418%)
 classical contributions        ...        0 min,  0.000 sec (  0.080%)
 integral evaluation            ...        0 min,  0.002 sec (  5.526%)
 iterations                     ...        0 min,  0.020 sec ( 71.714%)
 molecular gradient             ...        0 min,  0.005 sec ( 17.033%)
 printout                       ...        0 min,  0.000 sec (  0.550%)

         :::::::::::::::::::::::::::::::::::::::::::::::::::::
         ::                     SUMMARY                     ::
         :::::::::::::::::::::::::::::::::::::::::::::::::::::
         :: total energy             -27.121710187213 Eh    ::
         :: total w/o Gsasa/hb       -27.121347732589 Eh    ::
         :: gradient norm              0.035662238739 Eh/a0 ::
         :: HOMO-LUMO gap              4.963072371902 eV    ::
         ::.................................................::
         :: SCC energy               -27.426132051769 Eh    ::
         :: -> isotropic ES            0.060959021430 Eh    ::
         :: -> anisotropic ES          0.001342153624 Eh    ::
         :: -> anisotropic XC          0.008829499154 Eh    ::
         :: -> dispersion             -0.011027541825 Eh    ::
         :: -> Gsolv                  -0.010008961256 Eh    ::
         ::    -> Gelec               -0.009646506632 Eh    ::
         ::    -> Gsasa                0.001292817814 Eh    ::
         ::    -> Ghb                 -0.002736032136 Eh    ::
         ::    -> Gshift               0.001080759698 Eh    ::
         :: repulsion energy           0.304421864556 Eh    ::
         :: add. restraining           0.000000000000 Eh    ::
         :: total charge              -0.000000000000 e     ::
         :::::::::::::::::::::::::::::::::::::::::::::::::::::

      ----------------------------------------------------------- 
     |                   =====================                   |
     |                        A N C O P T                        |
     |                   =====================                   |
     |               Approximate Normal Coordinate               |
     |                Rational Function Optimizer                |
      ----------------------------------------------------------- 
      ----------------------------------------------------------- 
     |                   =====================                   |
     |                        A N C O P T                        |
     |                   =====================                   |
     |               Approximate Normal Coordinate               |
     |                Rational Function Optimizer                |
      ----------------------------------------------------------- 

          ...................................................
          :                      SETUP                      :
          :.................................................:
          :   optimization level         verytight          :
          :   max. optcycles                   400          :
          :   ANC micro-cycles                  20          :
          :   degrees of freedom                54          :
          :.................................................:
          :   RF solver                   davidson          :
          :   write xtbopt.log                true          :
          :   linear?                        false          :
          :   energy convergence         0.1000000E-06 Eh   :
          :   grad. convergence          0.2000000E-03 Eh/α :
          :   maxmium RF displ.          1.0000000          :
          :   Hlow (freq-cutoff)         0.1000000E-01      :
          :   Hmax (freq-cutoff)         5.0000000          :
          :   S6 in model hess.         20.0000000          :
          ...................................................

generating ANC from exact Hessian ...
Using Lindh-Hessian (1995)
 Shifting diagonal of input Hessian by   8.575747269129500E-003
 Lowest  eigenvalues of input Hessian
    0.000000    0.000000    0.000000    0.000000    0.000000    0.000000
    0.010000    0.010715    0.010884    0.015307    0.016918    0.017823
    0.019887    0.023827    0.034124    0.038513    0.044895    0.048153
 Highest eigenvalues
    1.207633    1.218973    1.243266    1.317083    1.746287    2.271946
 

........................................................................
.............................. CYCLE    1 ..............................
........................................................................

 iter      E             dE          RMSdq      gap      omega  full diag
   1    -27.4261444 -0.274261E+02  0.519E-05    4.96       0.0  T
   2    -27.4261444 -0.143814E-10  0.245E-05    4.96     912.1  T
   3    -27.4261444 -0.156675E-11  0.150E-05    4.96    1491.6  T
     SCC iter.                  ...        0 min,  0.002 sec
     gradient                   ...        0 min,  0.005 sec
 * total energy  :   -27.1217102 Eh     change       -0.1326974E-09 Eh
   gradient norm :     0.0356605 Eh/α   predicted     0.0000000E+00 (-100.00%)
   displ. norm   :     0.1130896 α      lambda       -0.1907289E-02
   maximum displ.:     0.0457482 α      in ANC's #8, #11, #13, ...

........................................................................
.............................. CYCLE    2 ..............................
........................................................................

 iter      E             dE          RMSdq      gap      omega  full diag
   1    -27.4367091 -0.274367E+02  0.111E-01    5.11       0.0  T
   2    -27.4367285 -0.194235E-04  0.646E-02    5.09       1.0  T
   3    -27.4367283  0.174628E-06  0.219E-02    5.09       1.0  T
   4    -27.4367302 -0.180309E-05  0.356E-03    5.08       6.3  T
   5    -27.4367302 -0.639868E-07  0.157E-03    5.08      14.2  T
   6    -27.4367302 -0.286901E-08  0.415E-04    5.08      53.8  T
   7    -27.4367302 -0.140929E-09  0.156E-04    5.08     143.6  T
     SCC iter.                  ...        0 min,  0.003 sec
     gradient                   ...        0 min,  0.005 sec
 * total energy  :   -27.1229177 Eh     change       -0.1207531E-02 Eh
   gradient norm :     0.0134600 Eh/α   predicted    -0.9658457E-03 ( -20.01%)
   displ. norm   :     0.0763357 α      lambda       -0.3657373E-03
   maximum displ.:     0.0325003 α      in ANC's #10, #1, #4, ...

........................................................................
.............................. CYCLE    3 ..............................
........................................................................

 iter      E             dE          RMSdq      gap      omega  full diag
   1    -27.4407815 -0.274408E+02  0.464E-02    5.13       0.0  T
   2    -27.4407937 -0.122181E-04  0.260E-02    5.12       1.0  T
   3    -27.4407941 -0.365298E-06  0.135E-02    5.12       1.7  T
   4    -27.4407941 -0.302455E-07  0.310E-03    5.12       7.2  T
   5    -27.4407942 -0.677829E-07  0.880E-04    5.12      25.4  T
   6    -27.4407942 -0.121282E-08  0.325E-04    5.12      68.8  T
     SCC iter.                  ...        0 min,  0.003 sec
     gradient                   ...        0 min,  0.005 sec
 * total energy  :   -27.1231306 Eh     change       -0.2128596E-03 Eh
   gradient norm :     0.0041912 Eh/α   predicted    -0.1842564E-03 ( -13.44%)
   displ. norm   :     0.0477070 α      lambda       -0.4701513E-04
   maximum displ.:     0.0247127 α      in ANC's #2, #1, #4, ...

........................................................................
.............................. CYCLE    4 ..............................
........................................................................

 iter      E             dE          RMSdq      gap      omega  full diag
   1    -27.4405408 -0.274405E+02  0.192E-02    5.12       0.0  T
   2    -27.4405421 -0.125871E-05  0.110E-02    5.12       2.0  T
   3    -27.4405421 -0.357324E-07  0.460E-03    5.12       4.9  T
   4    -27.4405421 -0.701340E-08  0.623E-04    5.12      35.9  T
   5    -27.4405421 -0.193950E-08  0.377E-04    5.12      59.3  T
     SCC iter.                  ...        0 min,  0.002 sec
     gradient                   ...        0 min,  0.005 sec
 * total energy  :   -27.1231628 Eh     change       -0.3220752E-04 Eh
   gradient norm :     0.0015702 Eh/α   predicted    -0.2356558E-04 ( -26.83%)
   displ. norm   :     0.0802756 α      lambda       -0.2250314E-04
   maximum displ.:     0.0484857 α      in ANC's #2, #1, #4, ...

........................................................................
.............................. CYCLE    5 ..............................
........................................................................

 iter      E             dE          RMSdq      gap      omega  full diag
   1    -27.4396029 -0.274396E+02  0.239E-02    5.11       0.0  T
   2    -27.4396034 -0.467278E-06  0.141E-02    5.11       1.6  T
   3    -27.4396034 -0.100985E-07  0.285E-03    5.11       7.9  T
   4    -27.4396034 -0.310173E-07  0.800E-04    5.11      27.9  T
   5    -27.4396034 -0.397570E-08  0.446E-04    5.11      50.1  T
     SCC iter.                  ...        0 min,  0.002 sec
     gradient                   ...        0 min,  0.005 sec
 * total energy  :   -27.1231796 Eh     change       -0.1683446E-04 Eh
   gradient norm :     0.0021671 Eh/α   predicted    -0.1129404E-04 ( -32.91%)
   displ. norm   :     0.0200189 α      lambda       -0.6694221E-05
   maximum displ.:     0.0147820 α      in ANC's #2, #1, #7, ...

........................................................................
.............................. CYCLE    6 ..............................
........................................................................

 iter      E             dE          RMSdq      gap      omega  full diag
   1    -27.4396616 -0.274397E+02  0.614E-03    5.11       0.0  T
   2    -27.4396617 -0.964079E-07  0.350E-03    5.11       6.4  T
   3    -27.4396617 -0.234100E-08  0.126E-03    5.11      17.7  T
   4    -27.4396617 -0.533213E-09  0.147E-04    5.11     151.8  T
   5    -27.4396617 -0.118558E-09  0.791E-05    5.11     282.7  T
     SCC iter.                  ...        0 min,  0.002 sec
     gradient                   ...        0 min,  0.005 sec
 * total energy  :   -27.1231852 Eh     change       -0.5558154E-05 Eh
   gradient norm :     0.0014064 Eh/α   predicted    -0.3363361E-05 ( -39.49%)
   displ. norm   :     0.0592415 α      lambda       -0.9774218E-05
   maximum displ.:     0.0434271 α      in ANC's #2, #1, #7, ...

........................................................................
.............................. CYCLE    7 ..............................
........................................................................

 iter      E             dE          RMSdq      gap      omega  full diag
   1    -27.4400843 -0.274401E+02  0.191E-02    5.11       0.0  T
   2    -27.4400850 -0.695109E-06  0.111E-02    5.11       2.0  T
   3    -27.4400850 -0.194340E-07  0.338E-03    5.11       6.6  T
   4    -27.4400850 -0.778714E-08  0.577E-04    5.11      38.8  T
   5    -27.4400850 -0.248966E-08  0.298E-04    5.11      75.1  T
     SCC iter.                  ...        0 min,  0.002 sec
     gradient                   ...        0 min,  0.005 sec
 * total energy  :   -27.1231921 Eh     change       -0.6913426E-05 Eh
   gradient norm :     0.0011762 Eh/α   predicted    -0.4896556E-05 ( -29.17%)
   displ. norm   :     0.0248734 α      lambda       -0.2943331E-05
   maximum displ.:     0.0200012 α      in ANC's #2, #1, #10, ...

........................................................................
.............................. CYCLE    8 ..............................
........................................................................

 iter      E             dE          RMSdq      gap      omega  full diag
   1    -27.4401261 -0.274401E+02  0.670E-03    5.11       0.0  T
   2    -27.4401261 -0.270043E-07  0.397E-03    5.11       5.6  T
   3    -27.4401261 -0.251303E-08  0.549E-04    5.11      40.7  T
   4    -27.4401261 -0.530655E-09  0.177E-04    5.11     126.0  T
     SCC iter.                  ...        0 min,  0.002 sec
     gradient                   ...        0 min,  0.005 sec
 * total energy  :   -27.1231953 Eh     change       -0.3222607E-05 Eh
   gradient norm :     0.0008179 Eh/α   predicted    -0.1473598E-05 ( -54.27%)
   displ. norm   :     0.0343525 α      lambda       -0.3685688E-05
   maximum displ.:     0.0258092 α      in ANC's #2, #1, #4, ...

........................................................................
.............................. CYCLE    9 ..............................
........................................................................

 iter      E             dE          RMSdq      gap      omega  full diag
   1    -27.4400731 -0.274401E+02  0.112E-02    5.11       0.0  T
   2    -27.4400732 -0.129553E-06  0.652E-03    5.11       3.4  T
   3    -27.4400732 -0.616228E-08  0.130E-03    5.11      17.2  T
   4    -27.4400732 -0.151974E-08  0.234E-04    5.11      95.5  T
   5    -27.4400732 -0.430802E-10  0.126E-04    5.11     177.4  T
     SCC iter.                  ...        0 min,  0.002 sec
     gradient                   ...        0 min,  0.005 sec
 * total energy  :   -27.1231996 Eh     change       -0.4255304E-05 Eh
   gradient norm :     0.0004089 Eh/α   predicted    -0.1846017E-05 ( -56.62%)
   displ. norm   :     0.0527414 α      lambda       -0.3737069E-05
   maximum displ.:     0.0391020 α      in ANC's #2, #1, #4, ...

........................................................................
.............................. CYCLE   10 ..............................
........................................................................

 iter      E             dE          RMSdq      gap      omega  full diag
   1    -27.4399760 -0.274400E+02  0.169E-02    5.11       0.0  T
   2    -27.4399760 -0.480783E-07  0.996E-03    5.11       2.2  T
   3    -27.4399760 -0.128812E-07  0.673E-04    5.11      33.2  T
   4    -27.4399760 -0.816392E-09  0.347E-04    5.11      64.5  T
     SCC iter.                  ...        0 min,  0.002 sec
     gradient                   ...        0 min,  0.005 sec
 * total energy  :   -27.1232042 Eh     change       -0.4646849E-05 Eh
   gradient norm :     0.0007726 Eh/α   predicted    -0.1871237E-05 ( -59.73%)
   displ. norm   :     0.0621919 α      lambda       -0.3696383E-05
   maximum displ.:     0.0462829 α      in ANC's #2, #1, #4, ...

........................................................................
.............................. CYCLE   11 ..............................
........................................................................

 iter      E             dE          RMSdq      gap      omega  full diag
   1    -27.4399418 -0.274399E+02  0.203E-02    5.11       0.0  T
   2    -27.4399419 -0.293603E-07  0.120E-02    5.11       1.9  T
   3    -27.4399419 -0.192305E-07  0.694E-04    5.11      32.2  T
   4    -27.4399419 -0.299355E-09  0.237E-04    5.11      94.3  T
     SCC iter.                  ...        0 min,  0.002 sec
     gradient                   ...        0 min,  0.005 sec
 * total energy  :   -27.1232088 Eh     change       -0.4545291E-05 Eh
   gradient norm :     0.0006850 Eh/α   predicted    -0.1854091E-05 ( -59.21%)
   displ. norm   :     0.0590513 α      lambda       -0.2732583E-05
   maximum displ.:     0.0445555 α      in ANC's #2, #1, #3, ...

........................................................................
.............................. CYCLE   12 ..............................
........................................................................

 iter      E             dE          RMSdq      gap      omega  full diag
   1    -27.4399657 -0.274400E+02  0.202E-02    5.11       0.0  T
   2    -27.4399657 -0.386383E-07  0.119E-02    5.11       1.9  T
   3    -27.4399658 -0.186873E-07  0.708E-04    5.11      31.6  T
   4    -27.4399658 -0.523357E-09  0.368E-04    5.11      60.8  T
     SCC iter.                  ...        0 min,  0.002 sec
     gradient                   ...        0 min,  0.005 sec
 * total energy  :   -27.1232120 Eh     change       -0.3229797E-05 Eh
   gradient norm :     0.0003555 Eh/α   predicted    -0.1369174E-05 ( -57.61%)
   displ. norm   :     0.0456610 α      lambda       -0.1528758E-05
   maximum displ.:     0.0347418 α      in ANC's #2, #1, #3, ...

........................................................................
.............................. CYCLE   13 ..............................
........................................................................

 iter      E             dE          RMSdq      gap      omega  full diag
   1    -27.4399808 -0.274400E+02  0.165E-02    5.11       0.0  T
   2    -27.4399808 -0.298097E-07  0.970E-03    5.11       2.3  T
   3    -27.4399808 -0.131495E-07  0.607E-04    5.11      36.8  T
   4    -27.4399809 -0.541942E-09  0.332E-04    5.11      67.4  T
     SCC iter.                  ...        0 min,  0.002 sec
     gradient                   ...        0 min,  0.005 sec
 * total energy  :   -27.1232138 Eh     change       -0.1824912E-05 Eh
   gradient norm :     0.0002038 Eh/α   predicted    -0.7664991E-06 ( -58.00%)
   displ. norm   :     0.0410959 α      lambda       -0.1064467E-05
   maximum displ.:     0.0305832 α      in ANC's #2, #3, #1, ...

........................................................................
.............................. CYCLE   14 ..............................
........................................................................

 iter      E             dE          RMSdq      gap      omega  full diag
   1    -27.4400287 -0.274400E+02  0.163E-02    5.11       0.0  T
   2    -27.4400288 -0.225922E-07  0.958E-03    5.11       2.3  T
   3    -27.4400288 -0.134786E-07  0.591E-04    5.11      37.8  T
   4    -27.4400288 -0.375394E-09  0.323E-04    5.11      69.3  T
     SCC iter.                  ...        0 min,  0.002 sec
     gradient                   ...        0 min,  0.005 sec
 * total energy  :   -27.1232151 Eh     change       -0.1297017E-05 Eh
   gradient norm :     0.0002213 Eh/α   predicted    -0.5362835E-06 ( -58.65%)
   displ. norm   :     0.0357431 α      lambda       -0.7367236E-06
   maximum displ.:     0.0263202 α      in ANC's #2, #3, #1, ...

........................................................................
.............................. CYCLE   15 ..............................
........................................................................

 iter      E             dE          RMSdq      gap      omega  full diag
   1    -27.4400345 -0.274400E+02  0.154E-02    5.11       0.0  T
   2    -27.4400345 -0.191515E-07  0.903E-03    5.11       2.5  T
   3    -27.4400345 -0.125575E-07  0.561E-04    5.11      39.8  T
   4    -27.4400345 -0.281467E-09  0.300E-04    5.11      74.5  T
     SCC iter.                  ...        0 min,  0.002 sec
     gradient                   ...        0 min,  0.005 sec
 * total energy  :   -27.1232161 Eh     change       -0.9627912E-06 Eh
   gradient norm :     0.0001834 Eh/α   predicted    -0.3694587E-06 ( -61.63%)
   displ. norm   :     0.0363699 α      lambda       -0.6945304E-06
   maximum displ.:     0.0258506 α      in ANC's #2, #3, #9, ...

........................................................................
.............................. CYCLE   16 ..............................
........................................................................

 iter      E             dE          RMSdq      gap      omega  full diag
   1    -27.4400480 -0.274400E+02  0.173E-02    5.11       0.0  T
   2    -27.4400480 -0.248741E-07  0.101E-02    5.11       2.2  T
   3    -27.4400480 -0.158168E-07  0.630E-04    5.11      35.5  T
   4    -27.4400480 -0.360860E-09  0.340E-04    5.11      65.8  T
     SCC iter.                  ...        0 min,  0.002 sec
     gradient                   ...        0 min,  0.005 sec
 * total energy  :   -27.1232170 Eh     change       -0.9283962E-06 Eh
   gradient norm :     0.0001230 Eh/α   predicted    -0.3486736E-06 ( -62.44%)
   displ. norm   :     0.0343562 α      lambda       -0.6354749E-06
   maximum displ.:     0.0228425 α      in ANC's #3, #2, #9, ...

........................................................................
.............................. CYCLE   17 ..............................
........................................................................

 iter      E             dE          RMSdq      gap      omega  full diag
   1    -27.4400489 -0.274400E+02  0.178E-02    5.11       0.0  T
   2    -27.4400489 -0.274070E-07  0.105E-02    5.11       2.1  T
   3    -27.4400489 -0.171199E-07  0.658E-04    5.11      34.0  T
   4    -27.4400489 -0.372413E-09  0.349E-04    5.11      64.2  T
     SCC iter.                  ...        0 min,  0.002 sec
     gradient                   ...        0 min,  0.005 sec
 * total energy  :   -27.1232179 Eh     change       -0.8856083E-06 Eh
   gradient norm :     0.0001516 Eh/α   predicted    -0.3207818E-06 ( -63.78%)
   displ. norm   :     0.0329204 α      lambda       -0.6182063E-06
   maximum displ.:     0.0239674 α      in ANC's #3, #2, #9, ...

........................................................................
.............................. CYCLE   18 ..............................
........................................................................

 iter      E             dE          RMSdq      gap      omega  full diag
   1    -27.4400499 -0.274400E+02  0.182E-02    5.11       0.0  T
   2    -27.4400500 -0.274006E-07  0.107E-02    5.11       2.1  T
   3    -27.4400500 -0.176331E-07  0.671E-04    5.11      33.3  T
   4    -27.4400500 -0.343881E-09  0.344E-04    5.11      65.1  T
     SCC iter.                  ...        0 min,  0.002 sec
     gradient                   ...        0 min,  0.005 sec
 * total energy  :   -27.1232188 Eh     change       -0.8712760E-06 Eh
   gradient norm :     0.0001923 Eh/α   predicted    -0.3136989E-06 ( -64.00%)
   displ. norm   :     0.0303871 α      lambda       -0.5869485E-06
   maximum displ.:     0.0236391 α      in ANC's #3, #2, #1, ...

........................................................................
.............................. CYCLE   19 ..............................
........................................................................

 iter      E             dE          RMSdq      gap      omega  full diag
   1    -27.4400651 -0.274401E+02  0.169E-02    5.11       0.0  T
   2    -27.4400651 -0.228046E-07  0.997E-03    5.11       2.2  T
   3    -27.4400651 -0.152429E-07  0.625E-04    5.11      35.8  T
   4    -27.4400651 -0.207496E-09  0.280E-04    5.11      79.8  T
     SCC iter.                  ...        0 min,  0.002 sec
     gradient                   ...        0 min,  0.005 sec
 * total energy  :   -27.1232196 Eh     change       -0.8092045E-06 Eh
   gradient norm :     0.0001744 Eh/α   predicted    -0.2953053E-06 ( -63.51%)
   displ. norm   :     0.0299944 α      lambda       -0.5542012E-06
   maximum displ.:     0.0240061 α      in ANC's #3, #1, #9, ...

........................................................................
.............................. CYCLE   20 ..............................
........................................................................

 iter      E             dE          RMSdq      gap      omega  full diag
   1    -27.4400596 -0.274401E+02  0.161E-02    5.11       0.0  T
   2    -27.4400596 -0.199481E-07  0.946E-03    5.11       2.4  T
   3    -27.4400596 -0.133394E-07  0.575E-04    5.11      38.9  T
   4    -27.4400596 -0.237321E-09  0.142E-04    5.11     157.9  T
     SCC iter.                  ...        0 min,  0.002 sec
     gradient                   ...        0 min,  0.005 sec
 * total energy  :   -27.1232203 Eh     change       -0.7469484E-06 Eh
   gradient norm :     0.0001262 Eh/α   predicted    -0.2804384E-06 ( -62.46%)
   displ. norm   :     0.0263687 α      lambda       -0.4525970E-06
   maximum displ.:     0.0205854 α      in ANC's #3, #1, #9, ...
 * RMSD in coord.:     0.1528487 α      energy gain  -0.1510130E-02 Eh

generating ANC from exact Hessian ...
Using Lindh-Hessian (1995)
 Shifting diagonal of input Hessian by   8.557640212883211E-003
 Lowest  eigenvalues of input Hessian
    0.000000    0.000000    0.000000    0.000000    0.000000    0.000000
    0.010000    0.010845    0.011051    0.016224    0.017237    0.018070
    0.020331    0.024205    0.036945    0.040633    0.045419    0.049912
 Highest eigenvalues
    1.216441    1.230646    1.298317    1.305309    1.823703    2.331422
 

........................................................................
.............................. CYCLE   21 ..............................
........................................................................

 iter      E             dE          RMSdq      gap      omega  full diag
   1    -27.4400668 -0.274401E+02  0.129E-02    5.11       0.0  T
   2    -27.4400668 -0.123913E-07  0.757E-03    5.11       3.0  T
   3    -27.4400668 -0.815684E-08  0.452E-04    5.11      49.5  T
   4    -27.4400668 -0.124391E-09  0.159E-04    5.11     140.2  T
     SCC iter.                  ...        0 min,  0.002 sec
     gradient                   ...        0 min,  0.005 sec
 * total energy  :   -27.1232209 Eh     change       -0.5717724E-06 Eh
   gradient norm :     0.0000873 Eh/α   predicted     0.0000000E+00 (-100.00%)
   displ. norm   :     0.0001309 α      lambda        0.0000000E+00
   maximum displ.:     0.0000384 α      in ANC's #48, #2, #36, ...

........................................................................
.............................. CYCLE   22 ..............................
........................................................................

 iter      E             dE          RMSdq      gap      omega  full diag
   1    -27.4400552 -0.274401E+02  0.209E-04    5.11       0.0  T
   2    -27.4400552 -0.277801E-09  0.994E-05    5.11     225.0  T
   3    -27.4400552 -0.608580E-11  0.535E-05    5.11     417.6  T
     SCC iter.                  ...        0 min,  0.001 sec
     gradient                   ...        0 min,  0.005 sec
 * total energy  :   -27.1232209 Eh     change       -0.7685987E-08 Eh
   gradient norm :     0.0000525 Eh/α   predicted    -0.4826147E-08 ( -37.21%)
   displ. norm   :     0.0001309 α      lambda        0.0000000E+00
   maximum displ.:     0.0000384 α      in ANC's #48, #2, #36, ...

   *** GEOMETRY OPTIMIZATION CONVERGED AFTER 22 ITERATIONS ***

------------------------------------------------------------------------
 total energy gain   :        -0.0015107 Eh       -0.9480 kcal/mol
 total RMSD          :         0.1528475 a0        0.0809 Å
 total power (kW/mol):        -0.1802894 (step)  -17.6021 (real)
------------------------------------------------------------------------

 ANCopt (total)                0 d,  0 h,  0 min,  0.225 sec
 optimizer setup                ...        0 min,  0.000 sec (  0.195%)
 model hessian                  ...        0 min,  0.007 sec (  3.191%)
 ANC generation                 ...        0 min,  0.001 sec (  0.373%)
 coordinate transformation      ...        0 min,  0.000 sec (  0.068%)
 single point calculation       ...        0 min,  0.207 sec ( 91.999%)
 optimization log               ...        0 min,  0.007 sec (  3.195%)
 hessian update                 ...        0 min,  0.000 sec (  0.075%)
 rational function              ...        0 min,  0.001 sec (  0.447%)

================
 final structure:
================
$coord
       -6.83417797151293       -1.40593411636698       -0.09742467679082      C
       -4.14124633641802       -0.70796470291110       -0.84062459945970      C
       -3.03466860352170        1.28489081805402        0.93127850381121      C
       -0.33119622345557        1.97072397166095        0.23646370013619      C
        1.24954350021572       -0.18513872333393        0.69423092377845      O
        3.65479333977505       -0.03838096546801        0.00540827818596      C
        4.56475392091083        1.82983731732301       -0.97122035224540      O
        5.05824354500347       -2.43627999873178        0.55542263301968      C
       -7.59214511502183       -2.81537339253893       -1.38451547756049      H
       -6.87919996664243       -2.17393337337973        1.80763662518487      H
       -8.04864439537775        0.25050521845375       -0.15771105427141      H
       -2.94861682354312       -2.38948870452465       -0.78574427731488      H
       -4.12531658155772        0.01670187275990       -2.77309946150219      H
       -4.17196156770982        3.00107651874866        0.85327727862193      H
       -3.05553189441934        0.57513831274208        2.86629585021802      H
       -0.16411540155627        2.49896988097443       -1.75787885527310      H
        0.37082075506760        3.54590464875841        1.38020348956113      H
        6.95052643399987       -1.98845845894569        1.20988652882719      H
        5.22082847872464       -3.50850812117050       -1.19124465641166      H
        4.03370928302576       -3.54403298539555        1.94219209249238      H
$end
 
 Bond Distances (Angstroems)
 ---------------------------
C1-C2=1.5238         C1-H9=1.0868         C1-H10=1.0872        C1-H11=1.0874        C2-C1=1.5238         C2-C3=1.5278         
C2-H12=1.0913        C2-H13=1.0922        C3-C2=1.5278         C3-C4=1.5210         C3-H14=1.0903        C3-H15=1.0907        
C4-C3=1.5210         C4-O5=1.4352         C4-H16=1.0953        C4-H17=1.0950        O5-C4=1.4352         O5-C6=1.3262         
C6-O5=1.3262         C6-O7=1.2150         C6-C8=1.4988         O7-C6=1.2150         C8-C6=1.4988         C8-H18=1.0857        
C8-H19=1.0880        C8-H20=1.0845        H9-C1=1.0868         H10-C1=1.0872        H11-C1=1.0874        H12-C2=1.0913        
H13-C2=1.0922        H14-C3=1.0903        H15-C3=1.0907        H16-C4=1.0953        H17-C4=1.0950        H18-C8=1.0857        
H19-C8=1.0880        H20-C8=1.0845        
 C  H  Rav=1.0895 sigma=0.0034  Rmin=1.0845  Rmax=1.0953    12
 C  C  Rav=1.5179 sigma=0.0113  Rmin=1.4988  Rmax=1.5278     4
 O  C  Rav=1.3255 sigma=0.0899  Rmin=1.2150  Rmax=1.4352     3
 
 selected bond angles (degree)
 --------------------
H9-C1-C2=110.47                H10-C1-C2=110.51               H10-C1-H9=108.45               H11-C1-C2=110.47               
H11-C1-H9=108.46               H11-C1-H10=108.40              C3-C2-C1=111.55                H12-C2-C1=109.65               
H12-C2-C3=108.96               H13-C2-C1=109.51               H13-C2-C3=109.23               H13-C2-H12=107.86              
C4-C3-C2=112.14                H14-C3-C2=109.89               H14-C3-C4=108.14               H15-C3-C2=109.55               
H15-C3-C4=108.58               H15-C3-H14=108.47              O5-C4-C3=108.52                H16-C4-C3=111.70               
H16-C4-O5=108.57               H17-C4-C3=111.54               H17-C4-O5=108.30               H17-C4-H16=108.11              
C6-O5-C4=117.80                O7-C6-O5=123.02                C8-C6-O5=111.88                C8-C6-O7=125.10                
H18-C8-C6=109.52               H19-C8-C6=108.41               H19-C8-H18=108.17              H20-C8-C6=109.96               
H20-C8-H18=111.30              H20-C8-H19=109.42              
 
 selected dihedral angles (degree)
 ---------------------------------
C3-C2-C1-H9=179.66            C3-C2-C1-H10=299.68           C3-C2-C1-H11= 59.64           H12-C2-C1-H9=300.45           
H12-C2-C1-H10= 60.48          H12-C2-C1-H11=180.43          H13-C2-C1-H9= 58.62           H13-C2-C1-H10=178.65          
H13-C2-C1-H11=298.60          C4-C3-C2-C1=179.11            C4-C3-C2-H12= 57.91           C4-C3-C2-H13=300.32           
H14-C3-C2-C1=299.41           H14-C3-C2-H12=178.21          H14-C3-C2-H13= 60.62          H15-C3-C2-C1= 58.48           
H15-C3-C2-H12=297.29          H15-C3-C2-H13=179.69          O5-C4-C3-C2=292.88            O5-C4-C3-H14=171.56           
O5-C4-C3-H15= 54.06           H16-C4-C3-C2= 52.53           H16-C4-C3-H14=291.22          H16-C4-C3-H15=173.72          
H17-C4-C3-C2=173.65           H17-C4-C3-H14= 52.33          H17-C4-C3-H15=294.83          C6-O5-C4-C3=174.50            
C6-O5-C4-H16= 52.91           C6-O5-C4-H17=295.74           O7-C6-O5-C4=  0.45            C8-C6-O5-C4=181.02            
H18-C8-C6-O5=218.37           H18-C8-C6-O7= 38.96           H19-C8-C6-O5=100.55           H19-C8-C6-O7=281.14           
H20-C8-C6-O5=340.97           H20-C8-C6-O7=161.55           
           -------------------------------------------------
          |                Final Singlepoint                |
           -------------------------------------------------

          ...................................................
          :                      SETUP                      :
          :.................................................:
          :  # basis functions                  44          :
          :  # atomic orbitals                  44          :
          :  # shells                           28          :
          :  # electrons                        48          :
          :  max. iterations                   250          :
          :  Hamiltonian                  GFN2-xTB          :
          :  restarted?                      false          :
          :  GBSA solvation                   true          :
          :  PC potential                    false          :
          :  electronic temp.          300.0000000     K    :
          :  accuracy                    1.0000000          :
          :  -> integral cutoff          0.2500000E+02      :
          :  -> integral neglect         0.1000000E-07      :
          :  -> SCF convergence          0.1000000E-05 Eh   :
          :  -> wf. convergence          0.1000000E-03 e    :
          :  Broyden damping             0.4000000          :
          :  net charge                          0          :
          :  unpaired electrons                  0          :
          ...................................................

 iter      E             dE          RMSdq      gap      omega  full diag
   1    -27.4400552 -0.274401E+02  0.102E-05    5.11       0.0  T
   2    -27.4400552 -0.603961E-12  0.557E-06    5.11    4017.7  T
   3    -27.4400552 -0.781597E-13  0.365E-06    5.11    6134.6  T

   *** convergence criteria satisfied after 3 iterations ***

         #    Occupation            Energy/Eh            Energy/eV
      -------------------------------------------------------------
         1        2.0000           -0.7493742             -20.3915
       ...           ...                  ...                  ...
        18        2.0000           -0.4732710             -12.8784
        19        2.0000           -0.4619035             -12.5690
        20        2.0000           -0.4499593             -12.2440
        21        2.0000           -0.4448220             -12.1042
        22        2.0000           -0.4309975             -11.7280
        23        2.0000           -0.4273799             -11.6296
        24        2.0000           -0.4239887             -11.5373 (HOMO)
        25                         -0.2361495              -6.4260 (LUMO)
        26                         -0.0006133              -0.0167
        27                          0.0697506               1.8980
        28                          0.1121931               3.0529
        29                          0.1335325               3.6336
       ...                                ...                  ...
        44                          0.6112056              16.6318
      -------------------------------------------------------------
                  HL-Gap            0.1878392 Eh            5.1114 eV
             Fermi-level           -0.3300691 Eh           -8.9816 eV

 SCC (total)                   0 d,  0 h,  0 min,  0.009 sec
 SCC setup                      ...        0 min,  0.001 sec ( 12.942%)
 Dispersion                     ...        0 min,  0.000 sec (  0.784%)
 classical contributions        ...        0 min,  0.000 sec (  0.224%)
 integral evaluation            ...        0 min,  0.001 sec ( 16.143%)
 iterations                     ...        0 min,  0.002 sec ( 17.225%)
 molecular gradient             ...        0 min,  0.005 sec ( 51.049%)
 printout                       ...        0 min,  0.000 sec (  1.464%)

         :::::::::::::::::::::::::::::::::::::::::::::::::::::
         ::                     SUMMARY                     ::
         :::::::::::::::::::::::::::::::::::::::::::::::::::::
         :: total energy             -27.123220896819 Eh    ::
         :: total w/o Gsasa/hb       -27.122849020704 Eh    ::
         :: gradient norm              0.000052724087 Eh/a0 ::
         :: HOMO-LUMO gap              5.111363991307 eV    ::
         ::.................................................::
         :: SCC energy               -27.440038113349 Eh    ::
         :: -> isotropic ES            0.060359658125 Eh    ::
         :: -> anisotropic ES          0.000872545055 Eh    ::
         :: -> anisotropic XC          0.008147537002 Eh    ::
         :: -> dispersion             -0.011104908368 Eh    ::
         :: -> Gsolv                  -0.009903328026 Eh    ::
         ::    -> Gelec               -0.009531451911 Eh    ::
         ::    -> Gsasa                0.001259427052 Eh    ::
         ::    -> Ghb                 -0.002712062865 Eh    ::
         ::    -> Gshift               0.001080759698 Eh    ::
         :: repulsion energy           0.316817216530 Eh    ::
         :: add. restraining           0.000000000000 Eh    ::
         :: total charge              -0.000000000000 e     ::
         :::::::::::::::::::::::::::::::::::::::::::::::::::::

           ------------------------------------------------- 
          |                Numerical Hessian                |
           ------------------------------------------------- 
step length          :   0.00500
SCC accuracy         :   0.30000
Hessian scale factor :   1.00000
frozen atoms in %    :   0.00000    0
RMS gradient         :   0.00005
estimated CPU  time      0.02 min
estimated wall time      0.02 min

writing file <hessian>.

 projected vibrational frequencies (cm⁻¹)
eigval :       -0.00    -0.00    -0.00     0.00     0.00     0.00
eigval :       14.64    41.81    68.29    76.53   175.33   187.59
eigval :      231.16   261.04   289.98   407.43   488.09   582.18
eigval :      625.49   774.77   855.37   880.77   945.77   966.81
eigval :      980.64  1003.44  1016.85  1074.58  1100.20  1136.97
eigval :     1143.31  1203.39  1212.62  1236.57  1276.20  1295.25
eigval :     1326.56  1358.66  1364.07  1411.35  1421.65  1429.39
eigval :     1459.05  1464.11  1491.81  1498.14  1500.26  1691.76
eigval :     2924.38  2945.61  2968.14  2989.16  2994.32  3000.09
eigval :     3027.62  3031.67  3035.42  3044.28  3056.27  3073.65
           -------------------------------------------------
          |                Property Printout                |
           -------------------------------------------------

    * Orbital Energies and Occupations

         #    Occupation            Energy/Eh            Energy/eV
      -------------------------------------------------------------
         1        2.0000           -0.7493742             -20.3915
       ...           ...                  ...                  ...
        12        2.0000           -0.5235473             -14.2464
        13        2.0000           -0.5094293             -13.8623
        14        2.0000           -0.5040729             -13.7165
        15        2.0000           -0.4857602             -13.2182
        16        2.0000           -0.4822444             -13.1225
        17        2.0000           -0.4770888             -12.9822
        18        2.0000           -0.4732710             -12.8784
        19        2.0000           -0.4619035             -12.5690
        20        2.0000           -0.4499593             -12.2440
        21        2.0000           -0.4448220             -12.1042
        22        2.0000           -0.4309975             -11.7280
        23        2.0000           -0.4273799             -11.6296
        24        2.0000           -0.4239887             -11.5373 (HOMO)
        25                         -0.2361495              -6.4260 (LUMO)
        26                         -0.0006133              -0.0167
        27                          0.0697505               1.8980
        28                          0.1121930               3.0529
        29                          0.1335324               3.6336
        30                          0.1386346               3.7724
        31                          0.1550391               4.2188
        32                          0.1609249               4.3790
        33                          0.1670041               4.5444
        34                          0.1678929               4.5686
        35                          0.1864270               5.0729
       ...                                ...                  ...
        44                          0.6112056              16.6318
      -------------------------------------------------------------
                  HL-Gap            0.1878392 Eh            5.1114 eV
             Fermi-level           -0.3300691 Eh           -8.9816 eV

     #   Z          covCN         q      C6AA      α(0)
     1   6 C        3.752    -0.116    22.782     6.807
     2   6 C        3.801    -0.059    21.639     6.623
     3   6 C        3.802    -0.074    21.905     6.663
     4   6 C        3.699     0.075    19.490     6.314
     5   8 O        1.704    -0.265    18.397     5.791
     6   6 C        2.713     0.368    20.761     7.458
     7   8 O        0.856    -0.499    23.760     6.535
     8   6 C        3.754    -0.172    23.913     6.973
     9   1 H        0.925     0.043     2.407     2.426
    10   1 H        0.925     0.042     2.419     2.432
    11   1 H        0.925     0.042     2.424     2.435
    12   1 H        0.924     0.043     2.414     2.430
    13   1 H        0.924     0.036     2.501     2.473
    14   1 H        0.924     0.060     2.199     2.319
    15   1 H        0.924     0.063     2.161     2.299
    16   1 H        0.924     0.053     2.278     2.360
    17   1 H        0.924     0.055     2.264     2.353
    18   1 H        0.925     0.098     1.803     2.100
    19   1 H        0.925     0.110     1.698     2.038
    20   1 H        0.925     0.097     1.810     2.104

 Mol. C6AA /au·bohr⁶  :       2997.325564
 Mol. C8AA /au·bohr⁸  :      63870.232437
 Mol. α(0) /au        :         80.932296


Wiberg/Mayer (AO) data.
largest (>0.10) Wiberg bond orders for each atom

 ---------------------------------------------------------------------------
     #   Z sym  total        # sym  WBO       # sym  WBO       # sym  WBO
 ---------------------------------------------------------------------------
     1   6 C    3.995 --     2 C    1.020    10 H    0.987    11 H    0.987
                             9 H    0.987
     2   6 C    3.996 --     1 C    1.020     3 C    1.008    13 H    0.978
                            12 H    0.978
     3   6 C    3.989 --     2 C    1.008     4 C    1.006    15 H    0.973
                            14 H    0.972
     4   6 C    3.917 --     3 C    1.006    16 H    0.968    17 H    0.968
                             5 O    0.923
     5   8 O    2.320 --     6 C    1.167     4 C    0.923     7 O    0.169
     6   6 C    3.904 --     7 O    1.685     5 O    1.167     8 C    1.000
     7   8 O    1.961 --     6 C    1.685     5 O    0.169
     8   6 C    3.982 --     6 C    1.000    20 H    0.977    18 H    0.966
                            19 H    0.945
     9   1 H    0.998 --     1 C    0.987
    10   1 H    0.998 --     1 C    0.987
    11   1 H    0.998 --     1 C    0.987
    12   1 H    0.998 --     2 C    0.978
    13   1 H    0.999 --     2 C    0.978
    14   1 H    0.996 --     3 C    0.972
    15   1 H    0.996 --     3 C    0.973
    16   1 H    0.997 --     4 C    0.968
    17   1 H    0.997 --     4 C    0.968
    18   1 H    0.990 --     8 C    0.966
    19   1 H    0.988 --     8 C    0.945
    20   1 H    0.991 --     8 C    0.977
 ---------------------------------------------------------------------------

Topologies differ in total number of bonds
Writing topology from bond orders to xtbtopo.mol

molecular dipole:
                 x           y           z       tot (Debye)
 q only:       -0.913      -0.887       0.484
   full:       -0.843      -0.850       0.467       3.267
molecular quadrupole (traceless):
                xx          xy          yy          xz          yz          zz
 q only:       -0.164     -10.333       1.033       3.144       1.458      -0.869
  q+dip:       -2.536     -10.588       1.105       3.900       2.024       1.431
   full:       -2.120     -10.597       0.919       4.004       2.355       1.201

           -------------------------------------------------
          |                Geometry Summary                 |
           -------------------------------------------------

      molecular mass/u    :      116.1585142
   center of mass at/Å    :        0.0221139       0.0169523       0.0322920
  moments of inertia/u·Å² :        0.1052300E+03   0.5886776E+03   0.6497639E+03
rotational constants/cm⁻¹ :        0.1601980E+00   0.2863644E-01   0.2594424E-01

 * 18 selected distances

     #   Z          #   Z                                           value/Å
     1   6 C        2   6 C                                       1.5237538
     2   6 C        3   6 C                                       1.5278135 (max)
     3   6 C        4   6 C                                       1.5210416
     4   6 C        5   8 O                                       1.4352350
     5   8 O        6   6 C                                       1.3262455
     6   6 C        7   8 O                                       1.2150435
     1   6 C        9   1 H                                       1.0867652
     1   6 C       10   1 H                                       1.0872125
     1   6 C       11   1 H                                       1.0873729
     2   6 C       12   1 H                                       1.0912990
     2   6 C       13   1 H                                       1.0921909
     3   6 C       14   1 H                                       1.0902609
     3   6 C       15   1 H                                       1.0907313
     4   6 C       16   1 H                                       1.0953282
     4   6 C       17   1 H                                       1.0950470
     8   6 C       18   1 H                                       1.0857296
     8   6 C       19   1 H                                       1.0879650
     8   6 C       20   1 H                                       1.0844799 (min)

 * 3 distinct bonds (by element types)

   Z      Z             #   av. dist./Å        max./Å        min./Å
   1 H    6 C          12     1.0895319     1.0953282     1.0844799
   6 C    6 C           3     1.5242029     1.5278135     1.5210416
   6 C    8 O           3     1.3255080     1.4352350     1.2150435

           -------------------------------------------------
          |               Frequency Printout                |
           -------------------------------------------------
 projected vibrational frequencies (cm⁻¹)
eigval :       -0.00    -0.00    -0.00     0.00     0.00     0.00
eigval :       14.64    41.81    68.29    76.53   175.33   187.59
eigval :      231.16   261.04   289.98   407.43   488.09   582.18
eigval :      625.49   774.77   855.37   880.77   945.77   966.81
eigval :      980.64  1003.44  1016.85  1074.58  1100.20  1136.97
eigval :     1143.31  1203.39  1212.62  1236.57  1276.20  1295.25
eigval :     1326.56  1358.66  1364.07  1411.35  1421.65  1429.39
eigval :     1459.05  1464.11  1491.81  1498.14  1500.26  1691.76
eigval :     2924.38  2945.61  2968.14  2989.16  2994.32  3000.09
eigval :     3027.62  3031.67  3035.42  3044.28  3056.27  3073.65
 reduced masses (amu)
   1: 10.24   2: 12.00   3: 12.30   4: 11.08   5: 11.76   6:  9.69   7: 13.23   8:  1.66
   9:  9.14  10:  5.93  11: 10.67  12: 11.87  13:  2.53  14:  7.37  15:  9.50  16: 10.15
  17:  9.33  18:  9.65  19: 11.54  20:  2.73  21:  4.79  22:  6.99  23:  7.89  24:  5.11
  25:  9.66  26:  6.19  27:  6.54  28:  9.96  29:  8.48  30:  7.01  31:  7.00  32: 11.38
  33:  3.61  34:  3.74  35:  1.93  36:  3.66  37:  3.95  38:  3.46  39:  5.35  40:  3.21
  41:  1.66  42:  1.67  43:  1.90  44:  1.94  45:  1.87  46:  1.53  47:  1.62  48: 13.33
  49:  1.98  50:  1.46  51:  1.89  52:  1.59  53:  1.95  54:  1.51  55:  1.77  56:  1.95
  57:  1.88  58:  1.31  59:  1.48  60:  1.93
 IR intensities (km·mol⁻¹)
   1:  0.11   2:  0.77   3:  0.12   4:  0.94   5:  0.53   6:  0.92   7:  4.72   8:  2.89
   9:  0.93  10:  1.04  11:  7.49  12:  6.56  13:  0.53  14:  5.87  15:  2.10  16:  6.33
  17:  5.94  18: 17.27  19:  9.37  20:  7.25  21:  8.33  22:  6.46  23: 16.12  24:  1.06
  25:  9.48  26: 37.01  27: 37.13  28: 33.40  29: 18.26  30: 10.37  31: 20.77  32:607.59
  33: 22.05  34:  1.55  35:  0.36  36:  2.55  37:  3.42  38: 68.89  39:  1.36  40:  0.36
  41: 20.29  42:  4.71  43:  0.37  44:  0.30  45:  0.94  46:  1.70  47:  0.85  48:673.47
  49: 40.24  50: 38.16  51: 49.14  52: 28.02  53: 77.00  54: 57.91  55:  0.41  56: 84.48
  57: 78.93  58: 42.00  59:  1.44  60:  6.29
 Raman intensities (Ä⁴*amu⁻¹)
   1:  0.00   2:  0.00   3:  0.00   4:  0.00   5:  0.00   6:  0.00   7:  0.00   8:  0.00
   9:  0.00  10:  0.00  11:  0.00  12:  0.00  13:  0.00  14:  0.00  15:  0.00  16:  0.00
  17:  0.00  18:  0.00  19:  0.00  20:  0.00  21:  0.00  22:  0.00  23:  0.00  24:  0.00
  25:  0.00  26:  0.00  27:  0.00  28:  0.00  29:  0.00  30:  0.00  31:  0.00  32:  0.00
  33:  0.00  34:  0.00  35:  0.00  36:  0.00  37:  0.00  38:  0.00  39:  0.00  40:  0.00
  41:  0.00  42:  0.00  43:  0.00  44:  0.00  45:  0.00  46:  0.00  47:  0.00  48:  0.00
  49:  0.00  50:  0.00  51:  0.00  52:  0.00  53:  0.00  54:  0.00  55:  0.00  56:  0.00
  57:  0.00  58:  0.00  59:  0.00  60:  0.00
 output can be read by thermo (or use thermo option).
 writing <g98.out> molden fake output.
 recommended (thermochemical) frequency scaling factor: 1.0
           -------------------------------------------------
          |             Thermodynamic Functions             |
           -------------------------------------------------

Molecule has no symmetry elements
It seems to be the C1 point group
c1  symmetry found (for desy threshold:  0.10E+00) used in thermo

          ...................................................
          :                      SETUP                      :
          :.................................................:
          :  # frequencies                          54      :
          :  # imaginary freq.                       0      :
          :  linear?                             false      :
          :  only rotor calc.                    false      :
          :  symmetry                               c1      :
          :  rotational number                       1      :
          :  scaling factor                  1.0000000      :
          :  rotor cutoff                    0.0000000 cm⁻¹ :
          :  imag. cutoff                 -100.0000000 cm⁻¹ :
          :.................................................:

    mode    ω/cm⁻¹     T·S(HO)/kcal·mol⁻¹    T·S(FR)/kcal·mol⁻¹   T·S(vib)
   ------------------------------------------------------------------------
       1     14.64    -2.16260 (100.00%)    -1.41960 (  0.00%)    -2.16260
       2     41.81    -1.54180 (100.00%)    -1.10925 (  0.00%)    -1.54180
       3     68.29    -1.25286 (100.00%)    -0.96405 (  0.00%)    -1.25286
       4     76.53    -1.18606 (100.00%)    -0.93032 (  0.00%)    -1.18606
       5    175.33    -0.70888 (100.00%)    -0.68481 (  0.00%)    -0.70888
       6    187.59    -0.67129 (100.00%)    -0.66479 (  0.00%)    -0.67129
       7    231.16    -0.55752 (100.00%)    -0.60293 (  0.00%)    -0.55752
       8    261.04    -0.49338 (100.00%)    -0.56692 (  0.00%)    -0.49338
       9    289.98    -0.43950 (100.00%)    -0.53578 (  0.00%)    -0.43950
   ------------------------------------------------------------------------

   temp. (K)  partition function   enthalpy   heat capacity  entropy
                                   cal/mol     cal/K/mol   cal/K/mol   J/K/mol
 298.15  VIB  0.124E+05             4668.333     28.491     34.393
         ROT  0.485E+06              888.752      2.981     28.996
         INT  0.602E+10             5557.085     31.472     63.390
         TR   0.121E+28             1481.254      4.968     40.146
         TOT                        7038.3391    36.4401   103.5359   433.1943

       T/K    H(0)-H(T)+PV         H(T)/Eh          T*S/Eh         G(T)/Eh
   ------------------------------------------------------------------------
    298.15    0.112163E-01    0.182217E+00    0.491933E-01    0.133023E+00
   ------------------------------------------------------------------------

         :::::::::::::::::::::::::::::::::::::::::::::::::::::
         ::                  THERMODYNAMIC                  ::
         :::::::::::::::::::::::::::::::::::::::::::::::::::::
         :: total free energy         -26.990197485125 Eh   ::
         ::.................................................::
         :: total energy              -27.123220896767 Eh   ::
         :: zero point energy           0.171000366284 Eh   ::
         :: G(RRHO) w/o ZPVE           -0.037976954641 Eh   ::
         :: G(RRHO) contrib.            0.133023411642 Eh   ::
         :::::::::::::::::::::::::::::::::::::::::::::::::::::

optimized geometry written to: xtbopt.coord


           -------------------------------------------------
          | TOTAL ENERGY              -27.123220896767 Eh   |
          | TOTAL ENTHALPY            -26.941004223137 Eh   |
          | TOTAL FREE ENERGY         -26.990197485125 Eh   |
          | GRADIENT NORM               0.000052720383 Eh/α |
          | HOMO-LUMO GAP               5.111364539753 eV   |
           -------------------------------------------------

------------------------------------------------------------------------
 * finished run on 2025/04/11 at 16:59:07.047     
------------------------------------------------------------------------
 total:
 * wall-time:     0 d,  0 h,  0 min,  1.525 sec
 *  cpu-time:     0 d,  0 h,  0 min,  1.427 sec
 * ratio c/w:     0.936 speedup
 SCF:
 * wall-time:     0 d,  0 h,  0 min,  0.028 sec
 *  cpu-time:     0 d,  0 h,  0 min,  0.014 sec
 * ratio c/w:     0.516 speedup
 ANC optimizer:
 * wall-time:     0 d,  0 h,  0 min,  0.245 sec
 *  cpu-time:     0 d,  0 h,  0 min,  0.230 sec
 * ratio c/w:     0.938 speedup
 analytical hessian:
 * wall-time:     0 d,  0 h,  0 min,  1.183 sec
 *  cpu-time:     0 d,  0 h,  0 min,  1.171 sec
 * ratio c/w:     0.990 speedup

