14
 xtb: 6.7.1 (edcfbbe)
C            0.43078453534766        0.87419412256835        0.63069103901235
C           -0.43076377726445        0.87419984320720       -0.63068071394067
C           -1.30573463405551       -0.34138808964214       -0.83141795674627
Cl          -2.50914150453825       -0.55872332507561        0.55461885659186
C            1.30576772349357       -0.34138677515586        0.83141865258423
Cl           2.50916304517847       -0.55870052523585       -0.55463099226357
H           -0.21396232636744        0.92349567493623        1.51863446435830
H            1.04835135713931        1.77810697446442        0.64115788318573
H            0.21398283847039        0.92351805138743       -1.51862326800419
H           -1.04833971496850        1.77810668230707       -0.64113726304037
H           -1.91488361836122       -0.24785687452920       -1.73107356707641
H           -0.74057125618403       -1.27411125168581       -0.87536115297376
H            1.91492257176989       -0.24785615461883        1.73107022100351
H            0.74061199704312       -1.27411435178596        0.87535918604184
