 Entering Gaussian System
 *********************************************
 Gaussian 98:
 frequency output generated by the xtb code
 *********************************************
                         Standard orientation:
 --------------------------------------------------------------------
  Center     Atomic     Atomic              Coordinates (Angstroms)
  Number     Number      Type              X           Y           Z
 --------------------------------------------------------------------
    1          6             0       -3.709131    0.057856    0.374952
    2          6             0       -2.548487   -0.752994   -0.191355
    3          6             0       -1.406205    0.115448   -0.718485
    4          6             0       -0.683577    0.885271    0.384997
    5          6             0        0.493331    1.684630   -0.136344
    6         35             0        1.944589    0.519494   -0.803045
    7          1             0       -4.071910    0.769405   -0.363406
    8          1             0       -3.409824    0.604189    1.265420
    9          1             0       -4.529381   -0.602411    0.645238
   10          1             0       -2.164032   -1.425943    0.578043
   11          1             0       -2.917062   -1.369687   -1.013597
   12          1             0       -0.685880   -0.530549   -1.227070
   13          1             0       -1.798964    0.820630   -1.455091
   14          1             0       -1.368184    1.597584    0.849773
   15          1             0       -0.344257    0.189110    1.155320
   16          1             0        0.952926    2.288550    0.643605
   17          1             0        0.216589    2.310564   -0.982843
 --------------------------------------------------------------------
     1 basis functions        1 primitive gaussians
     1 alpha electrons        1 beta electrons
 
 Harmonic frequencies (cm**-1), IR intensities (km*mol⁻¹),
 Raman scattering activities (A**4/amu), Raman depolarization ratios,
 reduced masses (AMU), force constants (mDyne/A) and normal coordinates:
                      1                      2                      3
                        a                      a                      a 
 Frequencies --    39.0081                84.6918               119.8958
 Red. masses --    13.9587                20.9304                17.3649
 Frc consts  --     0.0000                 0.0000                 0.0000
 IR Inten    --     1.4978                 2.6248                 0.2908
 Raman Activ --     0.0000                 0.0000                 0.0000
 Depolar     --     0.0000                 0.0000                 0.0000
 Atom AN      X      Y      Z        X      Y      Z        X      Y      Z
   1   6    -0.18   0.27  -0.38    -0.00   0.24   0.28     0.40   0.20   0.05
   2   6    -0.09  -0.02   0.21    -0.34  -0.00  -0.07     0.13  -0.05  -0.15
   3   6     0.13  -0.29   0.24    -0.17  -0.25  -0.11     0.34  -0.27  -0.02
   4   6     0.09  -0.24   0.22    -0.06  -0.31  -0.14    -0.04   0.06  -0.01
   5   6    -0.00  -0.11   0.19    -0.18  -0.17  -0.19    -0.01   0.07   0.08
   6  35     0.03   0.17  -0.21     0.35   0.21   0.10    -0.38  -0.01   0.02
   7   1     0.02   0.01  -0.22     0.06   0.18   0.16     0.27   0.24   0.11
   8   1    -0.11   0.17  -0.15     0.07  -0.05   0.13     0.13  -0.14   0.13
   9   1    -0.09   0.13  -0.10    -0.07   0.13   0.03    -0.00   0.13  -0.16
  10   1    -0.11   0.06   0.16    -0.12  -0.07  -0.07    -0.01  -0.09  -0.08
  11   1     0.02  -0.08   0.09    -0.19   0.07  -0.03    -0.02   0.06  -0.08
  12   1     0.03  -0.14   0.13    -0.08  -0.11  -0.03     0.14  -0.13   0.12
  13   1     0.10  -0.10   0.02    -0.01  -0.06  -0.04     0.18  -0.14  -0.11
  14   1     0.01  -0.09   0.07    -0.01  -0.11  -0.01    -0.07   0.03  -0.10
  15   1     0.05  -0.06   0.06     0.02  -0.10  -0.07    -0.04   0.08   0.07
  16   1     0.01  -0.05   0.06    -0.10   0.01  -0.07     0.00  -0.00   0.04
  17   1    -0.04  -0.01   0.08    -0.07  -0.09  -0.08     0.01   0.04   0.03
                      4                      5                      6
                        a                      a                      a 
 Frequencies --   208.9673               226.2927               280.7857
 Red. masses --     7.5736                13.9379                 6.0160
 Frc consts  --     0.0000                 0.0000                 0.0000
 IR Inten    --     0.4692                 1.7748                 0.4927
 Raman Activ --     0.0000                 0.0000                 0.0000
 Depolar     --     0.0000                 0.0000                 0.0000
 Atom AN      X      Y      Z        X      Y      Z        X      Y      Z
   1   6    -0.27  -0.19  -0.07    -0.11  -0.04   0.10    -0.09  -0.08   0.06
   2   6    -0.10  -0.00   0.00    -0.12  -0.04   0.06    -0.21   0.05  -0.34
   3   6    -0.02   0.07   0.27    -0.09  -0.13  -0.08     0.19  -0.08   0.28
   4   6     0.00   0.19   0.17    -0.39   0.27  -0.15     0.00   0.15   0.26
   5   6    -0.01   0.05  -0.12     0.09  -0.08   0.36    -0.05   0.03  -0.10
   6  35     0.18  -0.05  -0.09     0.28   0.01  -0.15     0.07  -0.02  -0.05
   7   1     0.19   0.23   0.12    -0.05  -0.03   0.03    -0.26  -0.17  -0.01
   8   1    -0.23  -0.38   0.23    -0.02  -0.00   0.02     0.10   0.14  -0.12
   9   1    -0.22  -0.05  -0.44    -0.02  -0.02   0.05     0.11  -0.08   0.29
  10   1    -0.07  -0.05  -0.02    -0.02   0.01   0.03    -0.15  -0.16  -0.20
  11   1     0.03   0.05  -0.06    -0.05  -0.03   0.04    -0.08   0.19  -0.22
  12   1     0.01   0.02   0.10     0.02  -0.08   0.09     0.09  -0.08   0.20
  13   1     0.01   0.01   0.06     0.01  -0.13  -0.12     0.18  -0.04  -0.01
  14   1     0.01   0.09   0.02    -0.13   0.19  -0.24    -0.00   0.09  -0.00
  15   1     0.01   0.09   0.08    -0.28   0.15   0.10    -0.00   0.11   0.14
  16   1     0.02   0.07  -0.09     0.04  -0.18   0.22     0.01   0.09  -0.11
  17   1    -0.03  -0.05  -0.07     0.14   0.13   0.18    -0.06  -0.08  -0.08
                      7                      8                      9
                        a                      a                      a 
 Frequencies --   363.3932               479.6122               531.4757
 Red. masses --    11.4181                 9.0794                16.6101
 Frc consts  --     0.0000                 0.0000                 0.0000
 IR Inten    --     0.4391                 3.3072                 6.5644
 Raman Activ --     0.0000                 0.0000                 0.0000
 Depolar     --     0.0000                 0.0000                 0.0000
 Atom AN      X      Y      Z        X      Y      Z        X      Y      Z
   1   6    -0.35  -0.13   0.15    -0.09  -0.02   0.09    -0.00   0.01   0.01
   2   6    -0.11   0.23   0.03     0.24   0.43   0.04    -0.05  -0.07  -0.00
   3   6     0.21  -0.18  -0.14     0.28   0.08  -0.21    -0.01  -0.07  -0.03
   4   6     0.34  -0.07  -0.29    -0.22  -0.14   0.13    -0.03   0.01  -0.02
   5   6     0.32   0.16  -0.01    -0.38  -0.15   0.05    -0.39   0.70   0.21
   6  35    -0.17   0.05   0.09     0.08  -0.05  -0.05     0.20  -0.23  -0.08
   7   1    -0.17  -0.03   0.09    -0.12  -0.01   0.07     0.00  -0.00  -0.00
   8   1    -0.17  -0.07   0.09    -0.15  -0.03   0.08     0.01   0.01  -0.01
   9   1    -0.03  -0.15  -0.01     0.07  -0.16  -0.05    -0.01   0.02   0.02
  10   1    -0.04   0.06   0.01     0.13   0.22   0.06    -0.02  -0.03  -0.00
  11   1    -0.04   0.06   0.01     0.07   0.01   0.10    -0.03  -0.01  -0.00
  12   1    -0.00  -0.19   0.05     0.09  -0.05   0.06     0.00  -0.02   0.00
  13   1     0.15  -0.09  -0.13     0.20   0.01  -0.13    -0.01  -0.04  -0.02
  14   1     0.06  -0.08  -0.04    -0.11  -0.07  -0.00    -0.09  -0.18   0.16
  15   1     0.14  -0.03  -0.11    -0.10  -0.06   0.04     0.17  -0.05  -0.13
  16   1     0.07  -0.03   0.07    -0.10   0.05  -0.07    -0.07   0.11   0.10
  17   1     0.13   0.13   0.05    -0.17  -0.15  -0.04    -0.05   0.22   0.06
                     10                     11                     12
                        a                      a                      a 
 Frequencies --   779.3912               799.0881               854.6589
 Red. masses --     2.9402                 4.3096                 3.7398
 Frc consts  --     0.0000                 0.0000                 0.0000
 IR Inten    --    15.1561                 1.5389                 5.2081
 Raman Activ --     0.0000                 0.0000                 0.0000
 Depolar     --     0.0000                 0.0000                 0.0000
 Atom AN      X      Y      Z        X      Y      Z        X      Y      Z
   1   6    -0.06   0.06   0.06     0.10  -0.00   0.02     0.02  -0.04   0.09
   2   6     0.07   0.01   0.12     0.19   0.14   0.19     0.01  -0.08   0.14
   3   6     0.17  -0.16  -0.06    -0.00   0.04   0.21    -0.11   0.08  -0.21
   4   6     0.14  -0.14  -0.04    -0.12   0.01  -0.18    -0.06   0.08   0.04
   5   6    -0.02   0.12   0.15    -0.18  -0.15  -0.20     0.24   0.04   0.26
   6  35    -0.00  -0.02  -0.02     0.01   0.01   0.02    -0.02   0.01  -0.03
   7   1    -0.00  -0.07  -0.08     0.10  -0.15  -0.17     0.18  -0.13  -0.18
   8   1    -0.19   0.09   0.03    -0.25   0.15   0.01    -0.17   0.15  -0.02
   9   1     0.00  -0.04  -0.07     0.04  -0.08  -0.13    -0.08   0.06  -0.07
  10   1    -0.07  -0.19  -0.10    -0.02  -0.28  -0.20     0.08  -0.19  -0.16
  11   1    -0.10   0.20  -0.06    -0.07   0.38  -0.15    -0.15   0.16  -0.04
  12   1    -0.10   0.11  -0.40     0.01   0.00   0.08     0.03  -0.08   0.15
  13   1    -0.18   0.16   0.29    -0.05  -0.06   0.02     0.03  -0.15  -0.25
  14   1    -0.14   0.04  -0.38     0.01  -0.05   0.09     0.04  -0.03   0.16
  15   1    -0.14   0.18   0.25     0.09  -0.04  -0.14    -0.10  -0.18  -0.14
  16   1    -0.04   0.17  -0.05    -0.04  -0.31   0.15     0.02   0.36  -0.17
  17   1    -0.09  -0.11  -0.04     0.10   0.22   0.09    -0.06  -0.32  -0.14
                     13                     14                     15
                        a                      a                      a 
 Frequencies --   940.3268               965.7816               993.1366
 Red. masses --     7.4090                 4.5278                 6.4181
 Frc consts  --     0.0000                 0.0000                 0.0000
 IR Inten    --     3.1581                 1.4189                 0.7668
 Raman Activ --     0.0000                 0.0000                 0.0000
 Depolar     --     0.0000                 0.0000                 0.0000
 Atom AN      X      Y      Z        X      Y      Z        X      Y      Z
   1   6    -0.35   0.05   0.24    -0.05   0.23  -0.03     0.25  -0.00   0.02
   2   6     0.01  -0.33  -0.02     0.11  -0.10  -0.02    -0.14   0.08  -0.09
   3   6     0.35   0.12  -0.26     0.17  -0.21  -0.06    -0.20  -0.18  -0.20
   4   6    -0.04   0.09   0.17    -0.29   0.19   0.09    -0.09  -0.04   0.42
   5   6    -0.07  -0.07  -0.16     0.18  -0.05  -0.01     0.16   0.14  -0.23
   6  35     0.01   0.01   0.02    -0.01   0.02  -0.01     0.01   0.01   0.02
   7   1     0.14  -0.02  -0.09    -0.28   0.09   0.15     0.04  -0.12  -0.10
   8   1    -0.06   0.14  -0.02    -0.10  -0.05   0.09    -0.23   0.08   0.05
   9   1    -0.29   0.27   0.09     0.18  -0.20  -0.03     0.14  -0.17  -0.17
  10   1     0.13  -0.08  -0.07    -0.24  -0.06   0.10     0.15   0.11  -0.04
  11   1    -0.07  -0.10   0.03    -0.01   0.00  -0.01    -0.29  -0.08   0.17
  12   1     0.18   0.15  -0.10     0.18   0.22  -0.17    -0.09  -0.08  -0.05
  13   1     0.10   0.10  -0.01    -0.28  -0.12   0.10     0.08   0.07  -0.01
  14   1    -0.03  -0.02   0.08    -0.09  -0.14   0.28    -0.07  -0.02   0.05
  15   1     0.06   0.02   0.01     0.09  -0.11  -0.18     0.04   0.09   0.17
  16   1     0.09  -0.17   0.01     0.08   0.05  -0.07     0.23  -0.11  -0.06
  17   1     0.01   0.14   0.06     0.14  -0.07  -0.08     0.02   0.19   0.06
                     16                     17                     18
                        a                      a                      a 
 Frequencies --  1066.4706              1084.0240              1109.9824
 Red. masses --     5.1382                 4.1731                 7.9211
 Frc consts  --     0.0000                 0.0000                 0.0000
 IR Inten    --     4.2459                 1.9757                 2.1063
 Raman Activ --     0.0000                 0.0000                 0.0000
 Depolar     --     0.0000                 0.0000                 0.0000
 Atom AN      X      Y      Z        X      Y      Z        X      Y      Z
   1   6    -0.04  -0.14   0.01    -0.12  -0.03  -0.08    -0.15   0.33   0.17
   2   6     0.03   0.17  -0.01     0.16   0.07   0.15     0.29  -0.24  -0.28
   3   6     0.04  -0.03   0.18    -0.04   0.03  -0.06    -0.18   0.04   0.24
   4   6    -0.40  -0.18  -0.00    -0.13  -0.23   0.14    -0.07  -0.29  -0.08
   5   6     0.27   0.10  -0.08     0.17   0.21  -0.20     0.15   0.17  -0.07
   6  35    -0.01   0.01  -0.02     0.01  -0.01   0.03    -0.00  -0.01  -0.01
   7   1     0.14  -0.01  -0.05    -0.03   0.09   0.07    -0.15   0.02   0.03
   8   1     0.13   0.00  -0.07     0.18  -0.08  -0.05    -0.26   0.11   0.10
   9   1    -0.14   0.17   0.09    -0.06   0.09   0.11     0.05  -0.08  -0.07
  10   1     0.11   0.06  -0.04    -0.11  -0.11  -0.00     0.25   0.02  -0.08
  11   1     0.13   0.04  -0.05     0.20   0.15  -0.14     0.09  -0.14  -0.02
  12   1    -0.11  -0.07  -0.04    -0.02  -0.04   0.03     0.10   0.07   0.20
  13   1     0.12   0.16   0.15    -0.13  -0.14  -0.09     0.05  -0.02  -0.01
  14   1    -0.35  -0.29  -0.01    -0.04   0.01  -0.08     0.08   0.08  -0.10
  15   1     0.08   0.02  -0.01    -0.32  -0.20   0.03    -0.16  -0.06   0.05
  16   1    -0.06   0.10   0.01     0.37  -0.06  -0.15    -0.17   0.08   0.08
  17   1     0.39  -0.04  -0.18    -0.32   0.20   0.17     0.02   0.04  -0.02
                     19                     20                     21
                        a                      a                      a 
 Frequencies --  1137.0195              1183.6171              1191.7792
 Red. masses --     7.2408                 4.7798                 4.9180
 Frc consts  --     0.0000                 0.0000                 0.0000
 IR Inten    --     0.9439                 2.0232                11.6037
 Raman Activ --     0.0000                 0.0000                 0.0000
 Depolar     --     0.0000                 0.0000                 0.0000
 Atom AN      X      Y      Z        X      Y      Z        X      Y      Z
   1   6     0.21  -0.06  -0.05    -0.07  -0.02  -0.14     0.02  -0.21   0.14
   2   6    -0.37  -0.15   0.16     0.10   0.01   0.22    -0.06   0.32  -0.20
   3   6     0.29   0.35   0.07    -0.07   0.01  -0.30     0.10  -0.30   0.10
   4   6    -0.13  -0.22  -0.12     0.02  -0.14   0.33    -0.11   0.00  -0.01
   5   6     0.11   0.11  -0.10     0.03   0.09  -0.14     0.11   0.07  -0.06
   6  35    -0.00  -0.01  -0.00    -0.01  -0.01  -0.02     0.00  -0.02  -0.00
   7   1    -0.01  -0.06  -0.02    -0.07   0.09   0.09     0.23  -0.09  -0.13
   8   1    -0.05  -0.03   0.03     0.15  -0.10  -0.03     0.01   0.09  -0.06
   9   1     0.11  -0.12  -0.07     0.01   0.00   0.06    -0.14   0.11  -0.02
  10   1    -0.28  -0.02   0.15    -0.07  -0.15  -0.03    -0.01   0.20   0.05
  11   1    -0.20  -0.05   0.10    -0.05   0.15  -0.02    -0.05  -0.05   0.07
  12   1     0.18   0.16   0.09     0.04  -0.00   0.01     0.17   0.19  -0.10
  13   1     0.19   0.15   0.02    -0.03  -0.07  -0.13    -0.23  -0.09   0.14
  14   1    -0.02  -0.00  -0.10     0.22   0.20   0.04     0.30   0.23   0.14
  15   1    -0.23  -0.17  -0.05    -0.03   0.05   0.18    -0.16  -0.15  -0.08
  16   1    -0.10   0.04   0.04    -0.46   0.03   0.24    -0.23   0.07   0.10
  17   1    -0.01   0.06   0.00     0.35   0.06  -0.12    -0.15   0.06   0.07
                     22                     23                     24
                        a                      a                      a 
 Frequencies --  1248.8003              1259.4581              1281.7731
 Red. masses --     3.2290                 3.0956                 1.9923
 Frc consts  --     0.0000                 0.0000                 0.0000
 IR Inten    --    41.4123                 9.9696                 1.7380
 Raman Activ --     0.0000                 0.0000                 0.0000
 Depolar     --     0.0000                 0.0000                 0.0000
 Atom AN      X      Y      Z        X      Y      Z        X      Y      Z
   1   6     0.06  -0.05   0.15     0.10  -0.00   0.20     0.03   0.09   0.09
   2   6    -0.03   0.05  -0.12    -0.05  -0.03  -0.14    -0.01  -0.12   0.02
   3   6    -0.02   0.05  -0.02    -0.03   0.15  -0.10     0.08  -0.10  -0.07
   4   6     0.11  -0.18   0.04     0.12   0.08   0.16    -0.11   0.14   0.03
   5   6    -0.28   0.10   0.08     0.14  -0.08  -0.10    -0.04   0.02  -0.01
   6  35    -0.02   0.03   0.01     0.01  -0.02  -0.01     0.00  -0.00  -0.00
   7   1     0.10  -0.08  -0.08     0.09  -0.11  -0.10    -0.01  -0.04  -0.03
   8   1    -0.10   0.10   0.00    -0.17   0.13   0.04    -0.09   0.05   0.04
   9   1    -0.04   0.02  -0.05    -0.03   0.02  -0.06     0.04  -0.05  -0.06
  10   1    -0.24   0.07   0.14    -0.35   0.06   0.19    -0.13  -0.05   0.06
  11   1     0.18  -0.05  -0.07     0.35  -0.07  -0.15     0.35  -0.03  -0.15
  12   1     0.10   0.08   0.05    -0.09  -0.08   0.01    -0.38  -0.32  -0.21
  13   1    -0.14  -0.14  -0.08    -0.16  -0.19  -0.16     0.30   0.30   0.14
  14   1     0.11   0.10  -0.08    -0.28  -0.21  -0.08     0.26   0.20   0.19
  15   1    -0.11  -0.04   0.08     0.09   0.08   0.07    -0.19  -0.18  -0.12
  16   1     0.38  -0.13  -0.14    -0.32   0.04   0.14    -0.02   0.01   0.00
  17   1     0.52  -0.10  -0.25    -0.17   0.06   0.10     0.05   0.03  -0.01
                     25                     26                     27
                        a                      a                      a 
 Frequencies --  1307.6993              1351.0785              1370.9930
 Red. masses --     3.4604                 4.5572                 5.0724
 Frc consts  --     0.0000                 0.0000                 0.0000
 IR Inten    --     2.2008                 5.7318                 1.0476
 Raman Activ --     0.0000                 0.0000                 0.0000
 Depolar     --     0.0000                 0.0000                 0.0000
 Atom AN      X      Y      Z        X      Y      Z        X      Y      Z
   1   6     0.01  -0.01   0.06     0.04   0.13  -0.01     0.03   0.01  -0.01
   2   6     0.01   0.02   0.08    -0.49   0.01   0.21    -0.07  -0.07  -0.06
   3   6    -0.17  -0.07  -0.15     0.10  -0.05  -0.04     0.36   0.30   0.08
   4   6    -0.27  -0.21  -0.15     0.02  -0.01   0.03    -0.28  -0.21  -0.05
   5   6     0.09  -0.00   0.10    -0.00   0.01  -0.01     0.04   0.03   0.03
   6  35     0.00  -0.00   0.00    -0.00  -0.00  -0.00     0.00  -0.00   0.00
   7   1     0.04  -0.03  -0.03     0.01  -0.07  -0.09    -0.05  -0.00   0.02
   8   1    -0.00   0.03  -0.00     0.06  -0.08   0.04    -0.03   0.01   0.00
   9   1     0.00  -0.01  -0.02     0.14  -0.16  -0.08    -0.01   0.01  -0.03
  10   1    -0.20  -0.02   0.09     0.48   0.02  -0.23     0.10   0.03  -0.03
  11   1     0.21   0.07  -0.12     0.46  -0.00  -0.21    -0.10  -0.05   0.05
  12   1     0.24   0.19   0.09     0.15   0.14  -0.04    -0.33  -0.31  -0.07
  13   1     0.21   0.18   0.01    -0.13  -0.10  -0.02    -0.35  -0.26  -0.06
  14   1     0.21   0.16   0.06    -0.01  -0.00  -0.01     0.21   0.18   0.05
  15   1     0.44   0.36   0.12    -0.01  -0.01   0.01     0.27   0.19   0.06
  16   1     0.11   0.09  -0.09    -0.02  -0.02   0.02     0.06   0.02  -0.03
  17   1    -0.17  -0.00   0.08     0.02  -0.00  -0.01    -0.04  -0.01   0.01
                     28                     29                     30
                        a                      a                      a 
 Frequencies --  1412.7706              1423.2348              1465.3103
 Red. masses --     3.2470                 1.9931                 1.9209
 Frc consts  --     0.0000                 0.0000                 0.0000
 IR Inten    --     2.0554                 2.5937                 3.7264
 Raman Activ --     0.0000                 0.0000                 0.0000
 Depolar     --     0.0000                 0.0000                 0.0000
 Atom AN      X      Y      Z        X      Y      Z        X      Y      Z
   1   6     0.34  -0.21  -0.16     0.02  -0.01  -0.01     0.04   0.00   0.01
   2   6    -0.11  -0.01   0.06    -0.01   0.00  -0.00     0.01  -0.00   0.01
   3   6     0.00  -0.04  -0.03     0.00   0.01   0.02    -0.03  -0.03  -0.01
   4   6     0.01   0.00  -0.02     0.03  -0.01   0.02    -0.08   0.02   0.27
   5   6    -0.00   0.01  -0.00    -0.11  -0.27   0.04     0.01   0.03   0.01
   6  35    -0.00   0.00   0.00     0.01  -0.01  -0.00    -0.00   0.00  -0.00
   7   1    -0.37   0.14   0.33    -0.02   0.00   0.01    -0.09  -0.05  -0.01
   8   1    -0.46   0.17   0.04    -0.02   0.00   0.00     0.00  -0.03   0.02
   9   1    -0.25   0.39   0.13    -0.01   0.02   0.00    -0.06   0.06  -0.04
  10   1     0.11   0.05  -0.02     0.02   0.01  -0.01     0.01   0.02   0.01
  11   1     0.10   0.06  -0.08    -0.00   0.00  -0.00    -0.00   0.03  -0.02
  12   1     0.06   0.03   0.03    -0.00   0.01  -0.01     0.02   0.01   0.01
  13   1    -0.01   0.02   0.03    -0.02  -0.03  -0.02     0.02   0.03   0.02
  14   1     0.03  -0.01   0.05    -0.01   0.04  -0.09    -0.08   0.32  -0.56
  15   1    -0.04   0.02   0.03     0.02  -0.06  -0.05     0.39  -0.32  -0.45
  16   1    -0.00  -0.02   0.02    -0.06   0.53  -0.39    -0.00  -0.06   0.05
  17   1    -0.01  -0.02  -0.01     0.28   0.53   0.31    -0.03  -0.07  -0.04
                     31                     32                     33
                        a                      a                      a 
 Frequencies --  1483.0034              1491.0122              1500.6795
 Red. masses --     1.9141                 1.8850                 1.6295
 Frc consts  --     0.0000                 0.0000                 0.0000
 IR Inten    --     0.7198                 0.3302                 1.4822
 Raman Activ --     0.0000                 0.0000                 0.0000
 Depolar     --     0.0000                 0.0000                 0.0000
 Atom AN      X      Y      Z        X      Y      Z        X      Y      Z
   1   6     0.02   0.03   0.03     0.01  -0.06  -0.02    -0.13  -0.14  -0.07
   2   6     0.00   0.11  -0.00    -0.02   0.25   0.02    -0.05  -0.08  -0.01
   3   6     0.05   0.01  -0.25    -0.02   0.01   0.10     0.03   0.01  -0.06
   4   6     0.03   0.02  -0.02    -0.02  -0.02   0.01    -0.00   0.01   0.03
   5   6    -0.01  -0.01   0.00     0.01   0.00   0.01    -0.00  -0.00   0.00
   6  35     0.00  -0.00  -0.00    -0.00   0.00   0.00     0.00  -0.00  -0.00
   7   1    -0.07  -0.07  -0.03     0.05   0.14   0.11     0.44   0.47   0.23
   8   1     0.05  -0.03   0.01    -0.08   0.14  -0.06    -0.18   0.36  -0.18
   9   1    -0.04   0.03  -0.08     0.04  -0.03   0.03     0.27  -0.26   0.23
  10   1    -0.07  -0.20  -0.15    -0.15  -0.48  -0.35     0.05   0.09   0.06
  11   1     0.08  -0.21   0.12     0.17  -0.50   0.31     0.01   0.08  -0.08
  12   1     0.13  -0.28   0.53    -0.04   0.12  -0.19     0.02  -0.08   0.13
  13   1    -0.34   0.27   0.43     0.13  -0.10  -0.16    -0.09   0.06   0.11
  14   1    -0.02  -0.03  -0.00     0.00   0.03  -0.03    -0.02   0.03  -0.07
  15   1    -0.02  -0.00   0.00     0.05   0.00  -0.02     0.04  -0.04  -0.06
  16   1    -0.01   0.01  -0.01     0.01  -0.00   0.00    -0.00  -0.00   0.00
  17   1     0.00   0.02   0.01    -0.01  -0.01  -0.00    -0.00  -0.00  -0.00
                     34                     35                     36
                        a                      a                      a 
 Frequencies --  1506.7336              2959.8941              2965.9710
 Red. masses --     1.5465                 1.9237                 1.9252
 Frc consts  --     0.0000                 0.0000                 0.0000
 IR Inten    --     1.4445                15.7057                52.5983
 Raman Activ --     0.0000                 0.0000                 0.0000
 Depolar     --     0.0000                 0.0000                 0.0000
 Atom AN      X      Y      Z        X      Y      Z        X      Y      Z
   1   6    -0.01   0.10  -0.19    -0.00  -0.00  -0.00     0.01  -0.00   0.02
   2   6     0.01   0.05  -0.04     0.03  -0.02   0.07    -0.12   0.00  -0.24
   3   6     0.00  -0.00  -0.01    -0.16   0.20  -0.05    -0.07   0.06   0.04
   4   6    -0.01  -0.01   0.00     0.05  -0.06   0.01     0.03  -0.04   0.01
   5   6    -0.00   0.00   0.00     0.00   0.00  -0.00    -0.00   0.00  -0.01
   6  35    -0.00  -0.00   0.00    -0.00  -0.00  -0.00     0.00  -0.00  -0.00
   7   1     0.23  -0.10  -0.22     0.00  -0.00   0.00    -0.02   0.04  -0.04
   8   1    -0.34  -0.41   0.36     0.00   0.01   0.01    -0.01  -0.03  -0.05
   9   1     0.14   0.09   0.62     0.00   0.00  -0.00    -0.00  -0.00   0.01
  10   1    -0.04  -0.02  -0.02    -0.10   0.17  -0.20     0.20  -0.37   0.40
  11   1     0.02  -0.05   0.02    -0.03  -0.07  -0.08     0.21   0.37   0.47
  12   1     0.00  -0.01   0.02     0.36  -0.32  -0.27     0.25  -0.23  -0.17
  13   1    -0.03   0.00   0.02     0.24  -0.43   0.46    -0.02   0.03  -0.01
  14   1     0.03   0.03  -0.01    -0.13   0.14   0.10    -0.07   0.07   0.05
  15   1     0.02  -0.00  -0.01    -0.05   0.10  -0.12    -0.03   0.08  -0.09
  16   1     0.00   0.00  -0.00    -0.00  -0.00  -0.00    -0.00   0.00   0.00
  17   1    -0.00  -0.00  -0.00     0.00  -0.01   0.01     0.01  -0.01   0.02
                     37                     38                     39
                        a                      a                      a 
 Frequencies --  2975.4191              2977.5274              2984.0801
 Red. masses --     1.5718                 1.9388                 1.5012
 Frc consts  --     0.0000                 0.0000                 0.0000
 IR Inten    --    48.7561                68.0306                67.2127
 Raman Activ --     0.0000                 0.0000                 0.0000
 Depolar     --     0.0000                 0.0000                 0.0000
 Atom AN      X      Y      Z        X      Y      Z        X      Y      Z
   1   6     0.00   0.00  -0.01    -0.00   0.01  -0.00     0.01   0.02  -0.01
   2   6     0.03  -0.06   0.06     0.02  -0.00   0.05    -0.00  -0.19  -0.03
   3   6    -0.06   0.01   0.16     0.04  -0.08   0.08     0.04  -0.03  -0.04
   4   6    -0.05   0.08  -0.06     0.15  -0.20   0.04    -0.00  -0.01   0.05
   5   6     0.00  -0.00   0.01    -0.00   0.02  -0.03    -0.01   0.00  -0.01
   6  35     0.00  -0.00  -0.00    -0.00   0.00   0.00    -0.00   0.00   0.00
   7   1     0.01  -0.02   0.02     0.01  -0.02   0.02     0.02  -0.02   0.02
   8   1     0.00   0.01   0.01    -0.00  -0.00  -0.00    -0.01  -0.01  -0.03
   9   1    -0.01  -0.01   0.00     0.00   0.00  -0.00    -0.05  -0.04   0.02
  10   1    -0.13   0.21  -0.26    -0.04   0.08  -0.09    -0.22   0.34  -0.44
  11   1     0.02   0.02   0.05    -0.05  -0.08  -0.10     0.24   0.36   0.53
  12   1     0.41  -0.38  -0.26     0.03  -0.03  -0.00    -0.16   0.14   0.11
  13   1    -0.21   0.34  -0.33    -0.16   0.29  -0.29     0.02  -0.04   0.03
  14   1     0.04  -0.03  -0.04    -0.37   0.37   0.26     0.08  -0.09  -0.05
  15   1     0.13  -0.26   0.29    -0.17   0.36  -0.40    -0.07   0.13  -0.14
  16   1     0.00   0.00   0.00    -0.01  -0.00  -0.01     0.01   0.01   0.02
  17   1    -0.01   0.03  -0.03     0.04  -0.08   0.12     0.01  -0.02   0.03
                     40                     41                     42
                        a                      a                      a 
 Frequencies --  2986.0376              3003.4559              3006.7625
 Red. masses --     1.5249                 1.5220                 2.0003
 Frc consts  --     0.0000                 0.0000                 0.0000
 IR Inten    --    36.2099                13.4198                15.3447
 Raman Activ --     0.0000                 0.0000                 0.0000
 Depolar     --     0.0000                 0.0000                 0.0000
 Atom AN      X      Y      Z        X      Y      Z        X      Y      Z
   1   6     0.01   0.01   0.01    -0.00  -0.00  -0.00    -0.00   0.00  -0.00
   2   6    -0.01  -0.03  -0.03    -0.00  -0.00  -0.00     0.00   0.00   0.00
   3   6     0.03  -0.02  -0.06    -0.00   0.01  -0.01    -0.00  -0.00   0.01
   4   6     0.07  -0.03  -0.18    -0.02   0.04  -0.02     0.00  -0.01   0.05
   5   6     0.03   0.00   0.05     0.00   0.20  -0.08     0.13   0.05   0.26
   6  35     0.00   0.00   0.00    -0.00   0.00   0.00    -0.00   0.00   0.00
   7   1     0.00   0.00  -0.00    -0.00   0.01  -0.01     0.00  -0.01   0.01
   8   1    -0.01  -0.02  -0.03     0.00   0.00   0.01     0.00   0.00   0.01
   9   1    -0.01  -0.01   0.01     0.00   0.00  -0.00    -0.00  -0.00  -0.00
  10   1    -0.02   0.02  -0.04     0.00  -0.00   0.00    -0.00   0.01  -0.01
  11   1     0.06   0.09   0.13     0.00   0.00   0.00    -0.00  -0.01  -0.01
  12   1    -0.16   0.14   0.10    -0.00   0.00  -0.00     0.03  -0.03  -0.02
  13   1     0.05  -0.09   0.08     0.01  -0.02   0.02    -0.02   0.03  -0.03
  14   1    -0.45   0.46   0.27     0.04  -0.04  -0.03     0.07  -0.07  -0.04
  15   1     0.19  -0.37   0.37     0.04  -0.08   0.09    -0.06   0.11  -0.12
  16   1    -0.06  -0.08  -0.11    -0.22  -0.25  -0.38    -0.34  -0.45  -0.57
  17   1    -0.03   0.07  -0.10     0.22  -0.45   0.65    -0.11   0.28  -0.35
                     43                     44                     45
                        a                      a                      a 
 Frequencies --  3028.4135              3033.9314              3044.9950
 Red. masses --     1.8804                 1.9325                 1.3307
 Frc consts  --     0.0000                 0.0000                 0.0000
 IR Inten    --    77.3459                81.6489                40.9991
 Raman Activ --     0.0000                 0.0000                 0.0000
 Depolar     --     0.0000                 0.0000                 0.0000
 Atom AN      X      Y      Z        X      Y      Z        X      Y      Z
   1   6    -0.03   0.19  -0.20     0.20   0.17   0.12    -0.08   0.04   0.14
   2   6    -0.01   0.02  -0.02     0.01   0.02   0.02     0.00  -0.00   0.01
   3   6    -0.00   0.00  -0.00    -0.00   0.00   0.00    -0.00   0.00  -0.00
   4   6    -0.00   0.00  -0.00    -0.00   0.00   0.00    -0.00   0.00   0.00
   5   6    -0.00   0.00  -0.00    -0.00   0.00  -0.00     0.00   0.00   0.00
   6  35    -0.00   0.00   0.00    -0.00   0.00   0.00    -0.00   0.00   0.00
   7   1     0.30  -0.59   0.62    -0.03   0.14  -0.10     0.08  -0.17   0.21
   8   1     0.03   0.08   0.05    -0.16  -0.30  -0.52    -0.23  -0.37  -0.59
   9   1    -0.23  -0.16   0.04    -0.52  -0.43   0.20     0.44   0.38  -0.12
  10   1     0.03  -0.05   0.06     0.00  -0.00   0.01    -0.01   0.01  -0.02
  11   1     0.00   0.00  -0.00    -0.03  -0.05  -0.07    -0.01  -0.00  -0.01
  12   1     0.01  -0.01  -0.01     0.01  -0.01  -0.01     0.00  -0.00  -0.00
  13   1     0.01  -0.01   0.01     0.00  -0.00   0.00     0.00  -0.00   0.00
  14   1    -0.00   0.00   0.00     0.01  -0.02  -0.01     0.01  -0.02  -0.01
  15   1     0.00  -0.01   0.01    -0.00   0.00  -0.00    -0.00   0.00  -0.00
  16   1     0.00   0.00   0.00    -0.00  -0.00  -0.00    -0.00  -0.00  -0.00
  17   1     0.00  -0.01   0.01     0.00  -0.00   0.00     0.00  -0.00   0.00
