      -----------------------------------------------------------      
     |                   =====================                   |     
     |                           x T B                           |     
     |                   =====================                   |     
     |                         S. Grimme                         |     
     |          Mulliken Center for Theoretical Chemistry        |     
     |                    University of Bonn                     |     
      -----------------------------------------------------------      

   * xtb version 6.7.1 (edcfbbe) compiled by 'albert@albert-system' on 2024-07-22

   xtb is free software: you can redistribute it and/or modify it under
   the terms of the GNU Lesser General Public License as published by
   the Free Software Foundation, either version 3 of the License, or
   (at your option) any later version.
   
   xtb is distributed in the hope that it will be useful,
   but WITHOUT ANY WARRANTY; without even the implied warranty of
   MERCHANTABILITY or FITNESS FOR A PARTICULAR PURPOSE.  See the
   GNU Lesser General Public License for more details.
   
   Cite this work as:
   * C. Bannwarth, E. Caldeweyher, S. Ehlert, A. Hansen, P. Pracht,
     J. Seibert, S. Spicher, S. Grimme, WIREs Comput. Mol. Sci., 2020, 11,
     e01493. DOI: 10.1002/wcms.1493
   
   for GFN2-xTB:
   * C. Bannwarth, S. Ehlert and S. Grimme., J. Chem. Theory Comput., 2019,
     15, 1652-1671. DOI: 10.1021/acs.jctc.8b01176
   for GFN1-xTB:
   * S. Grimme, C. Bannwarth, P. Shushkov, J. Chem. Theory Comput., 2017,
     13, 1989-2009. DOI: 10.1021/acs.jctc.7b00118
   for GFN0-xTB:
   * P. Pracht, E. Caldeweyher, S. Ehlert, S. Grimme, ChemRxiv, 2019, preprint.
     DOI: 10.26434/chemrxiv.8326202.v1
   for GFN-FF:
   * S. Spicher and S. Grimme, Angew. Chem. Int. Ed., 2020, 59, 15665-15673.
     DOI: 10.1002/anie.202004239
   
   for ALPB and GBSA implicit solvation:
   * S. Ehlert, M. Stahn, S. Spicher, S. Grimme, J. Chem. Theory Comput.,
     2021, 17, 4250-4261. DOI: 10.1021/acs.jctc.1c00471
   
   for ddCOSMO and CPCM-X implicit solvation:
   * M. Stahn, S. Ehlert, S. Grimme, J. Phys. Chem. A,
     2023, XX, XXXX-XXXX. DOI: 10.1021/acs.jpca.3c04382
   
   for DFT-D4:
   * E. Caldeweyher, C. Bannwarth and S. Grimme, J. Chem. Phys., 2017,
     147, 034112. DOI: 10.1063/1.4993215
   * E. Caldeweyher, S. Ehlert, A. Hansen, H. Neugebauer, S. Spicher,
     C. Bannwarth and S. Grimme, J. Chem. Phys., 2019, 150, 154122.
     DOI: 10.1063/1.5090222
   * E. Caldeweyher, J.-M. Mewes, S. Ehlert and S. Grimme, Phys. Chem. Chem. Phys.
     2020, 22, 8499-8512. DOI: 10.1039/D0CP00502A
   
   for sTDA-xTB:
   * S. Grimme and C. Bannwarth, J. Chem. Phys., 2016, 145, 054103.
     DOI: 10.1063/1.4959605
   
   in the mass-spec context:
   * V. Asgeirsson, C. Bauer and S. Grimme, Chem. Sci., 2017, 8, 4879.
     DOI: 10.1039/c7sc00601b
   * J. Koopman and S. Grimme, ACS Omega 2019, 4, 12, 15120-15133.
     DOI: 10.1021/acsomega.9b02011
   
   for metadynamics refer to:
   * S. Grimme, J. Chem. Theory Comput., 2019, 155, 2847-2862
     DOI: 10.1021/acs.jctc.9b00143
   
   for SPH calculations refer to:
   * S. Spicher and S. Grimme, J. Chem. Theory Comput., 2021, 17, 1701-1714
     DOI: 10.1021/acs.jctc.0c01306
   
   for ONIOM refer to:
   * C. Plett, A. Katbashev, S. Ehlert, S. Grimme, M. Bursch,
     Phys. Chem. Chem. Phys., 2023, 25, 17860-17868. DOI: 10.1039/D3CP02178E
   
   for DIPRO refer to:
   * J. Kohn, N. Gildemeister, S. Grimme, D. Fazzi, A. Hansen,
     J. Chem. Phys., 2023, just accepted.
   
   for PTB refer to:
   * S. Grimme, M. Mueller, A. Hansen, J. Chem. Phys., 2023, 158, 124111.
     DOI: 10.1063/5.0137838
   
   with help from (in alphabetical order)
   P. Atkinson, C. Bannwarth, F. Bohle, G. Brandenburg, E. Caldeweyher
   M. Checinski, S. Dohm, S. Ehlert, S. Ehrlich, I. Gerasimov, C. Hölzer
   A. Katbashev, J. Kohn, J. Koopman, C. Lavigne, S. Lehtola, F. März, M. Müller,
   F. Musil, H. Neugebauer, J. Pisarek, C. Plett, P. Pracht, F. Pultar,
   J. Seibert, P. Shushkov, S. Spicher, M. Stahn, M. Steiner, T. Strunk,
   J. Stückrath, T. Rose, and J. Unsleber
   
 * started run on 2025/04/11 at 16:15:25.854     
   ID    Z sym.   atoms
    1    6 C      1-4, 7, 10, 12
    2    7 N      5, 9
    3    8 O      6, 8
    4   16 S      11
    5    1 H      13-26

           -------------------------------------------------
          |                Calculation Setup                |
           -------------------------------------------------

          program call               : /srv/scratch/z5358697/.xtb/bin/xtb solv.coord --gfn2 --sp --chrg 0 --norestart --parallel 1 --alpb water reference -I xtb_sp-xcontrol-inp
          hostname                   : k073
          coordinate file            : solv.coord
          omp threads                :                     1


           -------------------------------------------------
          |                 G F N 2 - x T B                 |
           -------------------------------------------------

        Reference                      10.1021/acs.jctc.8b01176
      * Hamiltonian:
        H0-scaling (s, p, d)           1.850000    2.230000    2.230000
        zeta-weighting                 0.500000
      * Dispersion:
        s8                             2.700000
        a1                             0.520000
        a2                             5.000000
        s9                             5.000000
      * Repulsion:
        kExp                           1.500000    1.000000
        rExp                           1.000000
      * Coulomb:
        alpha                          2.000000
        third order                    shell-resolved
        anisotropic                    true
        a3                             3.000000
        a5                             4.000000
        cn-shift                       1.200000
        cn-exp                         4.000000
        max-rad                        5.000000

      * Solvation model:               ALPB
        Solvent                        water
        Parameter file                 internal GFN2-xTB/ALPB
        Dielectric constant                8.0200E+01
        Reference state                gsolv=reference [X=1]
        Free energy shift                  2.8945E-03 Eh       1.8164E+00 kcal/mol
        Temperature                        2.9815E+02 K
        Density                            1.0000E+00 kg/L
        Solvent mass                       1.8000E+01 g/mol
        Interaction kernel             P16
        Born radius scaling (c1)           1.4744E+00
        Born radii integrator          GBOBC
        Born offset                        0.0000E+00 a0       0.0000E+00 AA
        H-bond correction              true
        Ion screening                  false
        Surface tension                    1.0000E-05 Eh       1.5569E+01 dyn/cm
        Grid points                               974 per atom

          ...................................................
          :                      SETUP                      :
          :.................................................:
          :  # basis functions                  68          :
          :  # atomic orbitals                  67          :
          :  # shells                           39          :
          :  # electrons                        70          :
          :  max. iterations                   250          :
          :  Hamiltonian                  GFN2-xTB          :
          :  restarted?                      false          :
          :  GBSA solvation                   true          :
          :  PC potential                    false          :
          :  electronic temp.          300.0000000     K    :
          :  accuracy                    1.0000000          :
          :  -> integral cutoff          0.2500000E+02      :
          :  -> integral neglect         0.1000000E-07      :
          :  -> SCF convergence          0.1000000E-05 Eh   :
          :  -> wf. convergence          0.1000000E-03 e    :
          :  Broyden damping             0.4000000          :
          :  net charge                          0          :
          :  unpaired electrons                  0          :
          ...................................................

 iter      E             dE          RMSdq      gap      omega  full diag
   1    -39.6888245 -0.396888E+02  0.449E+00    3.65       0.0  T
   2    -39.7552262 -0.664017E-01  0.241E+00    3.14       1.0  T
   3    -39.7575266 -0.230044E-02  0.814E-01    2.64       1.0  T
   4    -39.7581593 -0.632680E-03  0.325E-01    2.72       1.0  T
   5    -39.7586810 -0.521703E-03  0.129E-01    2.68       1.0  T
   6    -39.7587415 -0.604669E-04  0.447E-02    2.71       1.0  T
   7    -39.7587466 -0.517410E-05  0.204E-02    2.71       1.0  T
   8    -39.7587487 -0.204894E-05  0.936E-03    2.71       2.1  T
   9    -39.7587489 -0.238524E-06  0.330E-03    2.71       5.9  T
  10    -39.7587490 -0.507809E-07  0.141E-03    2.71      13.9  T
  11    -39.7587490 -0.679844E-08  0.375E-04    2.71      52.3  T
  12    -39.7587490 -0.456090E-09  0.204E-04    2.71      95.9  T

   *** convergence criteria satisfied after 12 iterations ***

         #    Occupation            Energy/Eh            Energy/eV
      -------------------------------------------------------------
         1        2.0000           -0.7560374             -20.5728
       ...           ...                  ...                  ...
        29        2.0000           -0.4639875             -12.6257
        30        2.0000           -0.4537793             -12.3480
        31        2.0000           -0.4409125             -11.9978
        32        2.0000           -0.4306377             -11.7182
        33        2.0000           -0.4170492             -11.3485
        34        2.0000           -0.3982944             -10.8381
        35        2.0000           -0.3656391              -9.9495 (HOMO)
        36                         -0.2661667              -7.2428 (LUMO)
        37                         -0.2069689              -5.6319
        38                         -0.1977751              -5.3817
        39                         -0.1595815              -4.3424
        40                         -0.1025824              -2.7914
       ...                                ...                  ...
        67                          0.6387485              17.3812
      -------------------------------------------------------------
                  HL-Gap            0.0994724 Eh            2.7068 eV
             Fermi-level           -0.3159029 Eh           -8.5962 eV

 SCC (total)                   0 d,  0 h,  0 min,  0.036 sec
 SCC setup                      ...        0 min,  0.002 sec (  4.756%)
 Dispersion                     ...        0 min,  0.000 sec (  0.512%)
 classical contributions        ...        0 min,  0.000 sec (  0.094%)
 integral evaluation            ...        0 min,  0.010 sec ( 28.893%)
 iterations                     ...        0 min,  0.013 sec ( 37.412%)
 molecular gradient             ...        0 min,  0.010 sec ( 27.755%)
 printout                       ...        0 min,  0.000 sec (  0.525%)

         :::::::::::::::::::::::::::::::::::::::::::::::::::::
         ::                     SUMMARY                     ::
         :::::::::::::::::::::::::::::::::::::::::::::::::::::
         :: total energy             -39.326861794109 Eh    ::
         :: total w/o Gsasa/hb       -39.324575746742 Eh    ::
         :: gradient norm              0.000094428276 Eh/a0 ::
         :: HOMO-LUMO gap              2.706780644731 eV    ::
         ::.................................................::
         :: SCC energy               -39.758658678245 Eh    ::
         :: -> isotropic ES            0.086877280853 Eh    ::
         :: -> anisotropic ES         -0.005219462119 Eh    ::
         :: -> anisotropic XC          0.024563466377 Eh    ::
         :: -> dispersion             -0.022513365488 Eh    ::
         :: -> Gsolv                  -0.020052229893 Eh    ::
         ::    -> Gelec               -0.017766182526 Eh    ::
         ::    -> Gsasa               -0.000423557134 Eh    ::
         ::    -> Ghb                 -0.004757039394 Eh    ::
         ::    -> Gshift               0.002894549160 Eh    ::
         :: repulsion energy           0.431796884136 Eh    ::
         :: add. restraining           0.000000000000 Eh    ::
         :: total charge              -0.000000000000 e     ::
         :::::::::::::::::::::::::::::::::::::::::::::::::::::

           -------------------------------------------------
          |                Property Printout                |
           -------------------------------------------------

    * Orbital Energies and Occupations

         #    Occupation            Energy/Eh            Energy/eV
      -------------------------------------------------------------
         1        2.0000           -0.7560374             -20.5728
       ...           ...                  ...                  ...
        23        2.0000           -0.4905035             -13.3473
        24        2.0000           -0.4835834             -13.1590
        25        2.0000           -0.4799859             -13.0611
        26        2.0000           -0.4735846             -12.8869
        27        2.0000           -0.4729349             -12.8692
        28        2.0000           -0.4689915             -12.7619
        29        2.0000           -0.4639875             -12.6257
        30        2.0000           -0.4537793             -12.3480
        31        2.0000           -0.4409125             -11.9978
        32        2.0000           -0.4306377             -11.7182
        33        2.0000           -0.4170492             -11.3485
        34        2.0000           -0.3982944             -10.8381
        35        2.0000           -0.3656391              -9.9495 (HOMO)
        36                         -0.2661667              -7.2428 (LUMO)
        37                         -0.2069689              -5.6319
        38                         -0.1977751              -5.3817
        39                         -0.1595815              -4.3424
        40                         -0.1025824              -2.7914
        41                         -0.0124510              -0.3388
        42                         -0.0007193              -0.0196
        43                          0.0095196               0.2590
        44                          0.0175536               0.4777
        45                          0.0530699               1.4441
        46                          0.1082425               2.9454
       ...                                ...                  ...
        67                          0.6387485              17.3812
      -------------------------------------------------------------
                  HL-Gap            0.0994724 Eh            2.7068 eV
             Fermi-level           -0.3159029 Eh           -8.5962 eV

     #   Z          covCN         q      C6AA      α(0)
     1   6 C        3.821    -0.099    22.377     6.732
     2   6 C        3.891     0.071    19.345     6.253
     3   6 C        3.776    -0.113    22.692     6.787
     4   6 C        2.956     0.074    26.352     8.420
     5   7 N        1.831    -0.130    24.592     7.349
     6   8 O        1.771    -0.269    18.442     5.799
     7   6 C        2.638     0.408    20.124     7.338
     8   8 O        0.857    -0.543    24.769     6.673
     9   7 N        2.686    -0.190    25.122     7.444
    10   6 C        3.691    -0.066    21.953     6.705
    11  16 S        2.151    -0.226   150.727    20.663
    12   6 C        3.745    -0.067    21.861     6.670
    13   1 H        0.925     0.045     2.387     2.416
    14   1 H        0.925     0.046     2.373     2.409
    15   1 H        0.925     0.060     2.194     2.316
    16   1 H        0.925     0.057     2.238     2.339
    17   1 H        0.925     0.058     2.224     2.332
    18   1 H        0.925     0.067     2.120     2.277
    19   1 H        0.925     0.087     1.910     2.161
    20   1 H        0.860     0.243     0.909     1.494
    21   1 H        0.925     0.082     1.953     2.186
    22   1 H        0.925     0.088     1.896     2.153
    23   1 H        0.925     0.088     1.898     2.155
    24   1 H        0.925     0.078     1.996     2.210
    25   1 H        0.925     0.064     2.148     2.292
    26   1 H        0.926     0.087     1.909     2.161

 Mol. C6AA /au·bohr⁶  :       7039.912260
 Mol. C8AA /au·bohr⁸  :     175236.655428
 Mol. α(0) /au        :        127.733105


Wiberg/Mayer (AO) data.
largest (>0.10) Wiberg bond orders for each atom

 ---------------------------------------------------------------------------
     #   Z sym  total        # sym  WBO       # sym  WBO       # sym  WBO
 ---------------------------------------------------------------------------
     1   6 C    3.993 --     2 C    1.004    14 H    0.984    15 H    0.981
                            13 H    0.976
     2   6 C    3.971 --     4 C    1.009     1 C    1.004     3 C    0.994
                            11 S    0.893
     3   6 C    3.989 --     2 C    0.994    17 H    0.981    18 H    0.980
                            16 H    0.974
     4   6 C    3.953 --     5 N    1.852     2 C    1.009    19 H    0.935
     5   7 N    2.992 --     4 C    1.852     6 O    0.947
     6   8 O    2.229 --     7 C    1.019     5 N    0.947     8 O    0.117
     7   6 C    3.935 --     8 O    1.568     9 N    1.282     6 O    1.019
     8   8 O    1.907 --     7 C    1.568     9 N    0.173     6 O    0.117
     9   7 N    3.443 --     7 C    1.282    10 C    0.991    20 H    0.913
                             8 O    0.173
    10   6 C    3.940 --     9 N    0.991    21 H    0.978    23 H    0.973
                            22 H    0.972
    11  16 S    2.136 --    12 C    1.013     2 C    0.893
    12   6 C    3.967 --    11 S    1.013    24 H    0.979    25 H    0.977
                            26 H    0.970
    13   1 H    0.998 --     1 C    0.976
    14   1 H    0.998 --     1 C    0.984
    15   1 H    0.996 --     1 C    0.981
    16   1 H    0.997 --     3 C    0.974
    17   1 H    0.997 --     3 C    0.981
    18   1 H    0.995 --     3 C    0.980
    19   1 H    0.992 --     4 C    0.935
    20   1 H    0.941 --     9 N    0.913
    21   1 H    0.993 --    10 C    0.978
    22   1 H    0.992 --    10 C    0.972
    23   1 H    0.992 --    10 C    0.973
    24   1 H    0.994 --    12 C    0.979
    25   1 H    0.996 --    12 C    0.977
    26   1 H    0.992 --    12 C    0.970
 ---------------------------------------------------------------------------

Topologies differ in total number of bonds
Writing topology from bond orders to xtbtopo.mol

molecular dipole:
                 x           y           z       tot (Debye)
 q only:       -0.115       0.263      -0.847
   full:       -0.089       0.122      -0.886       2.283
molecular quadrupole (traceless):
                xx          xy          yy          xz          yz          zz
 q only:       24.754     -10.315     -16.156      10.300       0.148      -8.598
  q+dip:       24.379     -13.780     -16.583       9.273      -0.247      -7.795
   full:       24.842     -13.173     -15.993      10.411      -0.423      -8.849


           -------------------------------------------------
          | TOTAL ENERGY              -39.326861794109 Eh   |
          | GRADIENT NORM               0.000094428276 Eh/α |
          | HOMO-LUMO GAP               2.706780644731 eV   |
           -------------------------------------------------

------------------------------------------------------------------------
 * finished run on 2025/04/11 at 16:15:25.937     
------------------------------------------------------------------------
 total:
 * wall-time:     0 d,  0 h,  0 min,  0.083 sec
 *  cpu-time:     0 d,  0 h,  0 min,  0.040 sec
 * ratio c/w:     0.486 speedup
 SCF:
 * wall-time:     0 d,  0 h,  0 min,  0.036 sec
 *  cpu-time:     0 d,  0 h,  0 min,  0.030 sec
 * ratio c/w:     0.827 speedup

