 Entering Gaussian System
 *********************************************
 Gaussian 98:
 frequency output generated by the xtb code
 *********************************************
                         Standard orientation:
 --------------------------------------------------------------------
  Center     Atomic     Atomic              Coordinates (Angstroms)
  Number     Number      Type              X           Y           Z
 --------------------------------------------------------------------
    1          6             0        3.648148   -0.472847    0.169120
    2          6             0        2.267857   -0.404873   -0.472038
    3          6             0        1.276806    0.357195    0.419364
    4          6             0       -0.056479    0.461110   -0.218817
    5          6             0       -1.208797    0.067565    0.337681
    6          6             0       -2.473337    0.195179   -0.347324
    7          8             0       -3.555749   -0.140132    0.099572
    8          1             0        3.597948   -0.973284    1.133140
    9          1             0        4.333639   -1.025493   -0.468132
   10          1             0        4.049698    0.526149    0.321205
   11          1             0        1.891693   -1.415863   -0.639107
   12          1             0        2.339284    0.090789   -1.441639
   13          1             0        1.664649    1.368285    0.572845
   14          1             0        1.198225   -0.131155    1.391113
   15          1             0       -0.071880    0.881215   -1.217202
   16          1             0       -1.241543   -0.361612    1.329177
   17          1             0       -2.411109    0.636992   -1.359462
 --------------------------------------------------------------------
     1 basis functions        1 primitive gaussians
     1 alpha electrons        1 beta electrons
 
 Harmonic frequencies (cm**-1), IR intensities (km*mol⁻¹),
 Raman scattering activities (A**4/amu), Raman depolarization ratios,
 reduced masses (AMU), force constants (mDyne/A) and normal coordinates:
                      1                      2                      3
                        a                      a                      a 
 Frequencies --    41.8681                76.2329               128.8646
 Red. masses --    10.6257                 7.6736                 8.4842
 Frc consts  --     0.0000                 0.0000                 0.0000
 IR Inten    --     4.0837                 1.4501                 1.8005
 Raman Activ --     0.0000                 0.0000                 0.0000
 Depolar     --     0.0000                 0.0000                 0.0000
 Atom AN      X      Y      Z        X      Y      Z        X      Y      Z
   1   6    -0.18  -0.34  -0.04    -0.12  -0.30   0.33    -0.02   0.11   0.19
   2   6    -0.21  -0.06   0.05     0.15   0.33  -0.19     0.03  -0.11   0.05
   3   6     0.06   0.36  -0.00    -0.01   0.11  -0.19    -0.03   0.02  -0.12
   4   6     0.03   0.42   0.07    -0.01  -0.03  -0.22    -0.00   0.14  -0.17
   5   6     0.10   0.10  -0.01     0.03   0.05  -0.08     0.10  -0.48  -0.39
   6   6     0.07   0.02   0.03    -0.04  -0.12   0.02    -0.07   0.13   0.05
   7   8     0.17  -0.45  -0.10     0.02  -0.02   0.27     0.01   0.13   0.29
   8   1    -0.07  -0.05   0.01    -0.18  -0.25   0.00    -0.03   0.12   0.10
   9   1    -0.11  -0.18   0.00     0.01  -0.01   0.08     0.01  -0.02   0.12
  10   1     0.03  -0.12  -0.07    -0.00  -0.13   0.32    -0.02   0.05  -0.02
  11   1    -0.15   0.00   0.07     0.00   0.14  -0.23     0.02  -0.04   0.07
  12   1    -0.04  -0.07  -0.01     0.18   0.22   0.02     0.02  -0.08  -0.01
  13   1     0.08   0.09  -0.08    -0.05   0.04  -0.02     0.01  -0.00  -0.04
  14   1     0.02   0.17   0.03     0.00   0.00  -0.07    -0.04   0.01  -0.03
  15   1    -0.01   0.19   0.05    -0.01  -0.06  -0.08    -0.02   0.25   0.04
  16   1     0.05  -0.04  -0.03     0.03   0.07   0.00     0.08  -0.35  -0.20
  17   1    -0.01   0.10   0.05    -0.05  -0.11  -0.03    -0.10   0.22   0.09
                      4                      5                      6
                        a                      a                      a 
 Frequencies --   152.8095               228.8330               237.1884
 Red. masses --    10.5281                 7.0000                 4.3426
 Frc consts  --     0.0000                 0.0000                 0.0000
 IR Inten    --     8.3901                 5.2383                 1.6294
 Raman Activ --     0.0000                 0.0000                 0.0000
 Depolar     --     0.0000                 0.0000                 0.0000
 Atom AN      X      Y      Z        X      Y      Z        X      Y      Z
   1   6    -0.07  -0.10  -0.15    -0.01  -0.03   0.10     0.02  -0.04  -0.05
   2   6    -0.14   0.16   0.04     0.13   0.14  -0.19     0.01   0.16  -0.01
   3   6     0.04   0.29   0.15     0.07   0.10  -0.21    -0.07  -0.20   0.20
   4   6     0.01  -0.01   0.18    -0.10  -0.23   0.11     0.06   0.13  -0.04
   5   6     0.06  -0.40   0.01    -0.03  -0.20   0.29    -0.02   0.18  -0.18
   6   6     0.15  -0.40  -0.15     0.04   0.13   0.20    -0.05  -0.12  -0.15
   7   8    -0.04   0.45  -0.02    -0.13   0.03  -0.29     0.06  -0.03   0.20
   8   1    -0.00  -0.05  -0.05    -0.14   0.27   0.17    -0.08   0.33   0.16
   9   1    -0.08  -0.05  -0.08    -0.06  -0.30   0.22    -0.13  -0.38   0.16
  10   1     0.04  -0.05  -0.04     0.16  -0.04  -0.22     0.22  -0.04  -0.37
  11   1    -0.09   0.07   0.02     0.02   0.05  -0.09     0.01   0.06  -0.09
  12   1    -0.05   0.05   0.01     0.10   0.06  -0.04     0.01   0.13   0.04
  13   1     0.00   0.09  -0.02    -0.04   0.06  -0.14    -0.01  -0.09   0.24
  14   1     0.05   0.12   0.06     0.11   0.08  -0.03    -0.09  -0.20  -0.02
  15   1    -0.02   0.02   0.06    -0.10  -0.08   0.02     0.08   0.05  -0.01
  16   1     0.00  -0.11   0.00    -0.01  -0.08   0.07    -0.02   0.08  -0.04
  17   1     0.12  -0.30  -0.12     0.09   0.18   0.12    -0.06  -0.17  -0.10
                      7                      8                      9
                        a                      a                      a 
 Frequencies --   303.1380               366.8386               480.4620
 Red. masses --     8.8858                 9.8269                 9.0216
 Frc consts  --     0.0000                 0.0000                 0.0000
 IR Inten    --     2.9204                 1.8941                 6.1594
 Raman Activ --     0.0000                 0.0000                 0.0000
 Depolar     --     0.0000                 0.0000                 0.0000
 Atom AN      X      Y      Z        X      Y      Z        X      Y      Z
   1   6     0.40  -0.22  -0.17     0.30  -0.06   0.06     0.15  -0.06  -0.03
   2   6     0.17   0.17   0.31     0.30  -0.15  -0.08     0.00   0.06   0.22
   3   6    -0.00   0.23   0.13     0.14  -0.05  -0.19    -0.36  -0.06  -0.11
   4   6    -0.02  -0.19  -0.09    -0.12   0.40   0.21    -0.18   0.18  -0.40
   5   6    -0.14  -0.04  -0.19    -0.14   0.10   0.08     0.19  -0.03   0.20
   6   6    -0.25   0.14  -0.02    -0.21  -0.22  -0.01     0.20  -0.12   0.30
   7   8    -0.19  -0.09   0.05    -0.36   0.03  -0.05    -0.03   0.08  -0.18
   8   1     0.20  -0.11  -0.07     0.08  -0.03   0.01     0.12  -0.04  -0.02
   9   1    -0.02  -0.10  -0.17     0.11   0.00   0.03    -0.05  -0.03  -0.10
  10   1     0.23  -0.11  -0.06     0.07  -0.01   0.03     0.10  -0.04  -0.03
  11   1     0.01   0.06   0.09     0.11  -0.05  -0.00     0.02   0.01   0.05
  12   1     0.03   0.04   0.08     0.11  -0.08  -0.04     0.01   0.01   0.06
  13   1    -0.08   0.11  -0.04     0.10  -0.04  -0.05    -0.10  -0.04   0.13
  14   1     0.00   0.14   0.08     0.06  -0.03  -0.06    -0.27  -0.11  -0.09
  15   1     0.03  -0.12  -0.05    -0.08   0.28   0.13    -0.12   0.08  -0.09
  16   1    -0.06   0.01  -0.04    -0.02  -0.07  -0.02     0.22  -0.02   0.06
  17   1    -0.13   0.17   0.05    -0.02  -0.22  -0.07     0.16  -0.05   0.08
                     10                     11                     12
                        a                      a                      a 
 Frequencies --   561.8248               759.2951               788.1966
 Red. masses --    11.3259                 4.5447                 2.7030
 Frc consts  --     0.0000                 0.0000                 0.0000
 IR Inten    --    15.5005                 3.3128                18.4622
 Raman Activ --     0.0000                 0.0000                 0.0000
 Depolar     --     0.0000                 0.0000                 0.0000
 Atom AN      X      Y      Z        X      Y      Z        X      Y      Z
   1   6     0.14  -0.04   0.02     0.07  -0.01   0.01     0.03  -0.04   0.03
   2   6     0.06   0.01   0.05     0.05  -0.02  -0.10    -0.04  -0.22   0.07
   3   6    -0.25  -0.04  -0.19     0.02   0.11  -0.04    -0.10  -0.10   0.05
   4   6    -0.35  -0.02   0.16    -0.13   0.35   0.14    -0.05   0.22   0.05
   5   6    -0.27  -0.03   0.15    -0.02  -0.33  -0.07     0.02  -0.11  -0.06
   6   6     0.17   0.14  -0.32     0.00  -0.05  -0.08     0.03  -0.04   0.01
   7   8     0.52  -0.00   0.17     0.03   0.02   0.03     0.01   0.02  -0.00
   8   1     0.07  -0.03  -0.00    -0.03  -0.02  -0.01     0.24   0.09   0.07
   9   1    -0.00  -0.02  -0.03     0.04  -0.00   0.03     0.04   0.07  -0.03
  10   1     0.08  -0.03  -0.00     0.03  -0.01   0.04    -0.16   0.09  -0.16
  11   1     0.05  -0.01   0.01    -0.00  -0.02   0.12    -0.00   0.03  -0.48
  12   1     0.04  -0.01   0.01     0.01  -0.14  -0.10     0.16   0.37   0.24
  13   1    -0.12   0.02  -0.10     0.10  -0.05   0.27     0.13  -0.04  -0.29
  14   1    -0.04   0.03  -0.03    -0.08  -0.19  -0.12    -0.04   0.25   0.15
  15   1    -0.20   0.09   0.09    -0.03  -0.45  -0.19     0.03  -0.14  -0.07
  16   1    -0.22  -0.10  -0.01    -0.11   0.38   0.18     0.00   0.15   0.06
  17   1     0.02  -0.02  -0.11    -0.03   0.23   0.08     0.00   0.08   0.04
                     13                     14                     15
                        a                      a                      a 
 Frequencies --   889.6832               916.5305               935.6423
 Red. masses --     3.5377                 6.6036                 6.1639
 Frc consts  --     0.0000                 0.0000                 0.0000
 IR Inten    --    24.5946                10.8158                 4.4524
 Raman Activ --     0.0000                 0.0000                 0.0000
 Depolar     --     0.0000                 0.0000                 0.0000
 Atom AN      X      Y      Z        X      Y      Z        X      Y      Z
   1   6     0.04   0.14  -0.05     0.04   0.00  -0.02    -0.31   0.13   0.13
   2   6     0.02   0.10  -0.04     0.01  -0.02  -0.04    -0.03   0.16   0.28
   3   6    -0.20  -0.30   0.07    -0.03   0.00   0.05     0.18  -0.21  -0.35
   4   6     0.01   0.17   0.08    -0.01  -0.03  -0.03     0.09   0.03   0.12
   5   6     0.03  -0.06  -0.12    -0.05   0.30   0.13     0.04   0.00  -0.00
   6   6     0.04  -0.01   0.08     0.08  -0.54  -0.23    -0.02  -0.07  -0.06
   7   8    -0.00   0.00  -0.02    -0.02   0.15   0.06    -0.03   0.01   0.02
   8   1    -0.31  -0.11  -0.10    -0.05  -0.00  -0.01     0.24  -0.09  -0.02
   9   1    -0.08  -0.14   0.04     0.04  -0.01   0.04    -0.46  -0.02  -0.33
  10   1     0.31  -0.12   0.21     0.02  -0.01   0.03     0.17  -0.05  -0.08
  11   1     0.30  -0.10   0.10     0.03  -0.02  -0.01     0.08   0.01   0.06
  12   1    -0.28  -0.01  -0.05    -0.04   0.00  -0.01     0.16  -0.02   0.06
  13   1    -0.01  -0.03  -0.37     0.01  -0.00  -0.02     0.08  -0.07  -0.07
  14   1     0.05   0.24   0.18    -0.02   0.03   0.03     0.13  -0.10  -0.11
  15   1     0.13  -0.04  -0.02     0.00  -0.01  -0.01     0.01  -0.03   0.02
  16   1     0.05   0.14   0.04     0.03  -0.20  -0.09    -0.03   0.04   0.02
  17   1     0.02  -0.01   0.02    -0.08   0.60   0.26    -0.04   0.09   0.03
                     16                     17                     18
                        a                      a                      a 
 Frequencies --  1002.0414              1029.3462              1087.5897
 Red. masses --     1.9028                 4.3597                 8.9304
 Frc consts  --     0.0000                 0.0000                 0.0000
 IR Inten    --    20.8503                53.4188                 0.6484
 Raman Activ --     0.0000                 0.0000                 0.0000
 Depolar     --     0.0000                 0.0000                 0.0000
 Atom AN      X      Y      Z        X      Y      Z        X      Y      Z
   1   6    -0.01   0.05  -0.01     0.06  -0.11   0.10     0.42   0.09   0.34
   2   6    -0.01  -0.03   0.03    -0.02   0.10  -0.16    -0.57  -0.01  -0.27
   3   6     0.08   0.02  -0.01    -0.29  -0.11  -0.03    -0.04   0.06  -0.06
   4   6    -0.03   0.16   0.02     0.04   0.13   0.24     0.07  -0.10   0.02
   5   6    -0.02   0.12   0.11    -0.03   0.10  -0.17     0.03   0.02  -0.01
   6   6    -0.03   0.12   0.01     0.09  -0.05   0.13    -0.01   0.01  -0.00
   7   8    -0.00  -0.02  -0.00     0.01   0.02  -0.02    -0.01  -0.01  -0.00
   8   1    -0.06  -0.02  -0.03     0.21   0.03   0.07     0.24  -0.06   0.06
   9   1    -0.04  -0.03  -0.01     0.04   0.06  -0.03    -0.04  -0.02  -0.04
  10   1     0.07  -0.02   0.04    -0.11   0.04  -0.09     0.29  -0.05   0.08
  11   1     0.08  -0.03  -0.04    -0.17   0.06   0.11    -0.14  -0.00  -0.10
  12   1    -0.05   0.05   0.03     0.18  -0.18  -0.13    -0.18   0.03  -0.06
  13   1     0.20  -0.07   0.05    -0.44   0.13  -0.09     0.20  -0.07  -0.00
  14   1    -0.11   0.04   0.01     0.25  -0.04   0.01     0.02  -0.07  -0.06
  15   1    -0.02  -0.55  -0.24     0.34  -0.21  -0.04     0.01   0.03   0.03
  16   1     0.03  -0.61  -0.25     0.13  -0.13  -0.11    -0.00   0.00  -0.00
  17   1     0.01  -0.19  -0.09     0.06  -0.03   0.03    -0.01  -0.01  -0.01
                     19                     20                     21
                        a                      a                      a 
 Frequencies --  1102.5870              1142.6026              1152.2728
 Red. masses --     7.3957                 8.0604                 8.4661
 Frc consts  --     0.0000                 0.0000                 0.0000
 IR Inten    --    54.8853                31.3370               126.9314
 Raman Activ --     0.0000                 0.0000                 0.0000
 Depolar     --     0.0000                 0.0000                 0.0000
 Atom AN      X      Y      Z        X      Y      Z        X      Y      Z
   1   6    -0.17   0.13   0.11     0.03  -0.00  -0.08     0.02  -0.01  -0.03
   2   6     0.23  -0.26  -0.33     0.02  -0.05   0.07    -0.04   0.05   0.11
   3   6    -0.23   0.31   0.30    -0.32   0.12  -0.32     0.16  -0.02  -0.07
   4   6    -0.00  -0.11  -0.02     0.43  -0.10   0.36    -0.06  -0.02  -0.02
   5   6    -0.11   0.04  -0.08     0.24   0.05  -0.04    -0.34   0.12  -0.38
   6   6     0.08  -0.01   0.12    -0.00  -0.01   0.01     0.29  -0.16   0.47
   7   8     0.02   0.00  -0.02    -0.11  -0.01  -0.00     0.07   0.04  -0.08
   8   1     0.13  -0.09  -0.03    -0.10   0.01  -0.02    -0.04   0.01  -0.00
   9   1    -0.28  -0.02  -0.19     0.06  -0.01   0.05     0.05   0.00   0.04
  10   1     0.17  -0.05  -0.03    -0.02   0.00   0.03    -0.03   0.01   0.01
  11   1     0.26  -0.14  -0.11     0.03  -0.01  -0.05    -0.05   0.03   0.02
  12   1     0.26  -0.12  -0.09    -0.00   0.05   0.05    -0.06   0.05   0.04
  13   1     0.10   0.01   0.12    -0.08   0.01   0.02     0.12  -0.04   0.00
  14   1    -0.12   0.03   0.05    -0.47   0.03  -0.11     0.02  -0.03  -0.03
  15   1     0.08   0.06   0.03     0.01  -0.03   0.10    -0.05   0.01  -0.01
  16   1    -0.05  -0.00  -0.03    -0.27  -0.01  -0.03    -0.48   0.00  -0.13
  17   1     0.06  -0.02   0.02    -0.10  -0.01  -0.01     0.16  -0.03   0.12
                     22                     23                     24
                        a                      a                      a 
 Frequencies --  1202.5663              1220.2961              1253.8097
 Red. masses --     5.2648                 3.7123                 3.4934
 Frc consts  --     0.0000                 0.0000                 0.0000
 IR Inten    --     5.5480                 4.6307                 1.3896
 Raman Activ --     0.0000                 0.0000                 0.0000
 Depolar     --     0.0000                 0.0000                 0.0000
 Atom AN      X      Y      Z        X      Y      Z        X      Y      Z
   1   6    -0.06  -0.18   0.16    -0.03  -0.19  -0.03     0.06   0.14  -0.12
   2   6     0.10   0.27  -0.25     0.05   0.30   0.04    -0.07  -0.01   0.07
   3   6    -0.00  -0.20   0.21    -0.22   0.04  -0.09    -0.11  -0.07   0.07
   4   6     0.11   0.09  -0.15    -0.03  -0.14   0.08     0.01   0.08  -0.24
   5   6     0.20  -0.02   0.10    -0.15  -0.01  -0.01     0.10  -0.09   0.26
   6   6     0.01   0.00  -0.02    -0.02   0.02  -0.02     0.00   0.02  -0.05
   7   8    -0.06  -0.00  -0.01     0.03  -0.01   0.02    -0.05  -0.01   0.01
   8   1     0.26   0.04   0.09     0.06   0.08   0.06    -0.16  -0.02  -0.07
   9   1    -0.02   0.09  -0.08     0.12   0.07   0.03     0.03  -0.05   0.06
  10   1    -0.15   0.04  -0.15    -0.19   0.04  -0.08     0.11  -0.03   0.11
  11   1     0.02   0.02   0.20     0.10   0.02   0.16    -0.30   0.11   0.01
  12   1    -0.11  -0.13  -0.17     0.02  -0.10  -0.08     0.45  -0.13  -0.01
  13   1     0.05  -0.04  -0.15     0.61  -0.24  -0.10     0.16  -0.07  -0.09
  14   1    -0.14   0.18   0.15    -0.11   0.01  -0.03     0.11  -0.00   0.03
  15   1    -0.33  -0.01  -0.05     0.31   0.05   0.06     0.36   0.07  -0.04
  16   1    -0.38  -0.04  -0.00     0.24   0.02   0.02    -0.43  -0.07   0.04
  17   1    -0.15  -0.01  -0.02     0.12   0.00   0.01    -0.08  -0.00  -0.02
                     25                     26                     27
                        a                      a                      a 
 Frequencies --  1272.9956              1288.4797              1344.1443
 Red. masses --     2.6237                 3.5623                 4.6899
 Frc consts  --     0.0000                 0.0000                 0.0000
 IR Inten    --     4.2756                 1.7078                22.5611
 Raman Activ --     0.0000                 0.0000                 0.0000
 Depolar     --     0.0000                 0.0000                 0.0000
 Atom AN      X      Y      Z        X      Y      Z        X      Y      Z
   1   6     0.03   0.14  -0.06     0.01  -0.06  -0.12     0.03  -0.06  -0.08
   2   6     0.05   0.00  -0.02    -0.18   0.05   0.13    -0.43   0.16   0.00
   3   6    -0.02  -0.14   0.09    -0.28   0.11   0.08     0.30  -0.10   0.02
   4   6     0.03  -0.08   0.17     0.07  -0.03   0.04    -0.02   0.02  -0.00
   5   6    -0.04   0.08  -0.21     0.19   0.07  -0.09    -0.07  -0.01  -0.01
   6   6     0.00  -0.02   0.03     0.03  -0.01   0.04    -0.04   0.00  -0.03
   7   8     0.03   0.01  -0.02    -0.01   0.01  -0.04    -0.00  -0.01   0.03
   8   1    -0.11  -0.03  -0.06    -0.03   0.04   0.00     0.03   0.06   0.02
   9   1    -0.03  -0.04   0.01     0.13  -0.00   0.10     0.13   0.01   0.08
  10   1     0.11  -0.02   0.07    -0.04  -0.01   0.04     0.01  -0.02   0.06
  11   1    -0.46   0.17   0.07     0.35  -0.12  -0.06     0.41  -0.15  -0.02
  12   1     0.35  -0.13  -0.05     0.22  -0.05   0.02     0.45  -0.16  -0.06
  13   1     0.14  -0.08  -0.09     0.13  -0.04  -0.06    -0.19   0.07   0.04
  14   1    -0.17   0.11   0.09     0.51  -0.23  -0.07    -0.32   0.15   0.07
  15   1    -0.48  -0.06   0.03    -0.40  -0.06  -0.00     0.01   0.01   0.00
  16   1     0.33   0.06  -0.03    -0.03   0.00  -0.04     0.03   0.01   0.01
  17   1     0.02   0.00   0.01    -0.21  -0.03  -0.02     0.19   0.02   0.02
                     28                     29                     30
                        a                      a                      a 
 Frequencies --  1380.0228              1412.3484              1450.5119
 Red. masses --     3.4066                 3.1459                 2.0717
 Frc consts  --     0.0000                 0.0000                 0.0000
 IR Inten    --    12.8508                 1.5980                 4.5118
 Raman Activ --     0.0000                 0.0000                 0.0000
 Depolar     --     0.0000                 0.0000                 0.0000
 Atom AN      X      Y      Z        X      Y      Z        X      Y      Z
   1   6     0.01  -0.01  -0.00     0.40  -0.04   0.16     0.00  -0.01  -0.00
   2   6    -0.05   0.03  -0.01    -0.07   0.03   0.02     0.01   0.00   0.00
   3   6     0.13  -0.02  -0.04     0.01  -0.00   0.01     0.13   0.11   0.25
   4   6    -0.16  -0.04   0.04    -0.00  -0.00  -0.00    -0.01   0.03  -0.01
   5   6    -0.08  -0.02   0.01     0.01   0.00  -0.00    -0.05  -0.01   0.03
   6   6     0.15  -0.06   0.19    -0.00   0.00  -0.00     0.01   0.00   0.00
   7   8     0.16   0.10  -0.19    -0.00  -0.00   0.00     0.01   0.01  -0.01
   8   1     0.00   0.01   0.00    -0.51  -0.03  -0.03    -0.01   0.03   0.01
   9   1     0.01   0.00  -0.00    -0.36  -0.08  -0.35    -0.02   0.00  -0.02
  10   1    -0.00  -0.00   0.00    -0.44   0.21  -0.16    -0.01  -0.00   0.03
  11   1     0.03  -0.01   0.00     0.07  -0.02  -0.08    -0.01   0.00   0.00
  12   1     0.05  -0.02  -0.01     0.05  -0.08  -0.04    -0.01   0.00   0.00
  13   1    -0.01   0.00   0.07     0.00  -0.00   0.01    -0.05   0.13  -0.64
  14   1    -0.14   0.09   0.03     0.01   0.01   0.01    -0.29  -0.55  -0.29
  15   1     0.16   0.02   0.02    -0.01  -0.00  -0.00     0.03  -0.02  -0.02
  16   1     0.14   0.01   0.02    -0.00  -0.00  -0.00     0.03  -0.01   0.01
  17   1    -0.84  -0.09  -0.04     0.01   0.00   0.00    -0.04  -0.01  -0.00
                     31                     32                     33
                        a                      a                      a 
 Frequencies --  1488.0941              1496.4103              1498.8458
 Red. masses --     1.8823                 1.5440                 1.5787
 Frc consts  --     0.0000                 0.0000                 0.0000
 IR Inten    --     2.2304                 1.5592                 1.2020
 Raman Activ --     0.0000                 0.0000                 0.0000
 Depolar     --     0.0000                 0.0000                 0.0000
 Atom AN      X      Y      Z        X      Y      Z        X      Y      Z
   1   6     0.03  -0.00   0.03     0.08   0.11  -0.16    -0.03   0.18   0.11
   2   6    -0.08  -0.11  -0.24     0.02   0.01  -0.06    -0.03   0.06   0.05
   3   6    -0.02   0.00  -0.01    -0.01  -0.00  -0.00     0.02  -0.00   0.00
   4   6     0.00  -0.00  -0.00     0.00  -0.00  -0.00     0.00   0.00   0.00
   5   6     0.00   0.00   0.00    -0.01  -0.00   0.00    -0.01  -0.00   0.00
   6   6     0.01   0.00  -0.00     0.00   0.00  -0.00     0.00  -0.00   0.00
   7   8    -0.01  -0.00   0.00    -0.00  -0.00   0.00     0.00   0.00  -0.00
   8   1    -0.08  -0.07  -0.04     0.36   0.00   0.01     0.08  -0.63  -0.32
   9   1     0.01   0.02  -0.02    -0.27  -0.57   0.20     0.13  -0.22   0.35
  10   1    -0.02   0.02  -0.11    -0.40   0.10   0.46    -0.08   0.12  -0.48
  11   1     0.03  -0.13   0.66     0.01  -0.01   0.07     0.04   0.01  -0.06
  12   1     0.23   0.55   0.29    -0.01   0.05   0.01    -0.00  -0.06  -0.03
  13   1     0.01  -0.01  -0.01     0.01  -0.01   0.01     0.00   0.00  -0.03
  14   1     0.02  -0.02  -0.01    -0.01   0.01   0.01    -0.03  -0.02  -0.01
  15   1     0.00   0.00   0.00     0.00   0.00   0.00     0.00   0.00  -0.00
  16   1     0.00  -0.00   0.00     0.00  -0.00   0.00     0.00  -0.00   0.00
  17   1    -0.00  -0.00  -0.00    -0.00  -0.00  -0.00    -0.00   0.00   0.00
                     34                     35                     36
                        a                      a                      a 
 Frequencies --  1632.3419              1678.3539              2766.4982
 Red. masses --    11.7242                13.0239                 1.6682
 Frc consts  --     0.0000                 0.0000                 0.0000
 IR Inten    --  1128.2640               257.2916               205.4328
 Raman Activ --     0.0000                 0.0000                 0.0000
 Depolar     --     0.0000                 0.0000                 0.0000
 Atom AN      X      Y      Z        X      Y      Z        X      Y      Z
   1   6    -0.01   0.00   0.00     0.00  -0.00   0.00     0.00  -0.00  -0.00
   2   6     0.02  -0.00  -0.01    -0.01  -0.00  -0.00    -0.00  -0.00  -0.00
   3   6     0.07   0.01   0.02    -0.08  -0.01  -0.01     0.00   0.00   0.00
   4   6    -0.51  -0.14   0.16     0.39   0.10  -0.11    -0.00   0.00  -0.00
   5   6     0.56   0.14  -0.16    -0.27  -0.09   0.13    -0.00  -0.00   0.01
   6   6    -0.42  -0.10   0.12    -0.59  -0.16   0.20     0.01  -0.09   0.22
   7   8     0.24   0.08  -0.11     0.48   0.15  -0.19    -0.02  -0.01   0.02
   8   1     0.01  -0.00  -0.00    -0.00   0.00   0.00    -0.00   0.00  -0.00
   9   1    -0.01  -0.00  -0.00     0.00   0.00  -0.00    -0.00   0.00   0.00
  10   1     0.00   0.00   0.00     0.00  -0.00  -0.00    -0.00  -0.00   0.00
  11   1    -0.01   0.00   0.01     0.00  -0.00   0.00     0.00   0.00   0.00
  12   1    -0.00   0.00  -0.00     0.00   0.00   0.00    -0.00  -0.00   0.00
  13   1     0.04  -0.01  -0.02    -0.03   0.01  -0.00    -0.00  -0.00   0.00
  14   1    -0.06  -0.01  -0.00     0.04   0.00   0.00    -0.00   0.00  -0.00
  15   1     0.10  -0.02   0.06    -0.05   0.01  -0.04     0.01  -0.00   0.00
  16   1    -0.14   0.01  -0.07    -0.00  -0.02   0.05     0.01  -0.01   0.01
  17   1     0.09  -0.00   0.03     0.02  -0.01   0.04     0.05   0.39  -0.89
                     37                     38                     39
                        a                      a                      a 
 Frequencies --  2950.0920              2974.9361              2989.1645
 Red. masses --     1.7650                 1.9650                 1.4846
 Frc consts  --     0.0000                 0.0000                 0.0000
 IR Inten    --     8.5367                59.2283                36.7173
 Raman Activ --     0.0000                 0.0000                 0.0000
 Depolar     --     0.0000                 0.0000                 0.0000
 Atom AN      X      Y      Z        X      Y      Z        X      Y      Z
   1   6     0.00  -0.00  -0.00     0.01   0.02  -0.01     0.01  -0.01  -0.02
   2   6    -0.01  -0.04   0.02    -0.07  -0.25   0.13     0.05   0.08   0.18
   3   6     0.09   0.24   0.01    -0.02  -0.03  -0.03     0.00   0.03  -0.03
   4   6     0.01   0.01   0.00    -0.00  -0.00  -0.00     0.00   0.00  -0.00
   5   6    -0.00  -0.00   0.00     0.00   0.00  -0.00    -0.00  -0.00   0.00
   6   6    -0.00  -0.00  -0.00    -0.00  -0.00   0.00     0.00  -0.00   0.00
   7   8     0.00   0.00   0.00     0.00   0.00  -0.00    -0.00  -0.00   0.00
   8   1    -0.00  -0.01   0.01    -0.00  -0.03   0.06     0.00  -0.02   0.03
   9   1    -0.00   0.00   0.00     0.00   0.00  -0.01    -0.04   0.03   0.04
  10   1    -0.00  -0.00  -0.00    -0.03  -0.07  -0.01     0.02   0.03   0.00
  11   1     0.05   0.14   0.03     0.23   0.62   0.11    -0.23  -0.63  -0.07
  12   1     0.00   0.03  -0.07     0.04   0.28  -0.57     0.06   0.34  -0.60
  13   1    -0.34  -0.87  -0.13     0.06   0.16   0.02    -0.01  -0.03  -0.01
  14   1     0.01  -0.01   0.08    -0.01  -0.05   0.09    -0.01  -0.07   0.13
  15   1    -0.00   0.01  -0.01    -0.00  -0.00   0.00    -0.00  -0.00   0.01
  16   1    -0.00   0.00   0.00     0.00   0.00  -0.00     0.00   0.00  -0.00
  17   1    -0.00  -0.00   0.00    -0.00   0.00  -0.00     0.00   0.00  -0.00
                     40                     41                     42
                        a                      a                      a 
 Frequencies --  3000.6736              3032.3327              3035.3313
 Red. masses --     1.7062                 1.9547                 1.8916
 Frc consts  --     0.0000                 0.0000                 0.0000
 IR Inten    --    52.3721                76.7027                71.1417
 Raman Activ --     0.0000                 0.0000                 0.0000
 Depolar     --     0.0000                 0.0000                 0.0000
 Atom AN      X      Y      Z        X      Y      Z        X      Y      Z
   1   6    -0.01   0.00   0.02    -0.08  -0.26   0.11    -0.06   0.12   0.25
   2   6     0.00   0.02  -0.05    -0.01  -0.03   0.02     0.00   0.01   0.03
   3   6     0.01   0.10  -0.22    -0.00  -0.00   0.00     0.00  -0.00   0.01
   4   6    -0.00  -0.01   0.02     0.00   0.00  -0.00     0.00   0.00  -0.01
   5   6     0.00  -0.00   0.00    -0.00   0.00  -0.00    -0.00   0.00  -0.00
   6   6     0.00  -0.00   0.00     0.00  -0.00   0.00     0.00  -0.00  -0.00
   7   8    -0.00  -0.00   0.00    -0.00  -0.00  -0.00    -0.00   0.00  -0.00
   8   1     0.00   0.03  -0.05     0.03   0.25  -0.54     0.03   0.30  -0.51
   9   1     0.02  -0.02  -0.02    -0.02  -0.03   0.03     0.37  -0.30  -0.34
  10   1    -0.01  -0.01   0.00     0.26   0.68   0.12    -0.18  -0.43  -0.03
  11   1     0.01   0.02  -0.00     0.02   0.07   0.01    -0.02  -0.05  -0.00
  12   1    -0.01  -0.09   0.16     0.01   0.03  -0.06     0.01   0.03  -0.06
  13   1     0.03   0.08  -0.02     0.00   0.01   0.00    -0.01  -0.02  -0.00
  14   1    -0.07  -0.43   0.83     0.00   0.00  -0.01     0.01   0.02  -0.04
  15   1    -0.00   0.04  -0.08    -0.00  -0.00   0.01    -0.00  -0.01   0.03
  16   1    -0.00   0.00  -0.01     0.00  -0.00   0.00     0.00  -0.00   0.00
  17   1     0.00   0.00  -0.00    -0.00  -0.00   0.00    -0.00  -0.00   0.00
                     43                     44                     45
                        a                      a                      a 
 Frequencies --  3044.1451              3048.1351              3083.6174
 Red. masses --     1.3060                 1.8159                 1.8337
 Frc consts  --     0.0000                 0.0000                 0.0000
 IR Inten    --    48.1020                40.0776                39.4433
 Raman Activ --     0.0000                 0.0000                 0.0000
 Depolar     --     0.0000                 0.0000                 0.0000
 Atom AN      X      Y      Z        X      Y      Z        X      Y      Z
   1   6    -0.15   0.06  -0.00    -0.01   0.00   0.01     0.00  -0.00  -0.00
   2   6    -0.00   0.00   0.00    -0.00  -0.00   0.01     0.00   0.00  -0.00
   3   6     0.00   0.00  -0.00    -0.00  -0.01   0.03     0.00   0.00  -0.00
   4   6     0.00   0.01  -0.01    -0.01  -0.11   0.25    -0.01   0.01  -0.03
   5   6    -0.00  -0.00   0.00     0.01   0.01  -0.02     0.02   0.11  -0.25
   6   6     0.00  -0.00   0.00     0.00   0.00  -0.00     0.00   0.00  -0.01
   7   8    -0.00  -0.00   0.00    -0.00  -0.00   0.00    -0.00  -0.00   0.00
   8   1    -0.05  -0.21   0.42    -0.00  -0.00   0.01     0.00  -0.00   0.00
   9   1     0.46  -0.39  -0.46     0.04  -0.03  -0.03    -0.00   0.00   0.00
  10   1     0.13   0.38   0.06     0.00   0.02   0.00     0.00   0.00  -0.00
  11   1    -0.01  -0.01  -0.00    -0.00  -0.01   0.00     0.00   0.00  -0.00
  12   1    -0.00   0.00  -0.01     0.00   0.01  -0.02    -0.00  -0.00   0.00
  13   1     0.00   0.00  -0.00     0.00   0.00   0.00    -0.00  -0.00  -0.00
  14   1    -0.00  -0.01   0.01     0.01   0.04  -0.07     0.00  -0.01   0.02
  15   1     0.00  -0.02   0.05    -0.01   0.37  -0.88     0.00  -0.04   0.10
  16   1     0.00   0.00  -0.01    -0.00  -0.04   0.10    -0.03  -0.38   0.88
  17   1     0.00   0.00  -0.00    -0.00   0.00  -0.00    -0.00  -0.00   0.01
