! pbe def2-sv(p) def2/J RI DEFGRID1 loosescf d4 GCP(DFT/SV(P)) printgap
%output
    printlevel normal
end
* xyz 0 1
C -2.2681248269 -1.2760585113 0.6949485382
C -2.5133388248 0.029197147 -0.0522473675
C -1.3376994309 0.3848789221 -0.9698268267
C -0.1037143835 0.6791006857 -0.1567179184
O -0.0199597776 1.5433166614 0.6925748837
O 0.8973001278 -0.1308760829 -0.4690134301
C 2.1403164637 0.0243678461 0.2363927783
C 3.0131233367 -1.1772108512 -0.0704499785
H -3.1269385871 -1.5262101959 1.3119918527
H -2.0940746268 -2.0899790622 -0.0046698911
H -1.3973616789 -1.1862711684 1.3418346023
H -2.6559354623 0.8416630393 0.6628587442
H -3.4157690365 -0.0584746229 -0.6576620786
H -1.581715263 1.2837409807 -1.537832445
H -1.1170254635 -0.4328344667 -1.6545779811
H 2.607200805 0.9578662704 -0.0941301721
H 1.923481991 0.1114646504 1.3063213234
H 3.1910506948 -1.2421601033 -1.1396501193
H 3.9615650702 -1.0736029406 0.4460976536
H 2.5229603948 -2.0886369275 0.2589830336
*
