! r2scan-3c def2/J RI DEFGRID2 scfconv6 printgap
%output
    printlevel normal
end
* xyz 0 1
C -2.2360161653 -1.445154391 -0.2338839515
C -2.5047385924 0.0306445849 0.0341247133
C -1.3442832077 0.6896144288 0.7899869105
C -0.1052766887 0.7098342806 -0.066963447
O -0.0082160959 1.2792240069 -1.1354655733
O 0.8830625422 0.0151897118 0.477043845
C 2.1264405465 -0.0675307294 -0.2396533692
C 2.9964879777 -1.1077899556 0.4389169087
H -3.0863142877 -1.89959519 -0.7352324534
H -1.3610366385 -1.5637671883 -0.8702592449
H -2.057492713 -1.9762334336 0.6979325765
H -3.4129589616 0.1362161311 0.6279269923
H -2.648867778 0.556883615 -0.9114909926
H -1.1240158817 0.1490521287 1.7094427541
H -1.6053963867 1.7228120727 1.0223555537
H 1.9099178783 -0.3299807522 -1.2806506877
H 2.5952411662 0.9218235238 -0.2283839391
H 3.1764115271 -0.8237828202 1.4713825449
H 2.5029402361 -2.0750146195 0.4227768374
H 3.9441510365 -1.1803216638 -0.0842763603
*
