      -----------------------------------------------------------      
     |                   =====================                   |     
     |                           x T B                           |     
     |                   =====================                   |     
     |                         S. Grimme                         |     
     |          Mulliken Center for Theoretical Chemistry        |     
     |                    University of Bonn                     |     
      -----------------------------------------------------------      

   * xtb version 6.7.1 (edcfbbe) compiled by 'albert@albert-system' on 2024-07-22

   xtb is free software: you can redistribute it and/or modify it under
   the terms of the GNU Lesser General Public License as published by
   the Free Software Foundation, either version 3 of the License, or
   (at your option) any later version.
   
   xtb is distributed in the hope that it will be useful,
   but WITHOUT ANY WARRANTY; without even the implied warranty of
   MERCHANTABILITY or FITNESS FOR A PARTICULAR PURPOSE.  See the
   GNU Lesser General Public License for more details.
   
   Cite this work as:
   * C. Bannwarth, E. Caldeweyher, S. Ehlert, A. Hansen, P. Pracht,
     J. Seibert, S. Spicher, S. Grimme, WIREs Comput. Mol. Sci., 2020, 11,
     e01493. DOI: 10.1002/wcms.1493
   
   for GFN2-xTB:
   * C. Bannwarth, S. Ehlert and S. Grimme., J. Chem. Theory Comput., 2019,
     15, 1652-1671. DOI: 10.1021/acs.jctc.8b01176
   for GFN1-xTB:
   * S. Grimme, C. Bannwarth, P. Shushkov, J. Chem. Theory Comput., 2017,
     13, 1989-2009. DOI: 10.1021/acs.jctc.7b00118
   for GFN0-xTB:
   * P. Pracht, E. Caldeweyher, S. Ehlert, S. Grimme, ChemRxiv, 2019, preprint.
     DOI: 10.26434/chemrxiv.8326202.v1
   for GFN-FF:
   * S. Spicher and S. Grimme, Angew. Chem. Int. Ed., 2020, 59, 15665-15673.
     DOI: 10.1002/anie.202004239
   
   for ALPB and GBSA implicit solvation:
   * S. Ehlert, M. Stahn, S. Spicher, S. Grimme, J. Chem. Theory Comput.,
     2021, 17, 4250-4261. DOI: 10.1021/acs.jctc.1c00471
   
   for ddCOSMO and CPCM-X implicit solvation:
   * M. Stahn, S. Ehlert, S. Grimme, J. Phys. Chem. A,
     2023, XX, XXXX-XXXX. DOI: 10.1021/acs.jpca.3c04382
   
   for DFT-D4:
   * E. Caldeweyher, C. Bannwarth and S. Grimme, J. Chem. Phys., 2017,
     147, 034112. DOI: 10.1063/1.4993215
   * E. Caldeweyher, S. Ehlert, A. Hansen, H. Neugebauer, S. Spicher,
     C. Bannwarth and S. Grimme, J. Chem. Phys., 2019, 150, 154122.
     DOI: 10.1063/1.5090222
   * E. Caldeweyher, J.-M. Mewes, S. Ehlert and S. Grimme, Phys. Chem. Chem. Phys.
     2020, 22, 8499-8512. DOI: 10.1039/D0CP00502A
   
   for sTDA-xTB:
   * S. Grimme and C. Bannwarth, J. Chem. Phys., 2016, 145, 054103.
     DOI: 10.1063/1.4959605
   
   in the mass-spec context:
   * V. Asgeirsson, C. Bauer and S. Grimme, Chem. Sci., 2017, 8, 4879.
     DOI: 10.1039/c7sc00601b
   * J. Koopman and S. Grimme, ACS Omega 2019, 4, 12, 15120-15133.
     DOI: 10.1021/acsomega.9b02011
   
   for metadynamics refer to:
   * S. Grimme, J. Chem. Theory Comput., 2019, 155, 2847-2862
     DOI: 10.1021/acs.jctc.9b00143
   
   for SPH calculations refer to:
   * S. Spicher and S. Grimme, J. Chem. Theory Comput., 2021, 17, 1701-1714
     DOI: 10.1021/acs.jctc.0c01306
   
   for ONIOM refer to:
   * C. Plett, A. Katbashev, S. Ehlert, S. Grimme, M. Bursch,
     Phys. Chem. Chem. Phys., 2023, 25, 17860-17868. DOI: 10.1039/D3CP02178E
   
   for DIPRO refer to:
   * J. Kohn, N. Gildemeister, S. Grimme, D. Fazzi, A. Hansen,
     J. Chem. Phys., 2023, just accepted.
   
   for PTB refer to:
   * S. Grimme, M. Mueller, A. Hansen, J. Chem. Phys., 2023, 158, 124111.
     DOI: 10.1063/5.0137838
   
   with help from (in alphabetical order)
   P. Atkinson, C. Bannwarth, F. Bohle, G. Brandenburg, E. Caldeweyher
   M. Checinski, S. Dohm, S. Ehlert, S. Ehrlich, I. Gerasimov, C. Hölzer
   A. Katbashev, J. Kohn, J. Koopman, C. Lavigne, S. Lehtola, F. März, M. Müller,
   F. Musil, H. Neugebauer, J. Pisarek, C. Plett, P. Pracht, F. Pultar,
   J. Seibert, P. Shushkov, S. Spicher, M. Stahn, M. Steiner, T. Strunk,
   J. Stückrath, T. Rose, and J. Unsleber
   
 * started run on 2025/04/11 at 16:09:17.252     
   ID    Z sym.   atoms
    1    6 C      1-5, 7
    2    8 O      6
    3    1 H      8-19

           -------------------------------------------------
          |                Calculation Setup                |
           -------------------------------------------------

          program call               : /srv/scratch/z5358697/.xtb/bin/xtb gas.coord --gfn2 --sp --chrg 0 --norestart --parallel 1
          hostname                   : k065
          coordinate file            : gas.coord
          omp threads                :                     1


           -------------------------------------------------
          |                 G F N 2 - x T B                 |
           -------------------------------------------------

        Reference                      10.1021/acs.jctc.8b01176
      * Hamiltonian:
        H0-scaling (s, p, d)           1.850000    2.230000    2.230000
        zeta-weighting                 0.500000
      * Dispersion:
        s8                             2.700000
        a1                             0.520000
        a2                             5.000000
        s9                             5.000000
      * Repulsion:
        kExp                           1.500000    1.000000
        rExp                           1.000000
      * Coulomb:
        alpha                          2.000000
        third order                    shell-resolved
        anisotropic                    true
        a3                             3.000000
        a5                             4.000000
        cn-shift                       1.200000
        cn-exp                         4.000000
        max-rad                        5.000000


          ...................................................
          :                      SETUP                      :
          :.................................................:
          :  # basis functions                  40          :
          :  # atomic orbitals                  40          :
          :  # shells                           26          :
          :  # electrons                        42          :
          :  max. iterations                   250          :
          :  Hamiltonian                  GFN2-xTB          :
          :  restarted?                      false          :
          :  GBSA solvation                  false          :
          :  PC potential                    false          :
          :  electronic temp.          300.0000000     K    :
          :  accuracy                    1.0000000          :
          :  -> integral cutoff          0.2500000E+02      :
          :  -> integral neglect         0.1000000E-07      :
          :  -> SCF convergence          0.1000000E-05 Eh   :
          :  -> wf. convergence          0.1000000E-03 e    :
          :  Broyden damping             0.4000000          :
          :  net charge                          0          :
          :  unpaired electrons                  0          :
          ...................................................

 iter      E             dE          RMSdq      gap      omega  full diag
   1    -23.2631586 -0.232632E+02  0.342E+00    4.66       0.0  T
   2    -23.3251604 -0.620018E-01  0.174E+00    3.57       1.0  T
   3    -23.3329038 -0.774341E-02  0.115E+00    4.10       1.0  T
   4    -23.3365162 -0.361243E-02  0.195E-01    3.84       1.0  T
   5    -23.3366834 -0.167150E-03  0.754E-02    3.89       1.0  T
   6    -23.3366981 -0.147545E-04  0.289E-02    3.88       1.0  T
   7    -23.3366988 -0.650292E-06  0.916E-03    3.88       2.5  T
   8    -23.3366990 -0.198234E-06  0.200E-03    3.88      11.5  T
   9    -23.3366990 -0.460485E-08  0.108E-03    3.88      21.2  T
  10    -23.3366990 -0.242655E-08  0.197E-04    3.88     116.7  T
  11    -23.3366990 -0.782272E-10  0.425E-05    3.88     539.9  T

   *** convergence criteria satisfied after 11 iterations ***

         #    Occupation            Energy/Eh            Energy/eV
      -------------------------------------------------------------
         1        2.0000           -0.7046526             -19.1746
       ...           ...                  ...                  ...
        15        2.0000           -0.4755426             -12.9402
        16        2.0000           -0.4666415             -12.6980
        17        2.0000           -0.4560672             -12.4102
        18        2.0000           -0.4470502             -12.1649
        19        2.0000           -0.4361115             -11.8672
        20        2.0000           -0.4294545             -11.6861
        21        2.0000           -0.3926333             -10.6841 (HOMO)
        22                         -0.2500900              -6.8053 (LUMO)
        23                          0.0713553               1.9417
        24                          0.0852980               2.3211
        25                          0.1121689               3.0523
        26                          0.1245986               3.3905
       ...                                ...                  ...
        40                          0.6018512              16.3772
      -------------------------------------------------------------
                  HL-Gap            0.1425433 Eh            3.8788 eV
             Fermi-level           -0.3213617 Eh           -8.7447 eV

 SCC (total)                   0 d,  0 h,  0 min,  0.036 sec
 SCC setup                      ...        0 min,  0.000 sec (  1.132%)
 Dispersion                     ...        0 min,  0.000 sec (  0.509%)
 classical contributions        ...        0 min,  0.000 sec (  0.125%)
 integral evaluation            ...        0 min,  0.003 sec (  8.687%)
 iterations                     ...        0 min,  0.028 sec ( 78.095%)
 molecular gradient             ...        0 min,  0.004 sec ( 10.976%)
 printout                       ...        0 min,  0.000 sec (  0.423%)

         :::::::::::::::::::::::::::::::::::::::::::::::::::::
         ::                     SUMMARY                     ::
         :::::::::::::::::::::::::::::::::::::::::::::::::::::
         :: total energy             -23.025995334333 Eh    ::
         :: gradient norm              0.025240560465 Eh/a0 ::
         :: HOMO-LUMO gap              3.878800782448 eV    ::
         ::.................................................::
         :: SCC energy               -23.336658888314 Eh    ::
         :: -> isotropic ES            0.029157239619 Eh    ::
         :: -> anisotropic ES          0.004409168542 Eh    ::
         :: -> anisotropic XC          0.010974958998 Eh    ::
         :: -> dispersion             -0.011137649828 Eh    ::
         :: repulsion energy           0.310663553981 Eh    ::
         :: add. restraining           0.000000000000 Eh    ::
         :: total charge              -0.000000000000 e     ::
         :::::::::::::::::::::::::::::::::::::::::::::::::::::

           -------------------------------------------------
          |                Property Printout                |
           -------------------------------------------------

    * Orbital Energies and Occupations

         #    Occupation            Energy/Eh            Energy/eV
      -------------------------------------------------------------
         1        2.0000           -0.7046526             -19.1746
       ...           ...                  ...                  ...
         9        2.0000           -0.5330092             -14.5039
        10        2.0000           -0.5274865             -14.3536
        11        2.0000           -0.5074156             -13.8075
        12        2.0000           -0.4957826             -13.4909
        13        2.0000           -0.4937096             -13.4345
        14        2.0000           -0.4770387             -12.9809
        15        2.0000           -0.4755426             -12.9402
        16        2.0000           -0.4666415             -12.6980
        17        2.0000           -0.4560672             -12.4102
        18        2.0000           -0.4470502             -12.1649
        19        2.0000           -0.4361115             -11.8672
        20        2.0000           -0.4294545             -11.6861
        21        2.0000           -0.3926333             -10.6841 (HOMO)
        22                         -0.2500900              -6.8053 (LUMO)
        23                          0.0713553               1.9417
        24                          0.0852980               2.3211
        25                          0.1121689               3.0523
        26                          0.1245986               3.3905
        27                          0.1313876               3.5752
        28                          0.1549447               4.2163
        29                          0.1708604               4.6493
        30                          0.1719719               4.6796
        31                          0.1806770               4.9165
        32                          0.1863827               5.0717
       ...                                ...                  ...
        40                          0.6018512              16.3772
      -------------------------------------------------------------
                  HL-Gap            0.1425433 Eh            3.8788 eV
             Fermi-level           -0.3213617 Eh           -8.7447 eV

     #   Z          covCN         q      C6AA      α(0)
     1   6 C        3.752    -0.104    22.542     6.770
     2   6 C        3.800    -0.055    21.557     6.611
     3   6 C        3.804    -0.051    21.492     6.600
     4   6 C        3.804    -0.088    22.181     6.705
     5   6 C        2.812     0.242    22.958     7.850
     6   8 O        0.857    -0.365    21.001     6.144
     7   6 C        3.754    -0.137    23.204     6.869
     8   1 H        0.925     0.038     2.479     2.462
     9   1 H        0.925     0.033     2.545     2.495
    10   1 H        0.925     0.034     2.530     2.488
    11   1 H        0.924     0.038     2.481     2.463
    12   1 H        0.924     0.038     2.472     2.459
    13   1 H        0.924     0.033     2.550     2.497
    14   1 H        0.924     0.040     2.452     2.449
    15   1 H        0.924     0.060     2.196     2.317
    16   1 H        0.925     0.048     2.350     2.397
    17   1 H        0.925     0.062     2.175     2.306
    18   1 H        0.925     0.068     2.113     2.273
    19   1 H        0.925     0.069     2.102     2.267

 Mol. C6AA /au·bohr⁶  :       2629.481668
 Mol. C8AA /au·bohr⁸  :      56045.529430
 Mol. α(0) /au        :         76.422356


Wiberg/Mayer (AO) data.
largest (>0.10) Wiberg bond orders for each atom

 ---------------------------------------------------------------------------
     #   Z sym  total        # sym  WBO       # sym  WBO       # sym  WBO
 ---------------------------------------------------------------------------
     1   6 C    3.997 --     2 C    1.019     9 H    0.988    10 H    0.988
                             8 H    0.987
     2   6 C    3.996 --     1 C    1.019     3 C    1.010    11 H    0.978
                            12 H    0.977
     3   6 C    3.995 --     2 C    1.010     4 C    0.978    13 H    0.975
                            14 H    0.975
     4   6 C    3.996 --     5 C    0.991     3 C    0.978    15 H    0.972
                            16 H    0.967
     5   6 C    3.918 --     6 O    1.858     7 C    1.011     4 C    0.991
     6   8 O    2.060 --     5 C    1.858
     7   6 C    3.995 --     5 C    1.011    18 H    0.981    17 H    0.967
                            19 H    0.953
     8   1 H    0.998 --     1 C    0.987
     9   1 H    0.999 --     1 C    0.988
    10   1 H    0.999 --     1 C    0.988
    11   1 H    0.999 --     2 C    0.978
    12   1 H    0.999 --     2 C    0.977
    13   1 H    0.999 --     3 C    0.975
    14   1 H    0.998 --     3 C    0.975
    15   1 H    0.996 --     4 C    0.972
    16   1 H    0.998 --     4 C    0.967
    17   1 H    0.996 --     7 C    0.967
    18   1 H    0.995 --     7 C    0.981
    19   1 H    0.995 --     7 C    0.953
 ---------------------------------------------------------------------------

Topologies differ in total number of bonds
Writing topology from bond orders to xtbtopo.mol

molecular dipole:
                 x           y           z       tot (Debye)
 q only:        0.230       1.089       0.020
   full:        0.213       1.305       0.041       3.362
molecular quadrupole (traceless):
                xx          xy          yy          xz          yz          zz
 q only:        1.233      -5.082      -2.752       0.753      -0.137       1.519
  q+dip:        0.615      -6.130      -3.212       1.461      -0.154       2.597
   full:        1.364      -6.167      -3.775       0.503      -0.104       2.411


           -------------------------------------------------
          | TOTAL ENERGY              -23.025995334333 Eh   |
          | GRADIENT NORM               0.025240560465 Eh/α |
          | HOMO-LUMO GAP               3.878800782448 eV   |
           -------------------------------------------------

------------------------------------------------------------------------
 * finished run on 2025/04/11 at 16:09:17.797     
------------------------------------------------------------------------
 total:
 * wall-time:     0 d,  0 h,  0 min,  0.542 sec
 *  cpu-time:     0 d,  0 h,  0 min,  0.043 sec
 * ratio c/w:     0.079 speedup
 SCF:
 * wall-time:     0 d,  0 h,  0 min,  0.036 sec
 *  cpu-time:     0 d,  0 h,  0 min,  0.014 sec
 * ratio c/w:     0.391 speedup

