 Entering Gaussian System
 *********************************************
 Gaussian 98:
 frequency output generated by the xtb code
 *********************************************
                         Standard orientation:
 --------------------------------------------------------------------
  Center     Atomic     Atomic              Coordinates (Angstroms)
  Number     Number      Type              X           Y           Z
 --------------------------------------------------------------------
    1          6             0       -3.438525    0.147283    1.286691
    2          6             0       -3.140817   -0.947090    0.269865
    3          6             0       -2.422031   -0.401610   -0.972010
    4          6             0       -1.059706    0.133333   -0.632414
    5          6             0       -0.826734    1.492836   -0.511768
    6          6             0        0.426686    1.968979   -0.163113
    7          6             0        1.467447    1.088966    0.072199
    8          6             0        1.242803   -0.292300   -0.048570
    9          6             0       -0.012005   -0.754108   -0.398180
   10          8             0        2.344867   -1.081029    0.202760
   11          6             0        2.201824   -2.482674    0.104658
   12          8             0        2.697631    1.568824    0.415043
   13          1             0       -4.076731    0.910922    0.848058
   14          1             0       -3.945385   -0.267406    2.154635
   15          1             0       -2.516087    0.619726    1.617154
   16          1             0       -4.075929   -1.416417   -0.042110
   17          1             0       -2.519150   -1.713963    0.736108
   18          1             0       -3.027128    0.391050   -1.414205
   19          1             0       -2.325190   -1.206436   -1.703709
   20          1             0       -1.627018    2.194113   -0.690863
   21          1             0        0.617648    3.025893   -0.067558
   22          1             0       -0.195275   -1.812467   -0.496989
   23          1             0        1.464319   -2.854212    0.820710
   24          1             0        3.182160   -2.888303    0.344502
   25          1             0        1.917955   -2.779546   -0.908221
   26          1             0        3.300835    0.818500    0.538656
 --------------------------------------------------------------------
     1 basis functions        1 primitive gaussians
     1 alpha electrons        1 beta electrons
 
 Harmonic frequencies (cm**-1), IR intensities (km*mol⁻¹),
 Raman scattering activities (A**4/amu), Raman depolarization ratios,
 reduced masses (AMU), force constants (mDyne/A) and normal coordinates:
                      1                      2                      3
                        a                      a                      a 
 Frequencies --    33.6447                67.3389                84.8876
 Red. masses --     9.2298                10.4741                10.2843
 Frc consts  --     0.0000                 0.0000                 0.0000
 IR Inten    --     0.4701                 0.4470                 4.3016
 Raman Activ --     0.0000                 0.0000                 0.0000
 Depolar     --     0.0000                 0.0000                 0.0000
 Atom AN      X      Y      Z        X      Y      Z        X      Y      Z
   1   6     0.29  -0.45   0.23    -0.54  -0.19  -0.13     0.13   0.11  -0.01
   2   6     0.08  -0.15  -0.16    -0.07  -0.10  -0.08     0.04   0.05   0.02
   3   6    -0.04   0.20  -0.07     0.04   0.10   0.07     0.00  -0.05  -0.04
   4   6    -0.02   0.15  -0.06     0.02   0.08   0.19     0.00  -0.04  -0.08
   5   6     0.05   0.14  -0.11     0.05   0.07   0.23    -0.09  -0.05   0.19
   6   6     0.08   0.08  -0.13     0.10   0.04   0.09    -0.10  -0.03   0.23
   7   6     0.02   0.03  -0.07     0.12   0.02  -0.08    -0.04  -0.01   0.01
   8   6    -0.06   0.04   0.01     0.07   0.02  -0.01     0.05  -0.00  -0.25
   9   6    -0.08   0.10  -0.00     0.02   0.05   0.11     0.07  -0.02  -0.30
  10   8    -0.14  -0.02   0.10     0.08  -0.01  -0.14     0.11   0.03  -0.45
  11   6    -0.24  -0.02   0.27    -0.05  -0.02   0.16    -0.10  -0.02   0.45
  12   8     0.05  -0.03  -0.09     0.23  -0.01  -0.36    -0.07   0.00   0.10
  13   1     0.08  -0.08   0.16    -0.20  -0.11  -0.06     0.05   0.04  -0.01
  14   1     0.11  -0.20   0.05    -0.16  -0.10  -0.06     0.04   0.05   0.00
  15   1     0.11  -0.18   0.07    -0.21   0.02   0.00     0.05   0.02  -0.02
  16   1     0.00   0.00  -0.05     0.03  -0.09  -0.08    -0.00   0.02   0.03
  17   1     0.03  -0.10  -0.14     0.01   0.01   0.01     0.01   0.01   0.01
  18   1    -0.03   0.09   0.06     0.02   0.04   0.04    -0.00  -0.02  -0.02
  19   1    -0.03   0.12  -0.09     0.03   0.06  -0.01    -0.01  -0.03   0.00
  20   1     0.03   0.05  -0.04     0.01   0.03   0.09    -0.04  -0.02   0.11
  21   1     0.04   0.02  -0.05     0.04   0.01   0.02    -0.05  -0.01   0.13
  22   1    -0.04   0.03   0.01    -0.00   0.02   0.03     0.04  -0.00  -0.14
  23   1    -0.09   0.04   0.08    -0.00   0.05   0.09    -0.05   0.15   0.18
  24   1    -0.08  -0.02   0.11    -0.02  -0.01   0.04    -0.05  -0.00   0.21
  25   1    -0.06  -0.04   0.09    -0.05  -0.06   0.07    -0.03  -0.17   0.18
  26   1    -0.00  -0.02  -0.01     0.06  -0.01  -0.11    -0.01   0.00  -0.00
                      4                      5                      6
                        a                      a                      a 
 Frequencies --   110.0939               163.4061               186.4941
 Red. masses --     7.6442                10.7168                 8.4290
 Frc consts  --     0.0000                 0.0000                 0.0000
 IR Inten    --     0.1396                 1.2612                 0.8792
 Raman Activ --     0.0000                 0.0000                 0.0000
 Depolar     --     0.0000                 0.0000                 0.0000
 Atom AN      X      Y      Z        X      Y      Z        X      Y      Z
   1   6    -0.21  -0.03   0.01    -0.20  -0.09   0.17     0.11   0.01  -0.13
   2   6     0.38  -0.11   0.27    -0.26   0.06  -0.01     0.06  -0.11  -0.01
   3   6    -0.00   0.01   0.10    -0.09   0.12   0.11     0.14  -0.21   0.01
   4   6     0.02   0.09  -0.15    -0.01  -0.02   0.06     0.03  -0.00   0.12
   5   6     0.07   0.08  -0.20     0.11  -0.01  -0.28     0.02   0.02  -0.07
   6   6     0.07   0.04  -0.13     0.10  -0.01  -0.27     0.00   0.03  -0.02
   7   6     0.01   0.01   0.01     0.02  -0.03  -0.01     0.04   0.08   0.07
   8   6    -0.00   0.02  -0.09     0.03  -0.02  -0.07     0.06   0.07   0.11
   9   6     0.01   0.07  -0.17    -0.02  -0.04   0.10     0.02   0.06   0.29
  10   8    -0.07  -0.05  -0.04     0.17   0.08  -0.35     0.02  -0.11  -0.28
  11   6    -0.16  -0.04  -0.02     0.23   0.04   0.08    -0.45  -0.06  -0.11
  12   8    -0.05  -0.05   0.31    -0.07  -0.09   0.40    -0.01   0.24   0.09
  13   1    -0.26  -0.19  -0.02     0.01   0.04   0.07     0.13   0.05  -0.10
  14   1     0.09  -0.04   0.08    -0.12  -0.05  -0.00    -0.07   0.06  -0.07
  15   1    -0.14   0.23  -0.11    -0.05  -0.10   0.12     0.04  -0.06   0.02
  16   1     0.18  -0.21   0.13    -0.09   0.08  -0.05     0.01  -0.02  -0.01
  17   1     0.25   0.11   0.12    -0.12  -0.03  -0.02    -0.00  -0.03   0.02
  18   1    -0.06  -0.01   0.08     0.00   0.06   0.04     0.03  -0.10  -0.05
  19   1    -0.02   0.01   0.01    -0.05   0.05   0.01     0.10  -0.08   0.04
  20   1     0.03   0.03  -0.07     0.05   0.00  -0.14     0.01   0.00  -0.07
  21   1     0.03   0.01  -0.03     0.04  -0.00  -0.11    -0.00   0.01  -0.03
  22   1    -0.01   0.02  -0.06    -0.01  -0.01   0.07    -0.01   0.02   0.13
  23   1    -0.07   0.01  -0.02     0.17   0.04   0.14     0.01   0.05   0.15
  24   1    -0.06  -0.03   0.02     0.11   0.05  -0.07    -0.11  -0.10  -0.26
  25   1    -0.03  -0.01  -0.01    -0.05  -0.07   0.08    -0.39  -0.00   0.04
  26   1    -0.02  -0.02   0.10    -0.03  -0.03   0.12     0.02   0.08   0.03
                      7                      8                      9
                        a                      a                      a 
 Frequencies --   206.9089               242.3964               260.9636
 Red. masses --     4.9886                 5.0869                 8.1495
 Frc consts  --     0.0000                 0.0000                 0.0000
 IR Inten    --     0.3785                 0.8630                 1.1561
 Raman Activ --     0.0000                 0.0000                 0.0000
 Depolar     --     0.0000                 0.0000                 0.0000
 Atom AN      X      Y      Z        X      Y      Z        X      Y      Z
   1   6     0.15   0.05  -0.11     0.01  -0.01   0.06     0.13   0.03  -0.18
   2   6     0.10   0.02  -0.09    -0.27   0.08  -0.12     0.09  -0.13  -0.01
   3   6    -0.05   0.10  -0.13     0.00   0.00  -0.00     0.02  -0.08   0.00
   4   6    -0.05   0.02  -0.01     0.04  -0.11   0.10    -0.09   0.09   0.16
   5   6    -0.03   0.02   0.01     0.03  -0.09  -0.02     0.00   0.09  -0.07
   6   6    -0.06  -0.01   0.13     0.01  -0.05  -0.05     0.01   0.07  -0.00
   7   6    -0.09  -0.05   0.07     0.07   0.02   0.02    -0.06   0.00   0.08
   8   6    -0.13  -0.05   0.12     0.12   0.01   0.03    -0.13   0.02   0.10
   9   6    -0.15  -0.04   0.20     0.09  -0.03   0.11    -0.18   0.03   0.36
  10   8     0.00   0.07  -0.10     0.11  -0.09  -0.09     0.01   0.12  -0.34
  11   6     0.21   0.04   0.08    -0.13  -0.07  -0.06     0.06   0.09  -0.02
  12   8    -0.01  -0.18  -0.12    -0.04   0.30   0.05     0.06  -0.30   0.02
  13   1    -0.20  -0.14   0.06    -0.30  -0.15   0.20     0.07   0.01  -0.10
  14   1     0.32  -0.02   0.11     0.37  -0.08   0.19     0.01   0.07  -0.04
  15   1     0.03   0.21  -0.27     0.01   0.20  -0.29     0.05  -0.00  -0.06
  16   1     0.03  -0.03   0.02    -0.11   0.11  -0.06     0.03  -0.06   0.02
  17   1     0.07   0.03  -0.04    -0.14  -0.05  -0.06     0.04  -0.01   0.01
  18   1    -0.01   0.05  -0.00     0.05   0.02  -0.02    -0.02  -0.05  -0.01
  19   1    -0.02   0.05  -0.06    -0.00  -0.00   0.00     0.07  -0.02   0.00
  20   1     0.00   0.01  -0.03     0.01  -0.03  -0.03     0.02   0.04  -0.09
  21   1    -0.01  -0.00   0.04    -0.00  -0.01  -0.04     0.02   0.02  -0.04
  22   1    -0.06  -0.01   0.09     0.04  -0.01   0.03    -0.06   0.01   0.11
  23   1     0.30  -0.03   0.25    -0.19   0.04  -0.14    -0.21   0.09  -0.21
  24   1     0.16   0.08  -0.27    -0.11  -0.07   0.18    -0.07   0.04   0.35
  25   1    -0.22  -0.02   0.11     0.13  -0.02  -0.06     0.33  -0.05  -0.07
  26   1    -0.02  -0.06  -0.06     0.04   0.12   0.03    -0.03  -0.12  -0.03
                     10                     11                     12
                        a                      a                      a 
 Frequencies --   295.8426               337.9762               368.5417
 Red. masses --    10.5499                10.2395                 8.2955
 Frc consts  --     0.0000                 0.0000                 0.0000
 IR Inten    --     3.8371                 3.5702                 1.1556
 Raman Activ --     0.0000                 0.0000                 0.0000
 Depolar     --     0.0000                 0.0000                 0.0000
 Atom AN      X      Y      Z        X      Y      Z        X      Y      Z
   1   6     0.02  -0.01  -0.01    -0.15  -0.03   0.24     0.08   0.05  -0.18
   2   6    -0.23  -0.09   0.01     0.05   0.21   0.01     0.09  -0.08  -0.03
   3   6     0.05  -0.28   0.07     0.03   0.00  -0.13    -0.14   0.32   0.07
   4   6    -0.03  -0.01   0.06     0.12  -0.17  -0.28     0.05  -0.25   0.14
   5   6     0.01  -0.01   0.11     0.09  -0.17  -0.30     0.01  -0.27   0.16
   6   6     0.07   0.09  -0.10    -0.11  -0.04   0.28    -0.01  -0.07  -0.14
   7   6     0.08   0.11  -0.10    -0.06   0.03   0.25     0.01  -0.01  -0.13
   8   6    -0.01   0.14  -0.13    -0.02   0.05   0.15     0.04  -0.00  -0.04
   9   6     0.07   0.05  -0.18     0.07  -0.13   0.06     0.07  -0.24   0.07
  10   8    -0.05   0.25   0.14     0.10   0.19  -0.06     0.13   0.19   0.06
  11   6    -0.17   0.27  -0.02    -0.19   0.21  -0.04    -0.20   0.23  -0.04
  12   8     0.25  -0.43   0.13     0.13  -0.15  -0.16    -0.05  -0.05   0.07
  13   1    -0.07  -0.04   0.05    -0.05   0.01   0.12     0.07   0.01  -0.12
  14   1     0.12   0.01   0.07    -0.06  -0.11   0.01    -0.02   0.08  -0.05
  15   1     0.03   0.04  -0.13    -0.07  -0.01   0.15     0.03  -0.00  -0.05
  16   1    -0.10   0.06  -0.03     0.02   0.04   0.00     0.04  -0.07   0.02
  17   1    -0.14  -0.08   0.02     0.03   0.06  -0.00     0.09   0.02  -0.03
  18   1     0.01  -0.14  -0.08     0.04   0.01  -0.06     0.00   0.25   0.23
  19   1     0.09  -0.13   0.09    -0.06  -0.04   0.00    -0.18   0.24  -0.16
  20   1    -0.01  -0.00   0.08     0.03  -0.06  -0.17    -0.03  -0.10   0.08
  21   1    -0.01   0.03  -0.04    -0.08  -0.01   0.11    -0.04  -0.01  -0.07
  22   1     0.03   0.01  -0.06     0.04  -0.04   0.03     0.03  -0.07   0.03
  23   1    -0.01   0.07   0.04    -0.10   0.12  -0.03    -0.09   0.11  -0.02
  24   1    -0.04   0.04  -0.10    -0.09  -0.01   0.01    -0.09  -0.02  -0.02
  25   1    -0.14   0.12   0.01    -0.05   0.08  -0.02    -0.08   0.12  -0.02
  26   1    -0.04  -0.19   0.04     0.02  -0.06  -0.14    -0.03  -0.02   0.07
                     13                     14                     15
                        a                      a                      a 
 Frequencies --   405.4407               423.1747               435.8969
 Red. masses --     9.6036                 3.8740                 8.9061
 Frc consts  --     0.0000                 0.0000                 0.0000
 IR Inten    --     6.6229               151.7634                54.2618
 Raman Activ --     0.0000                 0.0000                 0.0000
 Depolar     --     0.0000                 0.0000                 0.0000
 Atom AN      X      Y      Z        X      Y      Z        X      Y      Z
   1   6     0.06   0.02  -0.17    -0.00  -0.00  -0.00    -0.01  -0.00   0.01
   2   6    -0.22  -0.29   0.11    -0.03  -0.03   0.02     0.01   0.01  -0.00
   3   6    -0.34  -0.02   0.14    -0.08  -0.03  -0.01    -0.01  -0.01  -0.02
   4   6    -0.16  -0.04  -0.14    -0.04  -0.01  -0.10     0.00   0.00  -0.09
   5   6     0.13  -0.06  -0.21     0.04  -0.02  -0.10     0.02  -0.00  -0.10
   6   6     0.07  -0.08   0.17    -0.04  -0.03   0.24    -0.06  -0.01   0.24
   7   6     0.17   0.06   0.26     0.10   0.03  -0.12     0.13   0.03  -0.44
   8   6    -0.01   0.10   0.05     0.04   0.04  -0.18     0.11   0.03  -0.43
   9   6    -0.01   0.11  -0.14    -0.05   0.03   0.13    -0.08   0.00   0.30
  10   8    -0.08  -0.01  -0.01    -0.04  -0.01   0.02    -0.06  -0.01   0.15
  11   6     0.05  -0.02   0.02     0.02  -0.01  -0.00     0.01  -0.01   0.01
  12   8     0.30   0.15   0.01     0.14   0.05  -0.18    -0.04  -0.01   0.26
  13   1     0.07   0.01  -0.12     0.01   0.00  -0.01    -0.00   0.00   0.01
  14   1     0.01   0.15   0.02    -0.01   0.01   0.00    -0.00  -0.01  -0.00
  15   1     0.06  -0.03  -0.13     0.00  -0.01  -0.01    -0.00  -0.00   0.01
  16   1    -0.08  -0.07   0.05    -0.01  -0.01   0.02     0.00  -0.00   0.00
  17   1    -0.06  -0.08   0.03    -0.00  -0.01   0.01     0.00   0.01   0.00
  18   1    -0.13   0.05   0.17    -0.03  -0.00   0.01    -0.00  -0.01  -0.01
  19   1    -0.16   0.07  -0.06    -0.04  -0.00  -0.01    -0.01  -0.01  -0.00
  20   1     0.08   0.03  -0.10     0.02   0.01  -0.02    -0.00   0.00   0.01
  21   1    -0.02  -0.01   0.06    -0.05  -0.01   0.17    -0.07  -0.01   0.26
  22   1     0.04   0.02  -0.04    -0.02   0.00   0.12    -0.07  -0.01   0.29
  23   1     0.03  -0.03   0.01     0.00  -0.02  -0.01    -0.00  -0.03  -0.02
  24   1     0.03   0.03   0.00     0.01   0.01   0.01     0.00   0.00   0.01
  25   1     0.02  -0.02   0.01     0.02  -0.00  -0.01     0.02   0.02  -0.01
  26   1     0.14   0.06  -0.20    -0.19  -0.03   0.82     0.10   0.02  -0.37
                     16                     17                     18
                        a                      a                      a 
 Frequencies --   467.0534               527.1707               534.2685
 Red. masses --    10.9958                10.7564                11.7048
 Frc consts  --     0.0000                 0.0000                 0.0000
 IR Inten    --     1.7267                 3.0333                26.6135
 Raman Activ --     0.0000                 0.0000                 0.0000
 Depolar     --     0.0000                 0.0000                 0.0000
 Atom AN      X      Y      Z        X      Y      Z        X      Y      Z
   1   6    -0.03   0.01   0.11     0.00   0.00  -0.02     0.00  -0.01  -0.01
   2   6     0.12   0.16  -0.05     0.04   0.01  -0.02     0.02  -0.01   0.00
   3   6    -0.18  -0.08  -0.32     0.19   0.08   0.13     0.15  -0.03   0.07
   4   6    -0.18  -0.15  -0.11     0.19  -0.18   0.13     0.08  -0.01   0.11
   5   6    -0.04  -0.22   0.29     0.03  -0.15  -0.07     0.37  -0.05   0.02
   6   6     0.09  -0.11  -0.20    -0.16   0.32   0.01     0.30  -0.02   0.12
   7   6     0.25   0.11  -0.05    -0.10   0.33   0.04     0.04  -0.19   0.04
   8   6    -0.12   0.13   0.12    -0.07   0.24  -0.07    -0.28  -0.11  -0.15
   9   6    -0.11   0.02   0.11     0.15  -0.13  -0.01    -0.19  -0.31  -0.10
  10   8    -0.23   0.02  -0.14    -0.42  -0.13  -0.09    -0.37   0.19  -0.06
  11   6     0.04  -0.01   0.00     0.05  -0.24   0.01    -0.03   0.21   0.01
  12   8     0.31   0.14   0.18     0.10  -0.07   0.00    -0.13   0.23  -0.04
  13   1    -0.02   0.02   0.07    -0.01  -0.01  -0.01    -0.00  -0.01  -0.00
  14   1    -0.03  -0.09  -0.02     0.00   0.00  -0.01     0.01  -0.00   0.00
  15   1    -0.03   0.00   0.11    -0.01   0.01  -0.01    -0.00   0.00  -0.01
  16   1     0.05  -0.05   0.08     0.01   0.05  -0.06     0.00   0.03  -0.04
  17   1     0.13   0.12  -0.03    -0.04  -0.03   0.00    -0.03  -0.02   0.01
  18   1    -0.04  -0.05  -0.15     0.10   0.09   0.10     0.04  -0.05  -0.03
  19   1    -0.05  -0.08  -0.03     0.00   0.07  -0.02     0.10  -0.04   0.06
  20   1    -0.01  -0.04   0.14    -0.05  -0.12  -0.06     0.12  -0.00  -0.01
  21   1    -0.04  -0.01  -0.12    -0.13   0.11  -0.02     0.13  -0.02   0.05
  22   1     0.05  -0.01   0.03     0.12  -0.05   0.01    -0.07  -0.08  -0.04
  23   1     0.03  -0.04   0.00     0.07  -0.15   0.02     0.02   0.02   0.01
  24   1     0.04   0.08   0.03     0.08   0.09   0.02     0.02   0.13   0.01
  25   1     0.05  -0.06   0.01     0.07  -0.14   0.01     0.01   0.02   0.01
  26   1     0.08   0.03   0.02    -0.07  -0.10  -0.02     0.08   0.15   0.02
                     19                     20                     21
                        a                      a                      a 
 Frequencies --   604.0398               670.0308               697.4039
 Red. masses --    10.6776                11.5686                10.3523
 Frc consts  --     0.0000                 0.0000                 0.0000
 IR Inten    --     3.6876                 0.4494                 6.6559
 Raman Activ --     0.0000                 0.0000                 0.0000
 Depolar     --     0.0000                 0.0000                 0.0000
 Atom AN      X      Y      Z        X      Y      Z        X      Y      Z
   1   6     0.02   0.01   0.01     0.01   0.00  -0.01    -0.01   0.00   0.03
   2   6     0.09   0.12  -0.10     0.04   0.05  -0.05    -0.12  -0.02  -0.00
   3   6    -0.05   0.03  -0.12     0.03   0.04   0.01    -0.32  -0.08  -0.22
   4   6    -0.24  -0.04   0.56    -0.12  -0.01   0.39    -0.09  -0.07   0.13
   5   6    -0.07  -0.05  -0.17    -0.02  -0.01  -0.28     0.35  -0.03   0.05
   6   6    -0.08  -0.16   0.00    -0.12  -0.14   0.25     0.16   0.51   0.12
   7   6    -0.03  -0.03   0.33     0.17  -0.00  -0.51    -0.10   0.14  -0.10
   8   6     0.14   0.03  -0.46    -0.12  -0.02   0.46    -0.01   0.02   0.03
   9   6    -0.01   0.07  -0.04     0.06   0.04  -0.27    -0.00  -0.14  -0.04
  10   8    -0.01   0.00   0.14    -0.02   0.02  -0.06     0.24  -0.08   0.06
  11   6    -0.00   0.02   0.02     0.00   0.03  -0.00     0.01  -0.13  -0.00
  12   8     0.11   0.01  -0.05     0.04   0.01   0.09    -0.18  -0.03  -0.04
  13   1    -0.00   0.02   0.04    -0.00   0.01   0.02     0.03   0.05   0.05
  14   1     0.01  -0.06  -0.03     0.01  -0.02  -0.01     0.01   0.01   0.02
  15   1    -0.01  -0.00   0.05    -0.00   0.00   0.01     0.04  -0.06  -0.02
  16   1     0.05  -0.06   0.05     0.02  -0.02   0.01     0.01  -0.18   0.14
  17   1     0.12   0.10  -0.04     0.04   0.04  -0.02     0.14   0.12  -0.01
  18   1     0.02  -0.01  -0.11     0.03   0.01  -0.03    -0.08  -0.06  -0.15
  19   1     0.08  -0.01   0.00     0.06   0.01   0.01    -0.03  -0.07   0.00
  20   1     0.03   0.01  -0.21     0.00   0.00  -0.09     0.08  -0.03  -0.03
  21   1    -0.02  -0.04  -0.09    -0.04  -0.04   0.06     0.04   0.14   0.00
  22   1     0.03   0.02  -0.10     0.03   0.01  -0.13     0.03  -0.05  -0.05
  23   1     0.01  -0.01   0.01     0.00   0.01   0.00    -0.02   0.00  -0.00
  24   1     0.00  -0.00  -0.02     0.00   0.02   0.00    -0.02  -0.10  -0.01
  25   1    -0.02   0.03   0.00     0.00  -0.01   0.00    -0.02   0.00  -0.00
  26   1     0.03  -0.00  -0.02     0.01   0.00   0.02    -0.06  -0.02  -0.02
                     22                     23                     24
                        a                      a                      a 
 Frequencies --   802.9517               813.1606               831.1881
 Red. masses --    11.4533                 3.6825                 4.5531
 Frc consts  --     0.0000                 0.0000                 0.0000
 IR Inten    --   115.6896                22.5096                29.4096
 Raman Activ --     0.0000                 0.0000                 0.0000
 Depolar     --     0.0000                 0.0000                 0.0000
 Atom AN      X      Y      Z        X      Y      Z        X      Y      Z
   1   6    -0.03   0.01   0.01     0.05   0.04   0.06    -0.09  -0.02  -0.01
   2   6    -0.09  -0.01  -0.01     0.19  -0.03   0.07    -0.21  -0.04  -0.01
   3   6    -0.04  -0.02  -0.04    -0.02  -0.12  -0.11     0.08   0.09   0.06
   4   6     0.02  -0.05   0.00    -0.08  -0.03  -0.04     0.17   0.05  -0.18
   5   6     0.20  -0.14   0.04     0.06  -0.05   0.18    -0.16   0.09   0.15
   6   6     0.14  -0.22   0.02     0.02   0.03   0.20    -0.10  -0.05   0.15
   7   6    -0.01  -0.10  -0.00     0.03   0.01  -0.15     0.04  -0.02  -0.13
   8   6     0.18   0.18   0.06     0.02   0.04  -0.06     0.02  -0.05  -0.06
   9   6     0.30   0.43   0.09    -0.04   0.10   0.15    -0.01  -0.12   0.18
  10   8    -0.27   0.02  -0.07     0.02  -0.01   0.03    -0.06   0.01   0.00
  11   6    -0.04   0.08  -0.01     0.00  -0.02   0.00    -0.01   0.03   0.00
  12   8    -0.44  -0.18  -0.12    -0.11  -0.03   0.01     0.09   0.03   0.06
  13   1     0.02   0.06   0.06    -0.07  -0.15  -0.15     0.07   0.16   0.14
  14   1     0.02   0.01   0.02    -0.08  -0.02  -0.06     0.08   0.07   0.09
  15   1     0.04  -0.06  -0.04    -0.14   0.21   0.14     0.15  -0.22  -0.16
  16   1     0.02  -0.12   0.04    -0.10   0.31  -0.02     0.09  -0.29  -0.01
  17   1     0.07   0.09   0.02    -0.18  -0.24  -0.07     0.13   0.20   0.10
  18   1     0.03   0.03  -0.00    -0.05   0.02   0.12     0.05   0.01  -0.05
  19   1    -0.03   0.01  -0.03    -0.10   0.04  -0.12     0.03  -0.01   0.06
  20   1     0.10   0.01   0.03     0.14   0.03  -0.37     0.05   0.02  -0.37
  21   1     0.08  -0.07   0.02     0.10   0.02  -0.31     0.09  -0.00  -0.32
  22   1     0.20   0.10   0.07     0.10   0.04  -0.31     0.07  -0.01  -0.32
  23   1     0.04  -0.05   0.01     0.00   0.00   0.01     0.01   0.00   0.01
  24   1     0.04   0.15   0.02     0.00  -0.01  -0.01     0.01   0.03  -0.01
  25   1     0.04  -0.05   0.00    -0.01  -0.00   0.00    -0.00  -0.01   0.00
  26   1    -0.08  -0.02  -0.02    -0.02  -0.01  -0.01     0.03   0.01   0.01
                     25                     26                     27
                        a                      a                      a 
 Frequencies --   859.9594               896.9254               904.6730
 Red. masses --     3.1997                 6.8411                 3.3757
 Frc consts  --     0.0000                 0.0000                 0.0000
 IR Inten    --     0.3808                 2.6179                 0.8029
 Raman Activ --     0.0000                 0.0000                 0.0000
 Depolar     --     0.0000                 0.0000                 0.0000
 Atom AN      X      Y      Z        X      Y      Z        X      Y      Z
   1   6    -0.00   0.00   0.01    -0.09   0.22   0.17    -0.00   0.02  -0.00
   2   6    -0.00  -0.01   0.01    -0.07  -0.18  -0.01     0.00  -0.00  -0.01
   3   6     0.00   0.01   0.00     0.13  -0.34  -0.37     0.00  -0.04  -0.02
   4   6     0.00   0.00   0.01     0.08   0.01   0.14     0.01   0.00  -0.01
   5   6     0.04   0.01  -0.17    -0.11   0.22  -0.03     0.07   0.03  -0.31
   6   6     0.04   0.00  -0.17     0.03   0.07  -0.05    -0.07  -0.00   0.30
   7   6     0.00  -0.00  -0.01    -0.02  -0.06   0.01    -0.00  -0.01   0.01
   8   6     0.01   0.00  -0.01     0.03  -0.08   0.01     0.02  -0.00  -0.07
   9   6    -0.09  -0.02   0.36     0.06  -0.07  -0.03    -0.02  -0.01   0.09
  10   8    -0.01  -0.00   0.02    -0.08  -0.00  -0.02    -0.01  -0.00   0.00
  11   6    -0.00   0.00  -0.00    -0.01   0.06  -0.00    -0.00   0.00   0.00
  12   8    -0.00  -0.00  -0.01     0.07   0.02   0.01    -0.00   0.00   0.02
  13   1    -0.00  -0.01  -0.01    -0.03   0.13   0.17    -0.01   0.01   0.02
  14   1    -0.00   0.01   0.01     0.02  -0.01   0.04     0.01  -0.02  -0.01
  15   1    -0.00   0.00  -0.00     0.01  -0.01   0.06    -0.00  -0.00   0.01
  16   1    -0.01   0.01  -0.00    -0.02  -0.08   0.07    -0.00  -0.00   0.01
  17   1     0.00  -0.01  -0.01    -0.05   0.02   0.16    -0.01   0.01   0.02
  18   1     0.00   0.00  -0.01     0.04   0.14   0.29     0.01   0.01   0.03
  19   1    -0.00  -0.00   0.01    -0.12   0.20  -0.43    -0.02   0.02  -0.04
  20   1    -0.07  -0.01   0.26    -0.03   0.06  -0.00    -0.16  -0.02   0.62
  21   1    -0.11  -0.02   0.41     0.08  -0.00   0.12     0.16   0.03  -0.58
  22   1     0.19   0.03  -0.71    -0.04  -0.01   0.04     0.01   0.00  -0.06
  23   1     0.01   0.01   0.01     0.01  -0.00   0.00     0.00   0.00   0.00
  24   1     0.01   0.00  -0.02     0.01   0.05   0.01     0.00   0.00  -0.00
  25   1    -0.01  -0.01   0.00     0.01  -0.00   0.00     0.00  -0.00   0.00
  26   1     0.00   0.00  -0.01     0.04   0.03   0.01     0.01   0.00  -0.01
                     28                     29                     30
                        a                      a                      a 
 Frequencies --   923.9511               955.4349              1038.0783
 Red. masses --     6.0755                 8.4716                11.1350
 Frc consts  --     0.0000                 0.0000                 0.0000
 IR Inten    --     8.7054                16.5989                43.7617
 Raman Activ --     0.0000                 0.0000                 0.0000
 Depolar     --     0.0000                 0.0000                 0.0000
 Atom AN      X      Y      Z        X      Y      Z        X      Y      Z
   1   6    -0.02  -0.04   0.27    -0.15   0.10   0.25    -0.05   0.01   0.04
   2   6    -0.10  -0.20   0.13     0.00  -0.20   0.02     0.06  -0.01  -0.02
   3   6    -0.07   0.23  -0.30     0.33   0.12  -0.15     0.03   0.03   0.02
   4   6     0.15   0.02   0.07    -0.15   0.02  -0.03    -0.10  -0.02  -0.02
   5   6    -0.11   0.14  -0.04     0.17  -0.28   0.02     0.08  -0.19   0.01
   6   6    -0.03  -0.02  -0.01    -0.02  -0.11  -0.01    -0.07   0.26  -0.01
   7   6    -0.02  -0.05  -0.00     0.04   0.10   0.02    -0.07  -0.08  -0.02
   8   6     0.11  -0.06   0.02    -0.18   0.12  -0.05     0.14  -0.27   0.02
   9   6     0.18  -0.14   0.02    -0.24   0.19  -0.06    -0.05   0.22  -0.00
  10   8    -0.12  -0.02  -0.03     0.17   0.07   0.05    -0.04  -0.50  -0.03
  11   6    -0.04   0.09  -0.01     0.06  -0.18   0.01    -0.00   0.52   0.02
  12   8     0.05   0.00   0.01    -0.07  -0.00  -0.02     0.09   0.01   0.02
  13   1     0.05  -0.17  -0.30     0.06   0.06  -0.01     0.02   0.03   0.01
  14   1    -0.12   0.36   0.18    -0.01   0.27   0.20     0.01   0.06   0.05
  15   1    -0.04   0.15  -0.05     0.06  -0.03  -0.11     0.03  -0.03  -0.04
  16   1    -0.08  -0.00   0.11     0.06  -0.07  -0.15     0.04   0.01  -0.11
  17   1     0.06  -0.14  -0.23    -0.02  -0.06   0.03    -0.02  -0.02   0.01
  18   1     0.04  -0.01  -0.29     0.08   0.04  -0.01    -0.02  -0.01   0.01
  19   1     0.09  -0.05   0.05     0.18   0.10  -0.10     0.03   0.00   0.01
  20   1    -0.06   0.01   0.02     0.07  -0.05   0.04    -0.07  -0.16  -0.02
  21   1     0.07  -0.02   0.00    -0.19   0.00  -0.06    -0.16   0.10  -0.04
  22   1     0.06  -0.05   0.05    -0.11   0.06  -0.02    -0.13   0.08  -0.03
  23   1     0.02  -0.02   0.01    -0.03   0.03  -0.01     0.03   0.03   0.00
  24   1     0.02   0.09   0.01    -0.03  -0.16  -0.02     0.03   0.19   0.02
  25   1     0.02  -0.02   0.00    -0.03   0.03  -0.00     0.03   0.03   0.02
  26   1     0.02   0.01   0.00    -0.05  -0.04  -0.02     0.09   0.07   0.03
                     31                     32                     33
                        a                      a                      a 
 Frequencies --  1076.3219              1078.5830              1103.6308
 Red. masses --     5.1071                 4.6034                 8.1763
 Frc consts  --     0.0000                 0.0000                 0.0000
 IR Inten    --     2.2372                 0.6807                75.4558
 Raman Activ --     0.0000                 0.0000                 0.0000
 Depolar     --     0.0000                 0.0000                 0.0000
 Atom AN      X      Y      Z        X      Y      Z        X      Y      Z
   1   6    -0.10  -0.29   0.03    -0.21   0.10   0.09    -0.00   0.17   0.09
   2   6     0.09   0.34   0.04     0.35  -0.04  -0.12     0.04  -0.14  -0.18
   3   6     0.06  -0.23  -0.01    -0.19   0.04  -0.01    -0.07   0.03   0.12
   4   6    -0.07  -0.13   0.07    -0.10  -0.01   0.04     0.01  -0.05  -0.03
   5   6    -0.04   0.07  -0.02    -0.07   0.08  -0.02    -0.03  -0.12  -0.01
   6   6     0.03   0.12   0.00     0.05  -0.03   0.01    -0.03   0.23   0.01
   7   6    -0.02  -0.09  -0.01     0.02   0.04   0.01    -0.12  -0.25  -0.04
   8   6    -0.02  -0.01  -0.01     0.04   0.06   0.01     0.08  -0.16   0.01
   9   6    -0.05   0.11  -0.02     0.11  -0.19   0.01     0.05   0.22   0.03
  10   8    -0.01   0.09   0.00     0.02  -0.01   0.00    -0.09   0.39  -0.01
  11   6     0.02  -0.07   0.00    -0.06   0.01  -0.01    -0.01  -0.27  -0.01
  12   8     0.03  -0.02   0.01    -0.03   0.00  -0.01     0.10  -0.09   0.02
  13   1     0.12  -0.07  -0.19     0.05   0.17   0.13    -0.03   0.04   0.06
  14   1    -0.01   0.26   0.17     0.06   0.14   0.14    -0.01  -0.01  -0.01
  15   1     0.09  -0.12  -0.25     0.10  -0.14  -0.15    -0.03   0.06   0.07
  16   1     0.09   0.06  -0.15     0.16   0.11  -0.43     0.02  -0.05  -0.06
  17   1     0.04   0.05  -0.07    -0.13  -0.13   0.06     0.05  -0.04  -0.10
  18   1     0.24   0.16   0.08    -0.37  -0.20   0.06    -0.07  -0.06  -0.01
  19   1    -0.44  -0.14   0.03     0.03  -0.04   0.06     0.09   0.02   0.03
  20   1    -0.01   0.02   0.01     0.00   0.05   0.01    -0.20  -0.26  -0.07
  21   1     0.12   0.01   0.04     0.14  -0.03   0.04     0.10   0.04   0.03
  22   1    -0.03   0.03   0.01     0.20  -0.09   0.05     0.02   0.06   0.00
  23   1    -0.01   0.01  -0.00     0.02  -0.04   0.01    -0.02  -0.01  -0.00
  24   1    -0.01  -0.05  -0.00     0.01   0.07   0.01    -0.00  -0.06  -0.00
  25   1    -0.01   0.01  -0.00     0.03  -0.04  -0.00    -0.02  -0.01  -0.01
  26   1     0.11   0.08   0.03    -0.05  -0.04  -0.02     0.36   0.28   0.11
                     34                     35                     36
                        a                      a                      a 
 Frequencies --  1116.6937              1117.9554              1136.5625
 Red. masses --     8.0694                 3.6967                 6.7141
 Frc consts  --     0.0000                 0.0000                 0.0000
 IR Inten    --    20.0775                 2.8056               419.4996
 Raman Activ --     0.0000                 0.0000                 0.0000
 Depolar     --     0.0000                 0.0000                 0.0000
 Atom AN      X      Y      Z        X      Y      Z        X      Y      Z
   1   6    -0.04  -0.23  -0.25     0.00   0.01   0.01     0.01  -0.01  -0.02
   2   6     0.01   0.10   0.49    -0.00  -0.00  -0.01    -0.03  -0.01   0.05
   3   6     0.05   0.22  -0.35    -0.00  -0.00   0.01     0.06   0.03  -0.02
   4   6     0.01   0.04   0.07     0.00  -0.00  -0.00    -0.03  -0.04  -0.01
   5   6     0.03  -0.08  -0.01     0.00   0.00   0.00    -0.07   0.14  -0.01
   6   6    -0.02   0.04  -0.01     0.00  -0.00   0.00    -0.05   0.02  -0.01
   7   6    -0.06  -0.06  -0.02     0.00   0.00   0.00     0.23  -0.01   0.06
   8   6     0.07  -0.09   0.01    -0.00   0.00  -0.00    -0.15   0.31  -0.03
   9   6     0.06   0.05   0.01    -0.00  -0.00   0.00    -0.09  -0.12  -0.03
  10   8    -0.04   0.16  -0.01     0.06   0.00  -0.21     0.18  -0.17   0.04
  11   6    -0.03  -0.10  -0.00    -0.11  -0.01   0.41    -0.07   0.09  -0.01
  12   8     0.04  -0.02   0.01    -0.00   0.00   0.00    -0.21  -0.28  -0.07
  13   1     0.02   0.02   0.04    -0.00  -0.00  -0.00    -0.01  -0.01   0.00
  14   1     0.07  -0.09  -0.03    -0.00   0.00   0.00     0.00  -0.02  -0.02
  15   1     0.07  -0.18  -0.11    -0.00   0.00   0.00    -0.00  -0.00   0.01
  16   1    -0.05   0.17   0.06     0.00  -0.00  -0.00    -0.01   0.00   0.03
  17   1    -0.24  -0.02   0.37     0.01   0.00  -0.01    -0.01   0.00   0.03
  18   1    -0.14  -0.05  -0.08     0.00   0.00   0.00     0.03   0.02  -0.01
  19   1     0.08   0.03  -0.04    -0.00  -0.00   0.00     0.03   0.01  -0.01
  20   1    -0.06  -0.11  -0.01     0.00   0.00  -0.00     0.01   0.08   0.01
  21   1    -0.05   0.02  -0.01     0.00  -0.00  -0.00    -0.19   0.04  -0.05
  22   1    -0.04   0.02  -0.00     0.00   0.00  -0.02     0.22  -0.08   0.06
  23   1    -0.00  -0.03  -0.00    -0.04  -0.56  -0.21     0.05  -0.08   0.02
  24   1     0.01   0.02  -0.00     0.06   0.01  -0.22     0.01   0.09   0.01
  25   1     0.00  -0.00  -0.01     0.12   0.58  -0.12     0.05  -0.07   0.00
  26   1     0.09   0.06   0.03    -0.00  -0.00  -0.00     0.49   0.40   0.14
                     37                     38                     39
                        a                      a                      a 
 Frequencies --  1148.3764              1160.6732              1202.1930
 Red. masses --     4.9762                 4.9898                 4.7280
 Frc consts  --     0.0000                 0.0000                 0.0000
 IR Inten    --    43.2388               138.8355                54.4048
 Raman Activ --     0.0000                 0.0000                 0.0000
 Depolar     --     0.0000                 0.0000                 0.0000
 Atom AN      X      Y      Z        X      Y      Z        X      Y      Z
   1   6    -0.00  -0.00   0.03    -0.04  -0.00   0.02     0.04  -0.20   0.09
   2   6     0.01   0.03  -0.07     0.06   0.03  -0.07    -0.09   0.31  -0.15
   3   6    -0.04  -0.08   0.03    -0.14  -0.07  -0.01    -0.05  -0.17   0.05
   4   6     0.03   0.08   0.01     0.16   0.13   0.06     0.15   0.16   0.02
   5   6     0.12  -0.00   0.03     0.07   0.06   0.02    -0.02  -0.05  -0.01
   6   6    -0.06  -0.04  -0.02    -0.04  -0.05  -0.01     0.08  -0.08   0.02
   7   6    -0.07  -0.01  -0.02     0.04   0.04   0.01     0.17   0.09   0.05
   8   6     0.14  -0.15   0.03     0.09  -0.15   0.02    -0.03   0.07  -0.00
   9   6    -0.00  -0.05  -0.00     0.19  -0.07   0.05     0.01  -0.04   0.01
  10   8     0.16   0.24   0.05    -0.28   0.05  -0.07     0.03  -0.02   0.01
  11   6    -0.33  -0.15  -0.09     0.24  -0.02   0.06    -0.01  -0.00  -0.00
  12   8     0.04   0.02   0.01    -0.07  -0.07  -0.02    -0.11  -0.04  -0.03
  13   1     0.01  -0.01  -0.02     0.02   0.02  -0.00     0.06  -0.13  -0.20
  14   1    -0.01   0.03   0.02     0.00   0.03   0.03    -0.07   0.15   0.07
  15   1    -0.00   0.01  -0.01     0.01  -0.01  -0.03    -0.00   0.05  -0.08
  16   1     0.01  -0.01  -0.01     0.01   0.02  -0.02    -0.02  -0.01   0.11
  17   1     0.03   0.01  -0.04     0.00  -0.01  -0.04     0.04   0.17   0.04
  18   1    -0.01  -0.00   0.03    -0.12  -0.06   0.04    -0.35  -0.18   0.22
  19   1    -0.05  -0.01  -0.01    -0.07  -0.03   0.00     0.23   0.18  -0.20
  20   1     0.18   0.18   0.06     0.18   0.21   0.06    -0.25  -0.32  -0.08
  21   1    -0.37   0.06  -0.09    -0.55   0.09  -0.14     0.00  -0.02  -0.00
  22   1    -0.22   0.03  -0.06    -0.10   0.01  -0.03    -0.15   0.02  -0.05
  23   1     0.12  -0.25   0.06    -0.10   0.18  -0.05     0.00  -0.02  -0.00
  24   1     0.11   0.47   0.05    -0.07  -0.32  -0.03     0.01   0.03   0.00
  25   1     0.13  -0.25  -0.01    -0.12   0.18   0.01     0.00  -0.02   0.00
  26   1    -0.01  -0.02  -0.00     0.12   0.10   0.04    -0.01  -0.00  -0.00
                     40                     41                     42
                        a                      a                      a 
 Frequencies --  1212.5628              1253.3848              1262.9107
 Red. masses --     4.8120                 3.2008                 3.4749
 Frc consts  --     0.0000                 0.0000                 0.0000
 IR Inten    --    68.9721                 4.1528                25.2534
 Raman Activ --     0.0000                 0.0000                 0.0000
 Depolar     --     0.0000                 0.0000                 0.0000
 Atom AN      X      Y      Z        X      Y      Z        X      Y      Z
   1   6     0.07  -0.13   0.05    -0.29   0.01  -0.12    -0.08  -0.03  -0.01
   2   6    -0.10   0.18  -0.03     0.20   0.04   0.06     0.08   0.04  -0.01
   3   6     0.11  -0.04   0.08    -0.04  -0.11   0.08    -0.06  -0.01   0.08
   4   6    -0.28  -0.05  -0.12     0.05   0.06  -0.02    -0.03  -0.16  -0.05
   5   6     0.01  -0.03   0.00     0.04   0.04   0.02    -0.07  -0.15  -0.02
   6   6    -0.05   0.10  -0.01     0.00  -0.02   0.00    -0.11   0.02  -0.02
   7   6    -0.25  -0.12  -0.07    -0.00  -0.08  -0.00    -0.10   0.20  -0.02
   8   6     0.01  -0.16  -0.00    -0.07  -0.03  -0.02     0.14   0.14   0.04
   9   6     0.05  -0.00   0.02    -0.05   0.04  -0.01     0.07  -0.07   0.02
  10   8    -0.02   0.03  -0.01     0.04   0.00   0.01    -0.05  -0.05  -0.02
  11   6    -0.00   0.01   0.00    -0.02   0.01  -0.00     0.05   0.00   0.01
  12   8     0.15   0.06   0.04     0.03   0.04   0.01    -0.01  -0.10  -0.01
  13   1     0.03  -0.10  -0.14     0.04   0.19   0.15     0.03   0.04   0.02
  14   1    -0.05   0.07   0.02     0.10   0.01   0.07     0.02   0.02   0.03
  15   1    -0.01   0.05  -0.03     0.10  -0.23  -0.16     0.03  -0.06  -0.06
  16   1     0.00  -0.02   0.03    -0.21   0.24   0.44    -0.06   0.08   0.13
  17   1     0.02   0.14   0.08     0.13  -0.18  -0.42     0.01  -0.03  -0.06
  18   1    -0.06  -0.02   0.12     0.08   0.04   0.01     0.02  -0.00  -0.03
  19   1     0.34   0.18  -0.14     0.16   0.09  -0.09     0.27   0.12  -0.08
  20   1     0.23   0.28   0.07    -0.07  -0.09  -0.03     0.26   0.30   0.08
  21   1    -0.01   0.02  -0.00    -0.11   0.02  -0.03     0.38  -0.08   0.09
  22   1     0.49  -0.10   0.12     0.19  -0.03   0.05    -0.48   0.08  -0.13
  23   1     0.00   0.02   0.01     0.01  -0.01   0.01    -0.03   0.02  -0.03
  24   1    -0.02  -0.05  -0.01    -0.01  -0.01  -0.00     0.01   0.01   0.00
  25   1     0.01   0.02  -0.01     0.02  -0.01  -0.00    -0.04   0.02   0.01
  26   1     0.01  -0.00   0.00    -0.06  -0.05  -0.02     0.19   0.14   0.06
                     43                     44                     45
                        a                      a                      a 
 Frequencies --  1287.0117              1323.5926              1340.0604
 Red. masses --    10.6300                 5.4396                 4.5838
 Frc consts  --     0.0000                 0.0000                 0.0000
 IR Inten    --   297.2952                13.0973                11.9863
 Raman Activ --     0.0000                 0.0000                 0.0000
 Depolar     --     0.0000                 0.0000                 0.0000
 Atom AN      X      Y      Z        X      Y      Z        X      Y      Z
   1   6    -0.00   0.01  -0.01    -0.02   0.02  -0.04    -0.05  -0.11   0.07
   2   6     0.02  -0.01   0.08    -0.13  -0.02  -0.01     0.22  -0.13  -0.46
   3   6     0.03  -0.01   0.07     0.45   0.16  -0.12     0.01   0.11   0.07
   4   6    -0.36   0.04  -0.12    -0.16   0.09   0.02    -0.03  -0.04  -0.02
   5   6    -0.33  -0.07  -0.09    -0.11  -0.17  -0.04    -0.05  -0.00  -0.01
   6   6     0.37   0.14   0.10     0.09   0.02   0.02     0.04   0.04   0.01
   7   6     0.34   0.23   0.10    -0.02   0.17   0.00     0.05  -0.01   0.01
   8   6     0.10  -0.31   0.01    -0.03  -0.13  -0.02    -0.00  -0.04  -0.00
   9   6     0.16  -0.12   0.04     0.09  -0.02   0.02    -0.01   0.02  -0.00
  10   8    -0.07   0.11  -0.01     0.01   0.00   0.00    -0.00   0.01   0.00
  11   6    -0.02  -0.06  -0.01    -0.01  -0.00  -0.00    -0.00  -0.00  -0.00
  12   8    -0.22  -0.05  -0.06    -0.02  -0.03  -0.01    -0.02   0.00  -0.00
  13   1    -0.00   0.00   0.00    -0.02   0.03   0.05     0.06   0.05   0.04
  14   1     0.01  -0.03  -0.01    -0.00   0.00  -0.01    -0.02   0.19   0.12
  15   1     0.01  -0.02  -0.00    -0.01  -0.01   0.02    -0.05   0.08  -0.01
  16   1     0.02   0.01  -0.06    -0.09  -0.02   0.22    -0.20   0.11   0.45
  17   1     0.01  -0.02  -0.01     0.13  -0.01  -0.23    -0.23   0.11   0.49
  18   1     0.24   0.13  -0.09    -0.39  -0.17   0.29     0.07   0.04  -0.05
  19   1     0.13   0.08  -0.06    -0.30  -0.20   0.19    -0.10  -0.10   0.14
  20   1    -0.10  -0.02  -0.03     0.07   0.07   0.03     0.00   0.02  -0.00
  21   1    -0.07   0.08  -0.02     0.10  -0.01   0.03    -0.01   0.02  -0.00
  22   1    -0.03  -0.03  -0.01     0.02  -0.01   0.01     0.03  -0.00   0.00
  23   1    -0.02   0.02  -0.00     0.00  -0.00   0.00     0.00   0.00   0.00
  24   1     0.02   0.06   0.01     0.00   0.02   0.00     0.00   0.01  -0.00
  25   1    -0.01   0.02  -0.01     0.00  -0.00  -0.00     0.00   0.00  -0.00
  26   1    -0.05  -0.02  -0.02     0.06   0.05   0.02    -0.02  -0.01  -0.01
                     46                     47                     48
                        a                      a                      a 
 Frequencies --  1367.7511              1392.0485              1412.0705
 Red. masses --    10.2426                 2.8950                 3.2296
 Frc consts  --     0.0000                 0.0000                 0.0000
 IR Inten    --    31.3448                 1.8362                 2.4757
 Raman Activ --     0.0000                 0.0000                 0.0000
 Depolar     --     0.0000                 0.0000                 0.0000
 Atom AN      X      Y      Z        X      Y      Z        X      Y      Z
   1   6     0.00  -0.00   0.01    -0.00   0.00   0.00     0.09  -0.29  -0.31
   2   6     0.04  -0.01  -0.01    -0.01   0.00   0.00    -0.04   0.01   0.09
   3   6    -0.17  -0.11   0.01     0.03   0.03  -0.00    -0.02  -0.04  -0.01
   4   6     0.11   0.44   0.05    -0.01  -0.14  -0.01    -0.01   0.01  -0.01
   5   6    -0.03  -0.27  -0.02    -0.05   0.04  -0.01     0.01   0.01   0.00
   6   6     0.12  -0.17   0.02     0.02   0.07   0.01    -0.00  -0.01  -0.00
   7   6    -0.30   0.31  -0.07     0.09  -0.09   0.02    -0.01   0.00  -0.00
   8   6    -0.36  -0.16  -0.10     0.05  -0.01   0.01     0.02   0.01   0.01
   9   6     0.25   0.03   0.07     0.00   0.02   0.00     0.00  -0.02  -0.00
  10   8     0.11  -0.06   0.03    -0.03   0.14  -0.00    -0.01   0.00  -0.00
  11   6    -0.04   0.10  -0.01    -0.01   0.30   0.01     0.00   0.01   0.00
  12   8     0.09  -0.03   0.02    -0.02   0.02  -0.01    -0.00  -0.00  -0.00
  13   1     0.00  -0.00  -0.01    -0.00  -0.00  -0.01    -0.01   0.23   0.44
  14   1     0.01   0.00   0.01    -0.00  -0.01  -0.01     0.01   0.46   0.20
  15   1    -0.00   0.00   0.01     0.00  -0.00  -0.01    -0.28   0.28   0.34
  16   1     0.02  -0.00  -0.05    -0.00   0.00   0.01     0.02   0.05  -0.12
  17   1    -0.05  -0.01   0.06     0.01   0.00  -0.01     0.09   0.04  -0.07
  18   1     0.16   0.08  -0.09    -0.04  -0.02   0.02     0.02   0.02   0.02
  19   1    -0.08   0.00  -0.03     0.03   0.00   0.01     0.05   0.01  -0.02
  20   1     0.03  -0.04   0.00     0.01   0.04   0.00    -0.01  -0.01  -0.00
  21   1     0.09  -0.06   0.02    -0.03   0.03  -0.01    -0.00  -0.00  -0.00
  22   1     0.10   0.01   0.02    -0.09   0.02  -0.02    -0.01  -0.00  -0.00
  23   1     0.05  -0.12  -0.01     0.13  -0.48  -0.12     0.00  -0.01  -0.00
  24   1    -0.05  -0.09  -0.02    -0.20  -0.49  -0.08    -0.00  -0.01  -0.00
  25   1     0.05  -0.13   0.02     0.07  -0.49   0.13    -0.00  -0.01   0.00
  26   1     0.15   0.11   0.05    -0.06  -0.04  -0.02     0.00   0.00   0.00
                     49                     50                     51
                        a                      a                      a 
 Frequencies --  1436.5738              1457.6035              1472.6367
 Red. masses --    10.3763                 1.5427                 2.1234
 Frc consts  --     0.0000                 0.0000                 0.0000
 IR Inten    --    58.2363                 6.7919                63.5536
 Raman Activ --     0.0000                 0.0000                 0.0000
 Depolar     --     0.0000                 0.0000                 0.0000
 Atom AN      X      Y      Z        X      Y      Z        X      Y      Z
   1   6     0.01  -0.01  -0.01    -0.00   0.00   0.00    -0.00   0.00  -0.00
   2   6    -0.01   0.02   0.02    -0.00  -0.01   0.00     0.00   0.00  -0.00
   3   6    -0.09   0.05  -0.03     0.00  -0.00   0.00     0.00   0.01  -0.01
   4   6     0.34  -0.29   0.07     0.00  -0.00   0.00    -0.04  -0.02  -0.01
   5   6    -0.32  -0.11  -0.09    -0.00  -0.00  -0.00    -0.03   0.03  -0.01
   6   6     0.16   0.19   0.05     0.00   0.00   0.00     0.09  -0.01   0.02
   7   6     0.15  -0.21   0.03    -0.00  -0.00  -0.00    -0.08  -0.08  -0.03
   8   6    -0.48  -0.05  -0.13    -0.00   0.00  -0.00    -0.09   0.08  -0.02
   9   6     0.15   0.28   0.05     0.00   0.00   0.00     0.08  -0.01   0.02
  10   8     0.12  -0.05   0.03     0.01   0.00  -0.03     0.07  -0.01   0.02
  11   6    -0.04  -0.04  -0.01     0.06   0.01  -0.21     0.20   0.00   0.05
  12   8    -0.00   0.07   0.00     0.00   0.00  -0.00     0.04   0.02   0.01
  13   1     0.01   0.01   0.02    -0.00  -0.00  -0.00    -0.01  -0.00  -0.00
  14   1    -0.00   0.01   0.00     0.00   0.00   0.00     0.00   0.00   0.00
  15   1    -0.01   0.02   0.01     0.00  -0.00   0.00     0.00  -0.01   0.00
  16   1     0.02  -0.03  -0.02    -0.00   0.01  -0.00    -0.00  -0.00   0.01
  17   1    -0.01  -0.02  -0.02     0.01   0.01   0.00     0.00  -0.00  -0.00
  18   1    -0.12  -0.06   0.01    -0.00  -0.00  -0.01     0.00   0.02   0.03
  19   1     0.08   0.01  -0.00    -0.00   0.00  -0.00     0.02  -0.02   0.02
  20   1     0.13   0.23   0.04     0.00   0.00  -0.00    -0.02  -0.01  -0.01
  21   1    -0.06   0.08  -0.01    -0.00   0.00  -0.00    -0.06   0.01  -0.01
  22   1    -0.06   0.10  -0.01     0.00   0.00  -0.02     0.01   0.00   0.00
  23   1     0.02   0.06   0.06     0.32  -0.30   0.16    -0.39  -0.15  -0.48
  24   1     0.02   0.07   0.01    -0.18  -0.03   0.69     0.12   0.27   0.04
  25   1     0.05   0.06  -0.04    -0.37   0.29   0.01    -0.57  -0.18   0.21
  26   1    -0.09  -0.06  -0.03    -0.00  -0.00   0.00    -0.01  -0.01  -0.00
                     52                     53                     54
                        a                      a                      a 
 Frequencies --  1476.2039              1485.5130              1493.3598
 Red. masses --     2.0297                 2.7154                 9.2849
 Frc consts  --     0.0000                 0.0000                 0.0000
 IR Inten    --     3.2856                47.9012               280.9510
 Raman Activ --     0.0000                 0.0000                 0.0000
 Depolar     --     0.0000                 0.0000                 0.0000
 Atom AN      X      Y      Z        X      Y      Z        X      Y      Z
   1   6     0.03   0.02   0.01    -0.01  -0.04  -0.03    -0.01  -0.01  -0.01
   2   6     0.02   0.08  -0.02     0.05   0.25  -0.01     0.02   0.08  -0.01
   3   6    -0.16  -0.02  -0.23     0.03   0.01   0.06     0.11   0.04   0.06
   4   6     0.00   0.02  -0.02     0.07   0.03   0.02    -0.30  -0.06  -0.08
   5   6     0.01   0.03   0.00     0.02  -0.05   0.00    -0.04   0.13  -0.01
   6   6     0.02  -0.02   0.00    -0.12   0.03  -0.03     0.35  -0.08   0.09
   7   6    -0.02   0.00  -0.01     0.12   0.08   0.03    -0.36  -0.24  -0.10
   8   6     0.00   0.02   0.00     0.06  -0.12   0.01    -0.06   0.36   0.00
   9   6     0.02  -0.02   0.01    -0.12   0.03  -0.03     0.30  -0.13   0.07
  10   8    -0.00  -0.00  -0.00    -0.01   0.03  -0.00     0.02  -0.08   0.00
  11   6    -0.01   0.00  -0.01     0.01   0.00  -0.00    -0.02  -0.00  -0.01
  12   8     0.00  -0.00   0.00    -0.04  -0.02  -0.01     0.11   0.06   0.03
  13   1    -0.07  -0.03   0.04     0.08   0.07   0.02     0.03   0.03  -0.00
  14   1    -0.07   0.03  -0.03     0.05   0.01   0.03     0.02  -0.00   0.01
  15   1     0.03  -0.03  -0.02    -0.06   0.08   0.04    -0.02   0.03   0.01
  16   1     0.07  -0.18   0.05     0.21  -0.54   0.20     0.06  -0.17   0.09
  17   1    -0.15  -0.14  -0.03    -0.44  -0.41  -0.11    -0.13  -0.13  -0.04
  18   1     0.09   0.37   0.51    -0.02  -0.09  -0.14     0.00  -0.05  -0.07
  19   1     0.39  -0.31   0.38    -0.09   0.09  -0.10    -0.04   0.05  -0.05
  20   1    -0.03  -0.03  -0.01     0.04   0.03   0.01    -0.12  -0.08  -0.03
  21   1    -0.01  -0.00  -0.00     0.07  -0.01   0.02    -0.21   0.03  -0.05
  22   1    -0.03   0.00  -0.01     0.10  -0.02   0.02    -0.23   0.03  -0.06
  23   1     0.03   0.00   0.03    -0.03  -0.03  -0.04     0.07   0.04   0.10
  24   1    -0.01  -0.02   0.01     0.00   0.02   0.01    -0.02  -0.06  -0.01
  25   1     0.03   0.02  -0.01    -0.05  -0.02   0.02     0.11   0.05  -0.04
  26   1     0.01   0.00   0.00    -0.00  -0.00  -0.00     0.01   0.00   0.00
                     55                     56                     57
                        a                      a                      a 
 Frequencies --  1499.3552              1505.2635              1588.4872
 Red. masses --     1.5379                 1.5873                11.5395
 Frc consts  --     0.0000                 0.0000                 0.0000
 IR Inten    --     0.7698                 1.1398                 9.3624
 Raman Activ --     0.0000                 0.0000                 0.0000
 Depolar     --     0.0000                 0.0000                 0.0000
 Atom AN      X      Y      Z        X      Y      Z        X      Y      Z
   1   6     0.20  -0.03   0.06    -0.06  -0.16   0.13    -0.00  -0.00  -0.00
   2   6     0.05   0.01   0.01    -0.03  -0.05   0.05     0.00   0.00   0.00
   3   6     0.02   0.00   0.04    -0.01   0.00  -0.03     0.01   0.05   0.01
   4   6    -0.01  -0.00   0.00     0.00   0.00   0.00     0.09  -0.50   0.00
   5   6     0.00  -0.00   0.00     0.01   0.01   0.00     0.07   0.37   0.03
   6   6     0.00  -0.00   0.00    -0.00  -0.01  -0.00     0.24  -0.26   0.05
   7   6    -0.01   0.01  -0.00    -0.00   0.01  -0.00    -0.25   0.47  -0.04
   8   6    -0.00  -0.00  -0.00    -0.00  -0.00  -0.00    -0.02  -0.27  -0.02
   9   6    -0.00   0.00  -0.00    -0.00  -0.00  -0.00    -0.15   0.19  -0.03
  10   8     0.00  -0.00   0.00     0.00  -0.00   0.00     0.02  -0.00   0.00
  11   6     0.00   0.00   0.00     0.00   0.00   0.00    -0.01   0.01  -0.00
  12   8     0.00  -0.00   0.00     0.00  -0.00   0.00     0.01  -0.05   0.00
  13   1    -0.34  -0.07   0.39     0.46   0.39   0.03    -0.00  -0.00  -0.00
  14   1    -0.62   0.17  -0.28    -0.08  -0.28  -0.17     0.01   0.00   0.01
  15   1     0.15   0.00  -0.38    -0.13   0.53  -0.40    -0.00  -0.00   0.01
  16   1     0.01  -0.01   0.04    -0.01   0.04  -0.05     0.00  -0.00   0.00
  17   1    -0.03  -0.05  -0.02     0.05   0.02  -0.02    -0.00   0.00   0.00
  18   1    -0.00  -0.05  -0.09     0.01   0.04   0.04    -0.06  -0.04  -0.00
  19   1    -0.05   0.05  -0.06     0.03  -0.03   0.04     0.05   0.02  -0.00
  20   1     0.00   0.01   0.00    -0.01  -0.01   0.00    -0.10  -0.04  -0.03
  21   1     0.00  -0.00   0.00     0.00  -0.00  -0.00    -0.07  -0.04  -0.02
  22   1     0.00   0.00   0.00     0.00  -0.00   0.00     0.03   0.03   0.01
  23   1    -0.00  -0.00  -0.00    -0.00  -0.00  -0.00     0.00  -0.00  -0.00
  24   1     0.00   0.00   0.00     0.00   0.00   0.00     0.00   0.01   0.00
  25   1    -0.00  -0.00   0.00    -0.01  -0.00   0.00     0.00  -0.00   0.00
  26   1     0.00   0.00   0.00     0.00   0.00   0.00     0.09   0.07   0.03
                     58                     59                     60
                        a                      a                      a 
 Frequencies --  1602.4716              2946.8398              2959.6294
 Red. masses --    11.6085                 1.9552                 1.4386
 Frc consts  --     0.0000                 0.0000                 0.0000
 IR Inten    --    35.1262                48.3520                40.8067
 Raman Activ --     0.0000                 0.0000                 0.0000
 Depolar     --     0.0000                 0.0000                 0.0000
 Atom AN      X      Y      Z        X      Y      Z        X      Y      Z
   1   6     0.00   0.00   0.00    -0.00  -0.00  -0.00     0.00   0.00   0.00
   2   6    -0.01  -0.01   0.01    -0.00   0.00  -0.00    -0.00  -0.00  -0.00
   3   6    -0.05  -0.02  -0.02     0.00  -0.00  -0.00     0.00  -0.01  -0.00
   4   6     0.28   0.11   0.07     0.00  -0.00  -0.00    -0.00  -0.00  -0.00
   5   6    -0.34  -0.28  -0.10    -0.00   0.00  -0.00    -0.00  -0.00  -0.00
   6   6     0.42   0.01   0.11    -0.00   0.00  -0.00     0.00   0.00   0.00
   7   6    -0.23  -0.03  -0.06     0.00   0.00  -0.00    -0.00   0.00  -0.00
   8   6     0.36   0.20   0.10    -0.00  -0.00   0.00     0.00  -0.00   0.00
   9   6    -0.46  -0.01  -0.12    -0.00  -0.00   0.00    -0.00  -0.00  -0.00
  10   8    -0.04  -0.01  -0.01     0.00   0.00  -0.01     0.00   0.02   0.00
  11   6     0.02   0.01   0.00     0.08   0.01  -0.28     0.17   0.09   0.05
  12   8     0.02  -0.00   0.00    -0.00  -0.00   0.00     0.00   0.00   0.00
  13   1     0.00   0.00   0.00     0.00   0.00   0.00     0.00  -0.00   0.00
  14   1    -0.00  -0.00  -0.00    -0.00  -0.00   0.00     0.00   0.00  -0.00
  15   1     0.00   0.00  -0.00     0.00   0.00   0.00    -0.00  -0.00  -0.00
  16   1    -0.00   0.01  -0.01     0.00   0.00   0.00     0.00   0.00   0.00
  17   1     0.01   0.01   0.00     0.00  -0.00   0.00     0.00  -0.00   0.00
  18   1    -0.00   0.00   0.00    -0.00   0.00  -0.00    -0.00   0.00  -0.00
  19   1    -0.01  -0.01   0.01    -0.00   0.00   0.00    -0.00   0.02   0.02
  20   1     0.05   0.09   0.02     0.00  -0.00   0.00     0.00  -0.00   0.00
  21   1    -0.08   0.04  -0.02     0.00   0.00   0.00    -0.00  -0.00  -0.00
  22   1     0.12  -0.05   0.03    -0.00   0.00   0.00    -0.00   0.01   0.00
  23   1    -0.00   0.00  -0.01    -0.48  -0.23   0.43    -0.45  -0.22   0.47
  24   1    -0.00  -0.02  -0.00     0.01   0.00  -0.05     0.01   0.01   0.00
  25   1    -0.01   0.00   0.00     0.20   0.18   0.61    -0.16  -0.17  -0.66
  26   1     0.01   0.01   0.00     0.00   0.00  -0.00    -0.00  -0.00  -0.00
                     61                     62                     63
                        a                      a                      a 
 Frequencies --  2965.2973              2966.9433              2982.6719
 Red. masses --     1.9330                 1.8531                 1.4984
 Frc consts  --     0.0000                 0.0000                 0.0000
 IR Inten    --    59.9428                58.1833                96.6287
 Raman Activ --     0.0000                 0.0000                 0.0000
 Depolar     --     0.0000                 0.0000                 0.0000
 Atom AN      X      Y      Z        X      Y      Z        X      Y      Z
   1   6     0.02  -0.00   0.01    -0.00  -0.00  -0.00    -0.01  -0.01   0.02
   2   6    -0.26   0.02  -0.12     0.05  -0.05   0.04     0.02   0.20  -0.03
   3   6     0.00   0.03   0.05    -0.06   0.23   0.13     0.00   0.05   0.04
   4   6     0.00   0.00   0.00    -0.00   0.01   0.00    -0.00   0.00   0.00
   5   6    -0.00   0.00  -0.00     0.00  -0.00   0.00    -0.00   0.00   0.00
   6   6    -0.00  -0.00  -0.00    -0.00   0.00  -0.00     0.00   0.00   0.00
   7   6     0.00  -0.00  -0.00    -0.00  -0.00  -0.00    -0.00  -0.00  -0.00
   8   6     0.00  -0.00  -0.00     0.00   0.00   0.00    -0.00   0.00  -0.00
   9   6    -0.00  -0.00  -0.00    -0.00  -0.00  -0.00    -0.00  -0.00  -0.00
  10   8    -0.00   0.00   0.00     0.00   0.00   0.00     0.00   0.00   0.00
  11   6     0.00   0.00   0.00     0.01   0.00   0.00     0.00   0.00   0.00
  12   8    -0.00  -0.00   0.00     0.00   0.00   0.00     0.00   0.00   0.00
  13   1    -0.03   0.04  -0.02     0.01  -0.01   0.00    -0.03   0.03  -0.01
  14   1     0.00  -0.00   0.01     0.00   0.00  -0.00     0.04   0.03  -0.06
  15   1    -0.05  -0.03  -0.02     0.01   0.01   0.00     0.03   0.01   0.01
  16   1     0.64   0.33   0.21    -0.01  -0.02  -0.00    -0.53  -0.23  -0.19
  17   1     0.29  -0.39   0.23    -0.17   0.20  -0.13     0.44  -0.49   0.31
  18   1    -0.05   0.08  -0.03     0.14  -0.17   0.13    -0.01   0.03  -0.01
  19   1     0.02  -0.18  -0.15     0.08  -0.65  -0.58     0.02  -0.17  -0.15
  20   1     0.00  -0.00   0.00    -0.00   0.00  -0.00     0.00  -0.00   0.00
  21   1    -0.00   0.00  -0.00    -0.00  -0.00  -0.00    -0.00  -0.00  -0.00
  22   1     0.00   0.00   0.00     0.00   0.01   0.00     0.00   0.00   0.00
  23   1    -0.00  -0.00   0.00    -0.01  -0.01   0.02    -0.00  -0.00   0.00
  24   1     0.00  -0.00   0.00     0.00   0.00   0.00    -0.00   0.00  -0.00
  25   1    -0.00  -0.00  -0.00    -0.00  -0.00  -0.02    -0.00  -0.00  -0.01
  26   1    -0.00   0.00  -0.00     0.00  -0.00   0.00    -0.00  -0.00   0.00
                     64                     65                     66
                        a                      a                      a 
 Frequencies --  2990.3823              3027.9808              3029.6265
 Red. masses --     1.6390                 1.9469                 1.9455
 Frc consts  --     0.0000                 0.0000                 0.0000
 IR Inten    --    92.7687                87.1574                86.9047
 Raman Activ --     0.0000                 0.0000                 0.0000
 Depolar     --     0.0000                 0.0000                 0.0000
 Atom AN      X      Y      Z        X      Y      Z        X      Y      Z
   1   6     0.00  -0.01   0.01    -0.18   0.14  -0.18    -0.22  -0.16   0.10
   2   6    -0.04   0.03  -0.03    -0.02   0.02  -0.02    -0.02  -0.02  -0.00
   3   6    -0.13   0.14  -0.13    -0.00   0.01  -0.00     0.00  -0.01  -0.00
   4   6    -0.01   0.00  -0.00    -0.00   0.00   0.00     0.00   0.00   0.00
   5   6     0.00  -0.00   0.00     0.00  -0.00   0.00    -0.00   0.00  -0.00
   6   6    -0.00  -0.00  -0.00    -0.00  -0.00  -0.00    -0.00  -0.00  -0.00
   7   6     0.00   0.00   0.00     0.00   0.00  -0.00     0.00   0.00   0.00
   8   6     0.00  -0.00   0.00     0.00  -0.00   0.00     0.00  -0.00  -0.00
   9   6     0.00  -0.00  -0.00    -0.00  -0.00   0.00     0.00  -0.00   0.00
  10   8    -0.00   0.00  -0.00    -0.00   0.00   0.00    -0.00   0.00  -0.00
  11   6    -0.00  -0.00  -0.00     0.00  -0.00   0.00    -0.00   0.00  -0.00
  12   8    -0.00  -0.00  -0.00    -0.00  -0.00  -0.00    -0.00  -0.00  -0.00
  13   1    -0.02   0.03  -0.02     0.48  -0.58   0.33    -0.08   0.03  -0.02
  14   1     0.01   0.00  -0.01    -0.17  -0.10   0.21     0.29   0.26  -0.54
  15   1    -0.00  -0.00  -0.00     0.32   0.19   0.09     0.57   0.27   0.22
  16   1     0.05   0.03   0.02     0.03   0.01   0.01     0.07   0.03   0.02
  17   1     0.09  -0.11   0.06     0.05  -0.06   0.04    -0.02   0.02  -0.01
  18   1     0.51  -0.68   0.36     0.01  -0.02   0.01    -0.01   0.01  -0.01
  19   1    -0.04   0.19   0.13     0.00  -0.00  -0.01    -0.00   0.01   0.01
  20   1    -0.01   0.01  -0.00    -0.01   0.00  -0.00     0.01  -0.01   0.00
  21   1     0.00   0.00   0.00     0.00   0.00  -0.00     0.00   0.00   0.00
  22   1     0.00  -0.00   0.00     0.00   0.00   0.00    -0.00   0.00  -0.00
  23   1     0.00   0.00  -0.00     0.00   0.00  -0.00    -0.00  -0.00  -0.00
  24   1     0.00  -0.00   0.00    -0.00   0.00  -0.00     0.01  -0.00   0.00
  25   1     0.00   0.00   0.00    -0.00  -0.00  -0.00    -0.00  -0.00  -0.00
  26   1    -0.00   0.00  -0.00    -0.00   0.00  -0.00     0.00  -0.00   0.00
                     67                     68                     69
                        a                      a                      a 
 Frequencies --  3034.4762              3038.9168              3088.5213
 Red. masses --     1.7042                 1.2505                 1.7983
 Frc consts  --     0.0000                 0.0000                 0.0000
 IR Inten    --    18.1511                39.6740                53.9080
 Raman Activ --     0.0000                 0.0000                 0.0000
 Depolar     --     0.0000                 0.0000                 0.0000
 Atom AN      X      Y      Z        X      Y      Z        X      Y      Z
   1   6    -0.00  -0.00   0.00    -0.02   0.09   0.12    -0.00  -0.00   0.00
   2   6    -0.00  -0.00  -0.00    -0.00   0.00   0.00     0.00  -0.00   0.00
   3   6    -0.00   0.00  -0.00    -0.00   0.00  -0.00     0.00  -0.00   0.00
   4   6    -0.00   0.00  -0.00    -0.00  -0.00  -0.00     0.01   0.00   0.00
   5   6     0.00  -0.00   0.00     0.00  -0.00   0.00     0.19  -0.17   0.04
   6   6    -0.00  -0.00  -0.00     0.00   0.00   0.00     0.01   0.08   0.01
   7   6     0.00   0.00   0.00     0.00   0.00   0.00     0.00   0.00   0.00
   8   6    -0.00   0.00  -0.00     0.00  -0.00   0.00     0.00  -0.00  -0.00
   9   6    -0.00  -0.00  -0.00     0.00   0.00   0.00    -0.01  -0.03  -0.00
  10   8     0.00  -0.01   0.00    -0.00   0.00  -0.00    -0.00  -0.00  -0.00
  11   6     0.23  -0.09   0.06    -0.00  -0.00  -0.00    -0.00   0.00  -0.00
  12   8    -0.00  -0.00  -0.00    -0.00  -0.00  -0.00     0.00  -0.00   0.00
  13   1    -0.00   0.00  -0.00     0.29  -0.34   0.22    -0.01   0.01  -0.00
  14   1     0.00   0.00  -0.00     0.29   0.26  -0.49     0.00   0.00  -0.00
  15   1     0.00   0.00   0.00    -0.50  -0.24  -0.16     0.01   0.00   0.00
  16   1     0.00   0.00   0.00     0.00   0.00   0.00    -0.00  -0.00  -0.00
  17   1    -0.00   0.00  -0.00    -0.00   0.01  -0.00    -0.00   0.00  -0.00
  18   1     0.00  -0.00   0.00     0.01  -0.01   0.00    -0.01   0.01  -0.01
  19   1    -0.00  -0.00  -0.00    -0.00   0.00   0.00     0.00   0.00   0.00
  20   1    -0.00   0.00  -0.00    -0.00   0.00  -0.00    -0.67   0.59  -0.15
  21   1     0.00   0.00   0.00    -0.00  -0.00  -0.00    -0.05  -0.31  -0.03
  22   1     0.00   0.01   0.00    -0.00  -0.00  -0.00     0.02   0.11   0.01
  23   1     0.04  -0.00   0.00     0.00   0.00  -0.00     0.00   0.00  -0.00
  24   1    -0.87   0.35  -0.21     0.00  -0.00   0.00     0.00  -0.00   0.00
  25   1     0.04  -0.00   0.02     0.00   0.00   0.00     0.00   0.00   0.00
  26   1     0.00   0.00   0.00    -0.00   0.00  -0.00    -0.00   0.00  -0.00
                     70                     71                     72
                        a                      a                      a 
 Frequencies --  3100.6630              3107.0837              3432.0992
 Red. masses --     1.8194                 1.8659                 1.8649
 Frc consts  --     0.0000                 0.0000                 0.0000
 IR Inten    --    62.0001                64.1993               199.6392
 Raman Activ --     0.0000                 0.0000                 0.0000
 Depolar     --     0.0000                 0.0000                 0.0000
 Atom AN      X      Y      Z        X      Y      Z        X      Y      Z
   1   6    -0.00  -0.00  -0.00    -0.00   0.00  -0.00     0.00   0.00  -0.00
   2   6    -0.00   0.00  -0.00    -0.00  -0.00   0.00    -0.00  -0.00   0.00
   3   6    -0.00   0.00   0.00    -0.00   0.00  -0.00    -0.00   0.00  -0.00
   4   6     0.01   0.01   0.00    -0.00  -0.00  -0.00     0.00  -0.00   0.00
   5   6     0.01  -0.01   0.00    -0.07   0.07  -0.02    -0.00   0.00  -0.00
   6   6     0.01   0.05   0.00     0.04   0.25   0.02     0.00   0.00   0.00
   7   6     0.00  -0.00   0.00     0.01   0.00   0.00    -0.01   0.00  -0.00
   8   6    -0.01   0.01  -0.00     0.00  -0.00   0.00     0.00   0.00   0.00
   9   6     0.05   0.26   0.03    -0.01  -0.04  -0.00    -0.00  -0.00  -0.00
  10   8     0.00   0.00   0.00    -0.00   0.00  -0.00    -0.00  -0.00  -0.00
  11   6     0.00   0.00   0.00    -0.00  -0.00  -0.00    -0.00   0.00  -0.00
  12   8     0.00   0.00   0.00     0.00  -0.00  -0.00    -0.15   0.19  -0.03
  13   1     0.00  -0.00  -0.00     0.00  -0.00   0.00     0.00  -0.00   0.00
  14   1    -0.00  -0.00   0.00    -0.00  -0.00   0.00    -0.00  -0.00   0.00
  15   1     0.00   0.00   0.00     0.00   0.00  -0.00    -0.00  -0.00  -0.00
  16   1     0.00   0.00   0.00     0.00   0.00   0.00     0.00   0.00   0.00
  17   1     0.00  -0.00   0.00    -0.00   0.00  -0.00    -0.00  -0.00   0.00
  18   1     0.00  -0.00   0.00     0.00  -0.00   0.00     0.00  -0.00   0.00
  19   1    -0.00  -0.01  -0.01     0.00   0.00   0.00     0.00   0.00   0.00
  20   1    -0.04   0.04  -0.01     0.24  -0.21   0.05     0.00  -0.00   0.00
  21   1    -0.03  -0.17  -0.02    -0.15  -0.88  -0.08    -0.00  -0.01  -0.00
  22   1    -0.16  -0.93  -0.09     0.02   0.15   0.01     0.00   0.00   0.00
  23   1    -0.01  -0.00   0.01     0.00   0.00  -0.00     0.00   0.00   0.00
  24   1    -0.01   0.00  -0.00    -0.00   0.00  -0.00     0.00   0.00   0.00
  25   1    -0.00  -0.00  -0.01     0.00   0.00   0.00     0.00   0.00  -0.00
  26   1    -0.00  -0.00  -0.00    -0.01   0.01  -0.00     0.62  -0.74   0.13
