! r2scan-3c def2/J RI DEFGRID2 scfconv6 printgap
%output
    printlevel normal
end
%cpcm
    smd true
    smdsolvent "water"
end
* xyz 0 1
C -3.4009686842 -1.0288040232 0.1891100883
C -2.0429127085 -0.4417205173 0.5510502235
C -1.2904035407 0.0297899154 -0.7019851632
C 0.0185219308 0.6500596906 -0.2931429137
O 0.1383731289 1.766910315 0.1695379543
O 1.0290269218 -0.1884808946 -0.4640453458
C 2.3520477452 0.2125672613 -0.0658145667
C 3.0584507877 -0.9763668749 0.5608136023
H -3.9163944724 -1.3595480362 1.0865477588
H -4.0173218444 -0.2846416753 -0.3085839485
H -3.282143942 -1.8803831549 -0.4756829691
H -1.4423575234 -1.1937202745 1.0663721094
H -2.1709449094 0.4079889812 1.2248481152
H -1.8857863852 0.7830274646 -1.2181085756
H -1.094918913 -0.8137026223 -1.3622920655
H 2.8728549929 0.5502380068 -0.9665051696
H 2.2651576427 1.0516638223 0.6315653957
H 4.0747026278 -0.6947363315 0.8161507924
H 2.5397921819 -1.2930169115 1.4614152871
H 3.080707281 -1.8047000474 -0.1411360282
*
