 Entering Gaussian System
 *********************************************
 Gaussian 98:
 frequency output generated by the xtb code
 *********************************************
                         Standard orientation:
 --------------------------------------------------------------------
  Center     Atomic     Atomic              Coordinates (Angstroms)
  Number     Number      Type              X           Y           Z
 --------------------------------------------------------------------
    1          6             0        3.905943    0.098359   -0.486554
    2          6             0        2.499175   -0.244543   -0.111937
    3          8             0        2.014413   -1.354418   -0.135141
    4          8             0        1.815405    0.843925    0.257814
    5          6             0        0.447158    0.694161    0.622188
    6          6             0       -0.447654    0.692349   -0.623063
    7          8             0       -1.816047    0.841899   -0.259218
    8          6             0       -2.498758   -0.246167    0.113789
    9          8             0       -2.012922   -1.355484    0.140179
   10          6             0       -3.905764    0.096579    0.487592
   11          1             0        4.172178    1.067630   -0.080006
   12          1             0        3.972501    0.130591   -1.572047
   13          1             0        4.576021   -0.678216   -0.130609
   14          1             0        0.311253   -0.240833    1.176334
   15          1             0        0.213629    1.554307    1.251387
   16          1             0       -0.310942   -0.243836   -1.174998
   17          1             0       -0.214746    1.551194   -1.254267
   18          1             0       -3.968781    0.145156    1.572707
   19          1             0       -4.573925   -0.687720    0.145362
   20          1             0       -4.177011    1.058878    0.067966
 --------------------------------------------------------------------
     1 basis functions        1 primitive gaussians
     1 alpha electrons        1 beta electrons
 
 Harmonic frequencies (cm**-1), IR intensities (km*mol⁻¹),
 Raman scattering activities (A**4/amu), Raman depolarization ratios,
 reduced masses (AMU), force constants (mDyne/A) and normal coordinates:
                      1                      2                      3
                        a                      a                      a 
 Frequencies --    22.6544                43.5024                45.9038
 Red. masses --    14.4484                12.2059                 2.3306
 Frc consts  --     0.0000                 0.0000                 0.0000
 IR Inten    --     0.2700                 0.6001                 5.8442
 Raman Activ --     0.0000                 0.0000                 0.0000
 Depolar     --     0.0000                 0.0000                 0.0000
 Atom AN      X      Y      Z        X      Y      Z        X      Y      Z
   1   6     0.03   0.10   0.18     0.11   0.31  -0.04     0.04  -0.01   0.13
   2   6    -0.02   0.04  -0.08     0.18   0.05  -0.00    -0.01   0.01  -0.03
   3   8    -0.08   0.07  -0.57     0.45  -0.04   0.06    -0.04   0.03  -0.17
   4   8    -0.03  -0.07   0.22    -0.02  -0.07  -0.04     0.00  -0.00   0.02
   5   6    -0.06  -0.14   0.04     0.01  -0.27  -0.01    -0.00  -0.00   0.00
   6   6     0.06  -0.14  -0.04    -0.01  -0.27   0.01    -0.01   0.01   0.00
   7   8     0.03  -0.07  -0.22     0.02  -0.07   0.04    -0.00   0.01   0.03
   8   6     0.02   0.04   0.08    -0.18   0.06   0.00    -0.00  -0.01  -0.02
   9   8     0.08   0.07   0.57    -0.45  -0.04  -0.06    -0.03  -0.03  -0.16
  10   6    -0.03   0.10  -0.18    -0.11   0.31   0.04     0.04   0.00   0.12
  11   1    -0.01   0.02   0.10    -0.03   0.12  -0.04    -0.13   0.17  -0.29
  12   1     0.06   0.06   0.06     0.03   0.06  -0.01     0.16  -0.43   0.04
  13   1    -0.01   0.02   0.06     0.08   0.14   0.01     0.04   0.19   0.43
  14   1    -0.02  -0.05  -0.00     0.04  -0.09  -0.02    -0.00  -0.00  -0.00
  15   1    -0.04  -0.05   0.01    -0.02  -0.10   0.02    -0.00  -0.00   0.00
  16   1     0.02  -0.05   0.00    -0.04  -0.09   0.02    -0.00   0.01  -0.00
  17   1     0.04  -0.05  -0.01     0.02  -0.10  -0.01    -0.00   0.01   0.00
  18   1    -0.06   0.06  -0.06    -0.03   0.06   0.01     0.13   0.33   0.03
  19   1     0.00   0.02  -0.06    -0.08   0.14  -0.01     0.03  -0.15   0.34
  20   1     0.01   0.02  -0.10     0.03   0.12   0.04    -0.10  -0.14  -0.21
                      4                      5                      6
                        a                      a                      a 
 Frequencies --    48.1807                61.7754                70.8935
 Red. masses --     1.3339                11.4425                 9.1908
 Frc consts  --     0.0000                 0.0000                 0.0000
 IR Inten    --     2.6369                 5.7028                 5.7810
 Raman Activ --     0.0000                 0.0000                 0.0000
 Depolar     --     0.0000                 0.0000                 0.0000
 Atom AN      X      Y      Z        X      Y      Z        X      Y      Z
   1   6     0.01  -0.04   0.02    -0.02   0.12   0.00     0.14  -0.03   0.46
   2   6    -0.01  -0.00  -0.03     0.04  -0.10   0.03     0.01   0.00   0.04
   3   8    -0.03   0.00  -0.02     0.28  -0.22   0.17    -0.02   0.02  -0.15
   4   8     0.01   0.01  -0.05    -0.16  -0.21  -0.09    -0.06   0.02  -0.15
   5   6     0.01   0.03  -0.01    -0.13  -0.31  -0.10    -0.08   0.01  -0.25
   6   6    -0.01   0.04   0.01    -0.13   0.31  -0.10    -0.08  -0.01  -0.25
   7   8    -0.01   0.02   0.04    -0.16   0.21  -0.09    -0.06  -0.02  -0.15
   8   6     0.01   0.00   0.03     0.04   0.10   0.03     0.02  -0.00   0.03
   9   8     0.05   0.02   0.07     0.28   0.22   0.17    -0.02  -0.02  -0.15
  10   6    -0.02  -0.05  -0.04    -0.02  -0.12   0.00     0.14   0.04   0.46
  11   1    -0.10   0.13  -0.27    -0.06   0.06  -0.02     0.05  -0.07   0.26
  12   1     0.11  -0.37   0.00    -0.01   0.01  -0.00     0.11   0.12   0.14
  13   1     0.03   0.15   0.32     0.04   0.08   0.02    -0.01  -0.08   0.08
  14   1     0.00   0.01  -0.00    -0.04  -0.17  -0.16    -0.03   0.01  -0.07
  15   1     0.01   0.01  -0.00    -0.03  -0.18   0.09    -0.04   0.00  -0.08
  16   1    -0.00   0.01  -0.00    -0.04   0.17  -0.16    -0.03  -0.01  -0.07
  17   1    -0.01   0.01   0.00    -0.03   0.18   0.09    -0.04  -0.00  -0.08
  18   1    -0.14  -0.47  -0.00    -0.00   0.00  -0.00     0.11  -0.11   0.14
  19   1    -0.04   0.19  -0.41     0.04  -0.08   0.03    -0.01   0.07   0.09
  20   1     0.13   0.18   0.33    -0.06  -0.06  -0.03     0.05   0.07   0.26
                      7                      8                      9
                        a                      a                      a 
 Frequencies --   119.0447               253.5648               270.8735
 Red. masses --    11.5908                 9.3627                11.0687
 Frc consts  --     0.0000                 0.0000                 0.0000
 IR Inten    --     0.0253                11.8516                19.7975
 Raman Activ --     0.0000                 0.0000                 0.0000
 Depolar     --     0.0000                 0.0000                 0.0000
 Atom AN      X      Y      Z        X      Y      Z        X      Y      Z
   1   6     0.26  -0.13   0.25     0.07  -0.18  -0.04     0.01  -0.10   0.02
   2   6     0.13  -0.01  -0.09     0.02   0.17   0.01    -0.05   0.16  -0.03
   3   8     0.11   0.00  -0.11    -0.18   0.27   0.12    -0.21   0.25   0.12
   4   8     0.11   0.06  -0.40     0.02   0.22  -0.04    -0.10   0.19  -0.14
   5   6     0.14   0.10  -0.11     0.06  -0.28  -0.04     0.01  -0.41  -0.02
   6   6    -0.14   0.10   0.10     0.06   0.28  -0.04    -0.01  -0.41   0.02
   7   8    -0.11   0.06   0.39     0.02  -0.22  -0.04     0.10   0.19   0.14
   8   6    -0.13  -0.01   0.09     0.02  -0.17   0.01     0.05   0.16   0.03
   9   8    -0.11   0.00   0.11    -0.18  -0.27   0.12     0.21   0.24  -0.12
  10   6    -0.26  -0.13  -0.25     0.07   0.18  -0.04    -0.01  -0.10  -0.02
  11   1     0.09  -0.07   0.15     0.10  -0.07  -0.03     0.06  -0.04   0.00
  12   1     0.14   0.03   0.08     0.02  -0.08  -0.01     0.02  -0.04   0.01
  13   1     0.02  -0.09   0.07    -0.04  -0.10  -0.00    -0.05  -0.07   0.02
  14   1     0.07   0.03  -0.02     0.08  -0.19  -0.18     0.12  -0.17  -0.07
  15   1     0.09   0.03  -0.02    -0.04  -0.21   0.15    -0.09  -0.19   0.05
  16   1    -0.07   0.03   0.02     0.09   0.19  -0.18    -0.12  -0.17   0.07
  17   1    -0.09   0.03   0.02    -0.04   0.21   0.15     0.09  -0.19  -0.05
  18   1    -0.15   0.02  -0.08     0.02   0.08  -0.01    -0.02  -0.04  -0.01
  19   1    -0.02  -0.09  -0.07    -0.04   0.10  -0.00     0.05  -0.07  -0.02
  20   1    -0.09  -0.07  -0.14     0.10   0.07  -0.03    -0.06  -0.04  -0.00
                     10                     11                     12
                        a                      a                      a 
 Frequencies --   305.6156               332.9592               407.9278
 Red. masses --    11.4620                11.7465                10.7949
 Frc consts  --     0.0000                 0.0000                 0.0000
 IR Inten    --     5.6539                15.3580                22.8807
 Raman Activ --     0.0000                 0.0000                 0.0000
 Depolar     --     0.0000                 0.0000                 0.0000
 Atom AN      X      Y      Z        X      Y      Z        X      Y      Z
   1   6     0.23  -0.26  -0.16    -0.01   0.00  -0.08    -0.10   0.25   0.07
   2   6     0.20   0.11   0.09     0.06  -0.00   0.18    -0.01  -0.16  -0.02
   3   8     0.16   0.15  -0.05    -0.03   0.05  -0.02    -0.35  -0.03   0.10
   4   8     0.19   0.06   0.32     0.12  -0.04   0.41     0.23  -0.03  -0.08
   5   6     0.02   0.01   0.03    -0.08   0.02  -0.42     0.25  -0.06  -0.09
   6   6    -0.02   0.01  -0.03    -0.08  -0.02  -0.42     0.25   0.06  -0.09
   7   8    -0.19   0.06  -0.32     0.12   0.04   0.41     0.23   0.03  -0.08
   8   6    -0.20   0.11  -0.09     0.06   0.00   0.18    -0.01   0.16  -0.02
   9   8    -0.16   0.15   0.05    -0.03  -0.05  -0.02    -0.35   0.03   0.10
  10   6    -0.23  -0.26   0.16    -0.01  -0.00  -0.08    -0.10  -0.25   0.07
  11   1     0.19  -0.09  -0.10     0.01   0.01  -0.07    -0.19   0.10   0.06
  12   1     0.00  -0.13  -0.05    -0.09  -0.03  -0.03    -0.01   0.13   0.02
  13   1     0.01  -0.13  -0.06     0.03   0.02  -0.06     0.09   0.17   0.01
  14   1    -0.00  -0.00  -0.00    -0.11   0.01  -0.12     0.08  -0.05  -0.07
  15   1    -0.01  -0.00   0.01    -0.10   0.01  -0.15     0.06  -0.05   0.01
  16   1     0.00  -0.00   0.00    -0.11  -0.01  -0.12     0.08   0.05  -0.07
  17   1     0.01  -0.00  -0.01    -0.10  -0.01  -0.15     0.06   0.05   0.01
  18   1    -0.00  -0.13   0.05    -0.09   0.03  -0.03    -0.01  -0.13   0.02
  19   1    -0.01  -0.13   0.06     0.03  -0.02  -0.06     0.09  -0.17   0.01
  20   1    -0.19  -0.09   0.10     0.02  -0.02  -0.07    -0.19  -0.10   0.06
                     13                     14                     15
                        a                      a                      a 
 Frequencies --   489.7765               579.5231               583.8703
 Red. masses --    12.0758                 9.9897                 9.9334
 Frc consts  --     0.0000                 0.0000                 0.0000
 IR Inten    --     3.7808                 0.4845                38.7068
 Raman Activ --     0.0000                 0.0000                 0.0000
 Depolar     --     0.0000                 0.0000                 0.0000
 Atom AN      X      Y      Z        X      Y      Z        X      Y      Z
   1   6    -0.11  -0.15   0.02    -0.11  -0.03   0.06    -0.06  -0.02   0.05
   2   6    -0.18   0.16  -0.09     0.07  -0.04   0.47     0.11  -0.07   0.49
   3   8     0.35  -0.06  -0.06     0.05  -0.02  -0.23    -0.01   0.00  -0.23
   4   8    -0.34   0.07  -0.06    -0.07   0.09  -0.19    -0.05   0.08  -0.23
   5   6    -0.21   0.06   0.08     0.02   0.00  -0.05     0.03   0.01   0.05
   6   6     0.21   0.06  -0.08    -0.02   0.00   0.04     0.03  -0.00   0.05
   7   8     0.34   0.07   0.06     0.07   0.10   0.20    -0.04  -0.07  -0.22
   8   6     0.18   0.16   0.09    -0.07  -0.04  -0.49     0.11   0.07   0.47
   9   8    -0.35  -0.06   0.06    -0.05  -0.01   0.24    -0.01  -0.00  -0.22
  10   6     0.11  -0.15  -0.02     0.11  -0.03  -0.06    -0.05   0.02   0.05
  11   1     0.10  -0.08   0.00     0.04   0.02  -0.11     0.04   0.03  -0.12
  12   1     0.02  -0.09   0.01    -0.29  -0.07  -0.01    -0.30  -0.06  -0.01
  13   1    -0.16  -0.14   0.05     0.06   0.02  -0.11     0.10   0.04  -0.12
  14   1    -0.08   0.03   0.03     0.04  -0.02  -0.03     0.06  -0.01   0.00
  15   1    -0.08   0.03  -0.00    -0.01  -0.02   0.01     0.02  -0.01   0.04
  16   1     0.08   0.03  -0.03    -0.04  -0.02   0.03     0.05   0.01   0.00
  17   1     0.08   0.03   0.00     0.01  -0.02  -0.01     0.02   0.01   0.04
  18   1    -0.03  -0.09  -0.01     0.31  -0.08   0.01    -0.28   0.06  -0.01
  19   1     0.16  -0.14  -0.05    -0.07   0.02   0.11     0.10  -0.04  -0.12
  20   1    -0.09  -0.08  -0.00    -0.04   0.03   0.12     0.04  -0.03  -0.11
                     16                     17                     18
                        a                      a                      a 
 Frequencies --   624.7463               663.5493               806.6604
 Red. masses --    12.0061                11.1648                 4.1212
 Frc consts  --     0.0000                 0.0000                 0.0000
 IR Inten    --    30.7837                 2.7795                11.6864
 Raman Activ --     0.0000                 0.0000                 0.0000
 Depolar     --     0.0000                 0.0000                 0.0000
 Atom AN      X      Y      Z        X      Y      Z        X      Y      Z
   1   6    -0.36  -0.07   0.10    -0.28  -0.05   0.07     0.17   0.01  -0.05
   2   6    -0.22   0.05  -0.02    -0.15  -0.00  -0.07     0.02  -0.07   0.00
   3   8     0.27  -0.17  -0.07     0.18  -0.16  -0.03    -0.06  -0.07   0.00
   4   8     0.12   0.25   0.06     0.27   0.25   0.13    -0.12  -0.00  -0.01
   5   6     0.20   0.03  -0.08     0.22   0.03  -0.08    -0.13   0.23   0.07
   6   6     0.20  -0.03  -0.08    -0.22   0.03   0.08     0.13   0.23  -0.07
   7   8     0.12  -0.25   0.06    -0.27   0.25  -0.13     0.12  -0.00   0.01
   8   6    -0.22  -0.05  -0.02     0.15  -0.00   0.07    -0.02  -0.07  -0.00
   9   8     0.27   0.17  -0.07    -0.18  -0.16   0.03     0.06  -0.07  -0.00
  10   6    -0.36   0.07   0.10     0.28  -0.05  -0.07    -0.17   0.01   0.05
  11   1    -0.07  -0.03   0.03    -0.10  -0.02   0.04     0.02   0.01  -0.00
  12   1    -0.07  -0.04   0.03    -0.03  -0.01   0.02     0.05   0.02  -0.01
  13   1    -0.16  -0.06   0.05    -0.10  -0.02   0.04     0.08   0.03  -0.02
  14   1     0.11  -0.04  -0.08     0.16  -0.09  -0.16    -0.08  -0.17  -0.37
  15   1    -0.03  -0.05   0.03     0.02  -0.12   0.13    -0.01  -0.20   0.38
  16   1     0.11   0.04  -0.08    -0.16  -0.09   0.16     0.08  -0.17   0.37
  17   1    -0.03   0.05   0.03    -0.02  -0.12  -0.13     0.01  -0.20  -0.38
  18   1    -0.07   0.04   0.03     0.03  -0.01  -0.02    -0.05   0.02   0.01
  19   1    -0.16   0.06   0.05     0.10  -0.02  -0.04    -0.08   0.03   0.02
  20   1    -0.07   0.03   0.03     0.10  -0.02  -0.04    -0.02   0.01   0.01
                     19                     20                     21
                        a                      a                      a 
 Frequencies --   870.0043               894.3436               992.8236
 Red. masses --    10.7160                10.3198                 6.9245
 Frc consts  --     0.0000                 0.0000                 0.0000
 IR Inten    --     0.6220                53.2414                49.9996
 Raman Activ --     0.0000                 0.0000                 0.0000
 Depolar     --     0.0000                 0.0000                 0.0000
 Atom AN      X      Y      Z        X      Y      Z        X      Y      Z
   1   6    -0.21   0.06   0.08     0.18  -0.07  -0.07    -0.10  -0.26   0.16
   2   6     0.01   0.18   0.01    -0.02  -0.16   0.00     0.13   0.03  -0.23
   3   8     0.04   0.25   0.03    -0.03  -0.23  -0.04     0.09   0.17   0.03
   4   8    -0.02  -0.38  -0.06     0.01   0.41   0.01     0.06   0.01   0.01
   5   6     0.20  -0.13  -0.06    -0.17  -0.05   0.12    -0.11  -0.05   0.03
   6   6     0.20   0.13  -0.06     0.17  -0.05  -0.12    -0.12   0.05   0.03
   7   8    -0.02   0.38  -0.06    -0.01   0.41  -0.02     0.06  -0.01   0.01
   8   6     0.01  -0.18   0.01     0.02  -0.16  -0.00     0.14  -0.03  -0.25
   9   8     0.04  -0.25   0.03     0.03  -0.23   0.04     0.10  -0.18   0.04
  10   6    -0.21  -0.06   0.08    -0.18  -0.07   0.07    -0.11   0.28   0.18
  11   1     0.10  -0.01  -0.03    -0.11   0.01   0.03    -0.29   0.03  -0.01
  12   1    -0.10  -0.07   0.02     0.08   0.07  -0.01    -0.24   0.03   0.03
  13   1    -0.18  -0.09   0.03     0.18   0.09  -0.03     0.23   0.10  -0.10
  14   1    -0.07   0.04   0.08     0.08   0.04   0.13    -0.05   0.01   0.04
  15   1     0.20   0.07  -0.10    -0.24   0.02  -0.09     0.02   0.02  -0.02
  16   1    -0.07  -0.04   0.08    -0.08   0.03  -0.13    -0.06  -0.01   0.04
  17   1     0.20  -0.07  -0.10     0.24   0.02   0.09     0.02  -0.02  -0.02
  18   1    -0.09   0.07   0.02    -0.08   0.07   0.01    -0.27  -0.03   0.03
  19   1    -0.18   0.09   0.03    -0.18   0.09   0.03     0.26  -0.11  -0.11
  20   1     0.10   0.01  -0.03     0.11   0.01  -0.03    -0.31  -0.03  -0.01
                     22                     23                     24
                        a                      a                      a 
 Frequencies --   996.3677              1004.2372              1005.2166
 Red. masses --     6.3682                 6.2658                 6.9857
 Frc consts  --     0.0000                 0.0000                 0.0000
 IR Inten    --     0.1717                48.8987                 3.4207
 Raman Activ --     0.0000                 0.0000                 0.0000
 Depolar     --     0.0000                 0.0000                 0.0000
 Atom AN      X      Y      Z        X      Y      Z        X      Y      Z
   1   6     0.03   0.23  -0.24    -0.19  -0.14  -0.22     0.21   0.21   0.15
   2   6    -0.08  -0.04   0.31     0.19  -0.02   0.24    -0.22   0.00  -0.15
   3   8    -0.08  -0.14  -0.05     0.05   0.14  -0.05    -0.08  -0.20   0.04
   4   8    -0.02   0.02  -0.02     0.02  -0.01  -0.06    -0.04   0.04   0.07
   5   6     0.10  -0.00  -0.03    -0.06  -0.03   0.02     0.09  -0.00  -0.07
   6   6    -0.09  -0.01   0.03    -0.06   0.03   0.01    -0.09  -0.00   0.07
   7   8     0.02   0.02   0.02     0.02   0.01  -0.05     0.04   0.04  -0.07
   8   6     0.07  -0.04  -0.29     0.18   0.02   0.24     0.22   0.00   0.16
   9   8     0.07  -0.12   0.05     0.05  -0.13  -0.05     0.08  -0.20  -0.04
  10   6    -0.03   0.20   0.22    -0.19   0.13  -0.22    -0.21   0.21  -0.16
  11   1     0.21  -0.05   0.07    -0.30  -0.07   0.19     0.36   0.06  -0.17
  12   1     0.35   0.00  -0.03     0.32   0.12  -0.02    -0.21  -0.12   0.01
  13   1    -0.28  -0.10   0.15    -0.09   0.02   0.14     0.01  -0.05  -0.10
  14   1     0.06   0.01   0.01    -0.03   0.01   0.02     0.07   0.01   0.01
  15   1    -0.01  -0.00  -0.02     0.01   0.01  -0.01    -0.01   0.00  -0.03
  16   1    -0.06   0.01  -0.02    -0.03  -0.01   0.02    -0.07   0.01  -0.01
  17   1     0.01   0.00   0.02     0.01  -0.01  -0.01     0.01   0.00   0.03
  18   1    -0.33   0.00   0.03     0.31  -0.11  -0.02     0.22  -0.12  -0.01
  19   1     0.25  -0.09  -0.14    -0.08  -0.02   0.14    -0.01  -0.05   0.10
  20   1    -0.18  -0.05  -0.07    -0.29   0.07   0.19    -0.37   0.06   0.18
                     25                     26                     27
                        a                      a                      a 
 Frequencies --  1034.2483              1056.9053              1068.5089
 Red. masses --    11.3789                12.1461                10.6175
 Frc consts  --     0.0000                 0.0000                 0.0000
 IR Inten    --     3.0480               103.4681                 0.3728
 Raman Activ --     0.0000                 0.0000                 0.0000
 Depolar     --     0.0000                 0.0000                 0.0000
 Atom AN      X      Y      Z        X      Y      Z        X      Y      Z
   1   6     0.06  -0.09  -0.05     0.12  -0.12  -0.05     0.09  -0.09  -0.03
   2   6    -0.02  -0.00   0.02    -0.08   0.02   0.03    -0.06   0.03   0.03
   3   8     0.02  -0.01  -0.00     0.02  -0.02  -0.01     0.02  -0.00  -0.01
   4   8    -0.27   0.03   0.16    -0.45   0.06   0.13    -0.32   0.02   0.09
   5   6     0.08   0.03  -0.56     0.39  -0.06  -0.09     0.43   0.01   0.27
   6   6    -0.08   0.03   0.56     0.39   0.06  -0.09    -0.44   0.01  -0.27
   7   8     0.27   0.03  -0.16    -0.45  -0.07   0.13     0.32   0.02  -0.09
   8   6     0.02  -0.00  -0.02    -0.08  -0.02   0.03     0.07   0.03  -0.03
   9   8    -0.02  -0.01   0.00     0.02   0.02  -0.01    -0.02  -0.01   0.01
  10   6    -0.06  -0.09   0.05     0.12   0.12  -0.05    -0.09  -0.09   0.03
  11   1    -0.10  -0.01   0.03    -0.12  -0.00   0.02    -0.09  -0.00   0.01
  12   1     0.06   0.05  -0.01     0.05   0.06  -0.01     0.03   0.05  -0.01
  13   1     0.10   0.05  -0.01     0.17   0.08  -0.03     0.13   0.06  -0.02
  14   1    -0.01   0.02  -0.12     0.03   0.03   0.04     0.11   0.02   0.11
  15   1    -0.01  -0.00  -0.14     0.08   0.03  -0.09     0.20   0.02   0.09
  16   1     0.01   0.02   0.12     0.03  -0.03   0.04    -0.11   0.02  -0.11
  17   1     0.01  -0.00   0.14     0.08  -0.03  -0.09    -0.20   0.02  -0.09
  18   1    -0.06   0.05   0.01     0.05  -0.06  -0.01    -0.03   0.05   0.00
  19   1    -0.10   0.05   0.01     0.17  -0.08  -0.03    -0.13   0.06   0.02
  20   1     0.10  -0.01  -0.03    -0.11   0.00   0.02     0.09  -0.00  -0.01
                     28                     29                     30
                        a                      a                      a 
 Frequencies --  1123.3833              1167.9565              1169.0911
 Red. masses --     8.5196                10.6103                 9.4638
 Frc consts  --     0.0000                 0.0000                 0.0000
 IR Inten    --   109.2331               792.4952               214.8971
 Raman Activ --     0.0000                 0.0000                 0.0000
 Depolar     --     0.0000                 0.0000                 0.0000
 Atom AN      X      Y      Z        X      Y      Z        X      Y      Z
   1   6    -0.05  -0.02   0.02     0.15  -0.11  -0.06    -0.13   0.08   0.05
   2   6     0.15  -0.04  -0.06    -0.45   0.27   0.16     0.41  -0.22  -0.15
   3   8     0.01   0.11   0.02     0.06   0.02  -0.01    -0.04   0.04   0.02
   4   8    -0.16  -0.22   0.03     0.18  -0.21  -0.07    -0.20   0.04   0.06
   5   6     0.09   0.42  -0.02    -0.07   0.10  -0.01     0.11   0.11   0.03
   6   6     0.09  -0.42  -0.02    -0.06  -0.11  -0.01    -0.11   0.10  -0.03
   7   8    -0.16   0.22   0.03     0.16   0.21  -0.06     0.21   0.06  -0.07
   8   6     0.15   0.04  -0.06    -0.41  -0.25   0.15    -0.44  -0.24   0.16
   9   8     0.01  -0.11   0.02     0.06  -0.03  -0.01     0.05   0.04  -0.02
  10   6    -0.05   0.02   0.02     0.14   0.11  -0.06     0.15   0.09  -0.06
  11   1    -0.03  -0.00   0.00    -0.07  -0.00   0.01     0.04   0.00  -0.01
  12   1    -0.03  -0.02   0.00     0.05   0.10  -0.01    -0.05  -0.08   0.01
  13   1    -0.03  -0.02   0.00     0.19   0.11  -0.00    -0.16  -0.10   0.00
  14   1     0.19  -0.06  -0.24     0.02  -0.03  -0.09     0.16   0.02   0.02
  15   1    -0.14  -0.12   0.24     0.11  -0.02   0.10    -0.24  -0.04   0.00
  16   1     0.19   0.06  -0.24     0.03   0.03  -0.09    -0.15   0.02  -0.03
  17   1    -0.14   0.12   0.24     0.09   0.02   0.10     0.24  -0.03   0.00
  18   1    -0.03   0.02   0.00     0.04  -0.09  -0.01     0.06  -0.09  -0.01
  19   1    -0.03   0.02   0.00     0.18  -0.11  -0.00     0.18  -0.11  -0.00
  20   1    -0.03   0.00   0.00    -0.07   0.00   0.01    -0.04   0.00   0.01
                     31                     32                     33
                        a                      a                      a 
 Frequencies --  1213.4282              1245.4740              1283.9690
 Red. masses --     5.8428                 2.7054                 2.8352
 Frc consts  --     0.0000                 0.0000                 0.0000
 IR Inten    --   135.7479                38.4142                 9.7369
 Raman Activ --     0.0000                 0.0000                 0.0000
 Depolar     --     0.0000                 0.0000                 0.0000
 Atom AN      X      Y      Z        X      Y      Z        X      Y      Z
   1   6     0.05  -0.06  -0.02     0.02  -0.02  -0.00    -0.01  -0.01   0.01
   2   6    -0.18   0.12   0.06    -0.07   0.06   0.02    -0.02   0.00   0.01
   3   8     0.04   0.08   0.00     0.01   0.04   0.00     0.01   0.01  -0.00
   4   8     0.05  -0.29  -0.04     0.05  -0.15  -0.06     0.03   0.03  -0.08
   5   6     0.02   0.17   0.01     0.08  -0.12   0.08     0.20   0.07   0.16
   6   6    -0.02   0.17  -0.02     0.08   0.12   0.08     0.20  -0.07   0.16
   7   8    -0.05  -0.29   0.04     0.05   0.15  -0.06     0.03  -0.03  -0.08
   8   6     0.18   0.12  -0.06    -0.07  -0.06   0.02    -0.02  -0.00   0.01
   9   8    -0.04   0.08  -0.00     0.01  -0.04   0.00     0.01  -0.01  -0.00
  10   6    -0.05  -0.06   0.02     0.02   0.02  -0.00    -0.01   0.01   0.01
  11   1    -0.04  -0.00   0.01    -0.01  -0.00   0.00     0.01  -0.00  -0.01
  12   1     0.00   0.04  -0.00    -0.01   0.02  -0.00     0.01   0.01   0.00
  13   1     0.07   0.05   0.01     0.02   0.02   0.00     0.02   0.01  -0.00
  14   1     0.40  -0.01   0.01     0.21   0.01   0.13    -0.57  -0.05  -0.23
  15   1    -0.38  -0.05  -0.02    -0.56  -0.00  -0.24    -0.20   0.00  -0.03
  16   1    -0.40  -0.01  -0.01     0.21  -0.01   0.13    -0.57   0.05  -0.23
  17   1     0.38  -0.05   0.02    -0.56  -0.00  -0.24    -0.20  -0.00  -0.03
  18   1    -0.00   0.04   0.00    -0.01  -0.02  -0.00     0.01  -0.01   0.00
  19   1    -0.08   0.05  -0.00     0.02  -0.02   0.00     0.02  -0.01  -0.00
  20   1     0.04  -0.00  -0.01    -0.01   0.00   0.00     0.01   0.00  -0.00
                     34                     35                     36
                        a                      a                      a 
 Frequencies --  1330.0480              1355.9465              1356.6705
 Red. masses --     3.6685                 3.3327                 3.4036
 Frc consts  --     0.0000                 0.0000                 0.0000
 IR Inten    --     2.0336               148.9683                 0.0300
 Raman Activ --     0.0000                 0.0000                 0.0000
 Depolar     --     0.0000                 0.0000                 0.0000
 Atom AN      X      Y      Z        X      Y      Z        X      Y      Z
   1   6    -0.03  -0.02   0.02    -0.29  -0.06   0.12    -0.30  -0.06   0.12
   2   6    -0.05   0.03   0.01     0.03  -0.02  -0.01     0.04  -0.03  -0.01
   3   8     0.01   0.01   0.00     0.01   0.03   0.00     0.00   0.03   0.00
   4   8     0.05  -0.01  -0.06     0.00  -0.01  -0.00    -0.01  -0.01   0.01
   5   6     0.32  -0.01   0.08    -0.01   0.00  -0.01    -0.05   0.01  -0.01
   6   6    -0.32  -0.01  -0.08    -0.02  -0.00  -0.01     0.05   0.01   0.01
   7   8    -0.05  -0.01   0.06     0.00   0.01   0.00     0.01  -0.01  -0.01
   8   6     0.05   0.03  -0.01     0.03   0.02  -0.01    -0.04  -0.02   0.01
   9   8    -0.01   0.01  -0.00     0.01  -0.03   0.00    -0.00   0.02  -0.00
  10   6     0.03  -0.02  -0.02    -0.30   0.06   0.12     0.29  -0.06  -0.12
  11   1     0.04  -0.00  -0.03     0.28  -0.01  -0.20     0.28  -0.01  -0.20
  12   1     0.05   0.01   0.01     0.37   0.05   0.04     0.38   0.05   0.04
  13   1     0.05   0.03  -0.03     0.25   0.13  -0.23     0.24   0.13  -0.23
  14   1    -0.45  -0.00  -0.11     0.02   0.01   0.01     0.06   0.01   0.02
  15   1    -0.38  -0.03  -0.11    -0.00  -0.01   0.01     0.04  -0.00   0.02
  16   1     0.45  -0.00   0.11     0.02  -0.01   0.01    -0.06   0.01  -0.02
  17   1     0.38  -0.03   0.11    -0.00   0.01   0.01    -0.04  -0.00  -0.02
  18   1    -0.05   0.01  -0.01     0.38  -0.05   0.04    -0.37   0.05  -0.04
  19   1    -0.05   0.03   0.03     0.25  -0.13  -0.23    -0.24   0.13   0.22
  20   1    -0.04  -0.00   0.03     0.28   0.01  -0.20    -0.27  -0.00   0.20
                     37                     38                     39
                        a                      a                      a 
 Frequencies --  1415.3370              1416.0461              1417.6457
 Red. masses --     1.7474                 1.6637                 1.8080
 Frc consts  --     0.0000                 0.0000                 0.0000
 IR Inten    --    21.8572                25.6938                 4.3931
 Raman Activ --     0.0000                 0.0000                 0.0000
 Depolar     --     0.0000                 0.0000                 0.0000
 Atom AN      X      Y      Z        X      Y      Z        X      Y      Z
   1   6     0.08  -0.04   0.10    -0.10   0.06  -0.12     0.05  -0.06   0.05
   2   6     0.01   0.02   0.03     0.00  -0.02  -0.04    -0.01   0.00   0.02
   3   8    -0.01  -0.03  -0.01     0.01   0.02   0.01    -0.00   0.00  -0.00
   4   8    -0.01  -0.00   0.01    -0.01   0.01   0.00     0.02  -0.01  -0.02
   5   6    -0.04   0.00   0.10    -0.00   0.00  -0.01     0.06  -0.00  -0.15
   6   6    -0.04  -0.00   0.10     0.00   0.00   0.00     0.06   0.00  -0.15
   7   8    -0.01   0.00   0.01     0.01   0.01  -0.00     0.02   0.01  -0.02
   8   6     0.01  -0.02   0.03    -0.00  -0.02   0.04    -0.01  -0.00   0.02
   9   8    -0.01   0.03  -0.01    -0.01   0.02  -0.01    -0.00  -0.00  -0.00
  10   6     0.09   0.04   0.10     0.10   0.06   0.11     0.06   0.06   0.05
  11   1    -0.19   0.19  -0.31     0.22  -0.24   0.42    -0.07   0.12  -0.25
  12   1     0.10   0.18   0.02    -0.11  -0.29  -0.03     0.02   0.23   0.01
  13   1    -0.16  -0.22  -0.12     0.21   0.26   0.11    -0.12  -0.11   0.02
  14   1     0.09  -0.14  -0.21    -0.00   0.01   0.02    -0.14   0.21   0.30
  15   1     0.07   0.16  -0.19     0.00  -0.01   0.02    -0.10  -0.24   0.27
  16   1     0.09   0.14  -0.21    -0.00   0.01  -0.01    -0.14  -0.21   0.30
  17   1     0.07  -0.17  -0.19    -0.00  -0.01  -0.01    -0.10   0.24   0.27
  18   1     0.11  -0.20   0.03     0.10  -0.27   0.03     0.02  -0.23   0.02
  19   1    -0.18   0.23  -0.13    -0.20   0.24  -0.10    -0.12   0.11   0.02
  20   1    -0.20  -0.21  -0.33    -0.21  -0.23  -0.39    -0.08  -0.13  -0.25
                     40                     41                     42
                        a                      a                      a 
 Frequencies --  1423.4270              1424.1216              1425.8212
 Red. masses --     1.6374                 1.6904                 1.8289
 Frc consts  --     0.0000                 0.0000                 0.0000
 IR Inten    --     3.2053                 3.7371                 6.6652
 Raman Activ --     0.0000                 0.0000                 0.0000
 Depolar     --     0.0000                 0.0000                 0.0000
 Atom AN      X      Y      Z        X      Y      Z        X      Y      Z
   1   6    -0.04  -0.12  -0.05     0.06   0.14   0.06    -0.03  -0.05  -0.02
   2   6     0.03  -0.04  -0.02    -0.05   0.04   0.03     0.05  -0.01  -0.02
   3   8     0.00   0.01   0.00     0.00  -0.00  -0.00    -0.01  -0.02  -0.00
   4   8     0.00   0.01   0.00     0.01  -0.01  -0.01    -0.03   0.01   0.02
   5   6     0.01   0.00  -0.07     0.01  -0.00  -0.03    -0.02  -0.00   0.17
   6   6    -0.01   0.00   0.06     0.01   0.00  -0.04     0.02  -0.00  -0.17
   7   8    -0.00   0.01  -0.00     0.02   0.01  -0.01     0.03   0.01  -0.02
   8   6    -0.03  -0.04   0.03    -0.05  -0.03   0.03    -0.05  -0.01   0.02
   9   8     0.00   0.01  -0.00     0.01  -0.00  -0.00     0.01  -0.02   0.00
  10   6     0.05  -0.13   0.06     0.05  -0.13   0.06     0.03  -0.05   0.02
  11   1     0.22  -0.03  -0.13    -0.26   0.04   0.13     0.10  -0.02  -0.04
  12   1    -0.15   0.36  -0.00     0.17  -0.40   0.00    -0.06   0.14  -0.00
  13   1    -0.01   0.15   0.36     0.00  -0.19  -0.42     0.01   0.07   0.15
  14   1    -0.04   0.10   0.15    -0.04   0.05   0.06     0.11  -0.24  -0.37
  15   1    -0.02  -0.11   0.13    -0.03  -0.05   0.06     0.07   0.28  -0.34
  16   1     0.04   0.09  -0.14    -0.04  -0.06   0.09    -0.11  -0.24   0.37
  17   1     0.02  -0.10  -0.13    -0.03   0.07   0.08    -0.07   0.28   0.34
  18   1     0.17   0.40  -0.00     0.16   0.37  -0.00     0.05   0.13  -0.00
  19   1     0.01   0.16  -0.40     0.00   0.17  -0.38    -0.01   0.07  -0.14
  20   1    -0.24  -0.03   0.14    -0.24  -0.04   0.12    -0.10  -0.02   0.04
                     43                     44                     45
                        a                      a                      a 
 Frequencies --  1705.9756              1709.9146              2944.3606
 Red. masses --    13.3428                13.3214                 1.7549
 Frc consts  --     0.0000                 0.0000                 0.0000
 IR Inten    --    94.8723              1198.4476                20.7689
 Raman Activ --     0.0000                 0.0000                 0.0000
 Depolar     --     0.0000                 0.0000                 0.0000
 Atom AN      X      Y      Z        X      Y      Z        X      Y      Z
   1   6    -0.06  -0.04   0.01     0.05   0.04  -0.01    -0.00   0.00  -0.00
   2   6     0.27   0.50  -0.01    -0.26  -0.49   0.01     0.00  -0.00  -0.00
   3   8    -0.18  -0.39  -0.01     0.17   0.37   0.00     0.00   0.00   0.00
   4   8    -0.01  -0.03  -0.00     0.00   0.04   0.00    -0.01  -0.00   0.00
   5   6     0.01   0.01  -0.00    -0.01  -0.01   0.01    -0.01  -0.16   0.08
   6   6     0.01  -0.01  -0.00     0.01  -0.01  -0.01    -0.01   0.16   0.08
   7   8    -0.01   0.03  -0.00    -0.00   0.04  -0.00    -0.01   0.00   0.00
   8   6     0.27  -0.49  -0.01     0.27  -0.50  -0.00     0.00   0.00  -0.00
   9   8    -0.17   0.37  -0.01    -0.18   0.38  -0.01     0.00  -0.00   0.00
  10   6    -0.06   0.03   0.01    -0.06   0.04   0.01    -0.00  -0.00  -0.00
  11   1    -0.02  -0.01   0.02     0.02   0.01  -0.02    -0.00  -0.00  -0.00
  12   1    -0.01   0.00  -0.00     0.01  -0.00   0.00    -0.00  -0.00   0.00
  13   1     0.02   0.02   0.01    -0.02  -0.02  -0.01     0.00  -0.00   0.00
  14   1    -0.01   0.01   0.01    -0.00  -0.02  -0.02     0.09   0.58  -0.34
  15   1    -0.02  -0.01   0.01     0.02   0.01  -0.02    -0.01   0.02   0.04
  16   1    -0.01  -0.01   0.00     0.00  -0.02   0.02     0.09  -0.58  -0.34
  17   1    -0.01   0.01   0.01    -0.02   0.01   0.02    -0.01  -0.02   0.04
  18   1    -0.01  -0.00  -0.00    -0.01  -0.00  -0.00    -0.00   0.00   0.00
  19   1     0.02  -0.02   0.01     0.02  -0.02   0.01     0.00   0.00   0.00
  20   1    -0.02   0.01   0.02    -0.02   0.01   0.02    -0.00   0.00  -0.00
                     46                     47                     48
                        a                      a                      a 
 Frequencies --  2945.5081              2994.3026              2996.2398
 Red. masses --     1.6346                 1.6990                 1.8640
 Frc consts  --     0.0000                 0.0000                 0.0000
 IR Inten    --    12.5710                 9.4118                 8.3549
 Raman Activ --     0.0000                 0.0000                 0.0000
 Depolar     --     0.0000                 0.0000                 0.0000
 Atom AN      X      Y      Z        X      Y      Z        X      Y      Z
   1   6    -0.00   0.00   0.00    -0.00  -0.00   0.00     0.00  -0.00   0.00
   2   6     0.00   0.00   0.00    -0.00   0.00  -0.00     0.00   0.00   0.00
   3   8    -0.00  -0.00  -0.00     0.00   0.00   0.00    -0.00  -0.00  -0.00
   4   8     0.01   0.00  -0.00     0.01  -0.00  -0.00    -0.00   0.00   0.00
   5   6     0.03   0.13  -0.10     0.04  -0.13  -0.11    -0.03   0.18   0.08
   6   6    -0.03   0.13   0.10     0.04   0.13  -0.11     0.03   0.17  -0.08
   7   8    -0.01   0.00   0.00     0.01   0.00  -0.00     0.00   0.00  -0.00
   8   6    -0.00   0.00  -0.00    -0.00  -0.00  -0.00    -0.00   0.00  -0.00
   9   8     0.00  -0.00   0.00     0.00  -0.00   0.00     0.00  -0.00   0.00
  10   6     0.00   0.00  -0.00    -0.00   0.00   0.00    -0.00  -0.00  -0.00
  11   1    -0.00   0.00   0.00     0.00   0.00   0.00     0.00   0.00   0.00
  12   1     0.00   0.00  -0.00     0.00   0.00  -0.01     0.00  -0.00  -0.00
  13   1    -0.00  -0.00   0.00     0.00  -0.00   0.00    -0.00   0.00  -0.00
  14   1    -0.08  -0.58   0.33    -0.00  -0.06   0.01    -0.02  -0.08   0.07
  15   1    -0.03   0.11   0.06    -0.14   0.54   0.39     0.14  -0.53  -0.38
  16   1     0.08  -0.58  -0.33    -0.00   0.06   0.01     0.02  -0.08  -0.07
  17   1     0.03   0.11  -0.06    -0.14  -0.54   0.39    -0.14  -0.53   0.38
  18   1    -0.00   0.00   0.00     0.00  -0.00  -0.01    -0.00  -0.00   0.00
  19   1     0.00  -0.00  -0.00     0.00   0.00   0.00     0.00   0.00   0.00
  20   1     0.00   0.00  -0.00     0.00  -0.00   0.00    -0.00   0.00  -0.00
                     49                     50                     51
                        a                      a                      a 
 Frequencies --  3027.1525              3027.4367              3057.5814
 Red. masses --     1.7726                 1.7739                 1.4882
 Frc consts  --     0.0000                 0.0000                 0.0000
 IR Inten    --     0.2400                 0.2571                 0.5085
 Raman Activ --     0.0000                 0.0000                 0.0000
 Depolar     --     0.0000                 0.0000                 0.0000
 Atom AN      X      Y      Z        X      Y      Z        X      Y      Z
   1   6     0.00  -0.00   0.01     0.00  -0.03   0.26     0.17  -0.08   0.09
   2   6    -0.00  -0.00   0.00    -0.00  -0.00   0.01     0.01  -0.00   0.00
   3   8     0.00   0.00   0.00     0.00   0.00  -0.00    -0.00  -0.00   0.00
   4   8     0.00  -0.00  -0.00     0.00  -0.00  -0.00    -0.00   0.00   0.00
   5   6     0.00  -0.00  -0.00    -0.00   0.00   0.00    -0.00  -0.00  -0.00
   6   6     0.00   0.00  -0.00    -0.00  -0.00   0.00    -0.00  -0.00   0.00
   7   8    -0.00  -0.00   0.00    -0.00  -0.00   0.00    -0.00   0.00  -0.00
   8   6     0.00  -0.00  -0.01    -0.00   0.00   0.00     0.00  -0.00   0.00
   9   8    -0.00   0.00   0.00     0.00  -0.00  -0.00    -0.00   0.00  -0.00
  10   6    -0.00  -0.03  -0.26     0.00   0.00   0.01     0.00   0.00   0.00
  11   1    -0.00  -0.00   0.00     0.00  -0.01   0.03    -0.07  -0.34  -0.13
  12   1     0.00   0.00  -0.03     0.06   0.03  -0.96     0.01  -0.01   0.12
  13   1    -0.00   0.00  -0.00    -0.07   0.08  -0.00    -0.55   0.65  -0.30
  14   1    -0.00  -0.00   0.00     0.00   0.00  -0.00    -0.00  -0.00   0.00
  15   1    -0.00   0.01   0.00     0.00  -0.01  -0.00    -0.00   0.00   0.00
  16   1    -0.00   0.00   0.00     0.00  -0.00  -0.00     0.00  -0.00   0.00
  17   1    -0.00  -0.00   0.00     0.00   0.01  -0.00     0.00   0.00  -0.00
  18   1    -0.06   0.04   0.96     0.00  -0.00  -0.03     0.00   0.00   0.00
  19   1     0.06   0.07   0.00    -0.00  -0.00   0.00    -0.01  -0.01  -0.00
  20   1    -0.00  -0.01  -0.03     0.00  -0.00   0.00    -0.00   0.00  -0.00
                     52                     53                     54
                        a                      a                      a 
 Frequencies --  3058.0205              3076.9256              3077.0497
 Red. masses --     1.4844                 1.9275                 1.9234
 Frc consts  --     0.0000                 0.0000                 0.0000
 IR Inten    --     0.5224                 1.4216                 5.6253
 Raman Activ --     0.0000                 0.0000                 0.0000
 Depolar     --     0.0000                 0.0000                 0.0000
 Atom AN      X      Y      Z        X      Y      Z        X      Y      Z
   1   6     0.00  -0.00   0.00     0.00   0.10   0.02    -0.00  -0.26  -0.06
   2   6     0.00  -0.00  -0.00     0.00   0.00   0.00    -0.00  -0.01  -0.00
   3   8     0.00   0.00   0.00    -0.00  -0.00  -0.00     0.00   0.00   0.00
   4   8     0.00   0.00   0.00     0.00  -0.00  -0.00    -0.00   0.00   0.00
   5   6     0.00  -0.00  -0.00    -0.00  -0.00  -0.00     0.00  -0.00   0.00
   6   6     0.00  -0.00   0.00    -0.00  -0.00  -0.00    -0.00  -0.00   0.00
   7   8     0.00   0.00  -0.00     0.00   0.00  -0.00     0.00   0.00  -0.00
   8   6    -0.01  -0.00  -0.00     0.00  -0.01   0.00     0.00  -0.00   0.00
   9   8     0.00  -0.00  -0.00    -0.00   0.00  -0.00    -0.00   0.00  -0.00
  10   6    -0.17  -0.08  -0.09    -0.00  -0.26   0.07    -0.00  -0.10   0.03
  11   1    -0.00  -0.00  -0.00    -0.08  -0.28  -0.12     0.21   0.74   0.32
  12   1     0.00  -0.00   0.00     0.00   0.01  -0.01    -0.00  -0.03   0.03
  13   1    -0.01   0.01  -0.00     0.08  -0.08   0.05    -0.20   0.21  -0.12
  14   1    -0.00  -0.00  -0.00    -0.00  -0.00   0.00     0.00   0.00  -0.00
  15   1    -0.00   0.00   0.00    -0.00   0.00   0.00     0.00   0.00   0.00
  16   1     0.00  -0.00  -0.00    -0.00   0.00   0.00     0.00  -0.00  -0.00
  17   1     0.00   0.00  -0.00    -0.00  -0.00   0.00     0.00   0.00  -0.00
  18   1    -0.01  -0.02  -0.11     0.00  -0.03  -0.02     0.00  -0.01  -0.01
  19   1     0.54   0.65   0.28     0.21   0.22   0.12     0.08   0.09   0.05
  20   1     0.08  -0.35   0.14    -0.21   0.73  -0.33    -0.08   0.28  -0.13
