      -----------------------------------------------------------      
     |                   =====================                   |     
     |                           x T B                           |     
     |                   =====================                   |     
     |                         S. Grimme                         |     
     |          Mulliken Center for Theoretical Chemistry        |     
     |                    University of Bonn                     |     
      -----------------------------------------------------------      

   * xtb version 6.7.1 (edcfbbe) compiled by 'albert@albert-system' on 2024-07-22

   xtb is free software: you can redistribute it and/or modify it under
   the terms of the GNU Lesser General Public License as published by
   the Free Software Foundation, either version 3 of the License, or
   (at your option) any later version.
   
   xtb is distributed in the hope that it will be useful,
   but WITHOUT ANY WARRANTY; without even the implied warranty of
   MERCHANTABILITY or FITNESS FOR A PARTICULAR PURPOSE.  See the
   GNU Lesser General Public License for more details.
   
   Cite this work as:
   * C. Bannwarth, E. Caldeweyher, S. Ehlert, A. Hansen, P. Pracht,
     J. Seibert, S. Spicher, S. Grimme, WIREs Comput. Mol. Sci., 2020, 11,
     e01493. DOI: 10.1002/wcms.1493
   
   for GFN2-xTB:
   * C. Bannwarth, S. Ehlert and S. Grimme., J. Chem. Theory Comput., 2019,
     15, 1652-1671. DOI: 10.1021/acs.jctc.8b01176
   for GFN1-xTB:
   * S. Grimme, C. Bannwarth, P. Shushkov, J. Chem. Theory Comput., 2017,
     13, 1989-2009. DOI: 10.1021/acs.jctc.7b00118
   for GFN0-xTB:
   * P. Pracht, E. Caldeweyher, S. Ehlert, S. Grimme, ChemRxiv, 2019, preprint.
     DOI: 10.26434/chemrxiv.8326202.v1
   for GFN-FF:
   * S. Spicher and S. Grimme, Angew. Chem. Int. Ed., 2020, 59, 15665-15673.
     DOI: 10.1002/anie.202004239
   
   for ALPB and GBSA implicit solvation:
   * S. Ehlert, M. Stahn, S. Spicher, S. Grimme, J. Chem. Theory Comput.,
     2021, 17, 4250-4261. DOI: 10.1021/acs.jctc.1c00471
   
   for ddCOSMO and CPCM-X implicit solvation:
   * M. Stahn, S. Ehlert, S. Grimme, J. Phys. Chem. A,
     2023, XX, XXXX-XXXX. DOI: 10.1021/acs.jpca.3c04382
   
   for DFT-D4:
   * E. Caldeweyher, C. Bannwarth and S. Grimme, J. Chem. Phys., 2017,
     147, 034112. DOI: 10.1063/1.4993215
   * E. Caldeweyher, S. Ehlert, A. Hansen, H. Neugebauer, S. Spicher,
     C. Bannwarth and S. Grimme, J. Chem. Phys., 2019, 150, 154122.
     DOI: 10.1063/1.5090222
   * E. Caldeweyher, J.-M. Mewes, S. Ehlert and S. Grimme, Phys. Chem. Chem. Phys.
     2020, 22, 8499-8512. DOI: 10.1039/D0CP00502A
   
   for sTDA-xTB:
   * S. Grimme and C. Bannwarth, J. Chem. Phys., 2016, 145, 054103.
     DOI: 10.1063/1.4959605
   
   in the mass-spec context:
   * V. Asgeirsson, C. Bauer and S. Grimme, Chem. Sci., 2017, 8, 4879.
     DOI: 10.1039/c7sc00601b
   * J. Koopman and S. Grimme, ACS Omega 2019, 4, 12, 15120-15133.
     DOI: 10.1021/acsomega.9b02011
   
   for metadynamics refer to:
   * S. Grimme, J. Chem. Theory Comput., 2019, 155, 2847-2862
     DOI: 10.1021/acs.jctc.9b00143
   
   for SPH calculations refer to:
   * S. Spicher and S. Grimme, J. Chem. Theory Comput., 2021, 17, 1701-1714
     DOI: 10.1021/acs.jctc.0c01306
   
   for ONIOM refer to:
   * C. Plett, A. Katbashev, S. Ehlert, S. Grimme, M. Bursch,
     Phys. Chem. Chem. Phys., 2023, 25, 17860-17868. DOI: 10.1039/D3CP02178E
   
   for DIPRO refer to:
   * J. Kohn, N. Gildemeister, S. Grimme, D. Fazzi, A. Hansen,
     J. Chem. Phys., 2023, just accepted.
   
   for PTB refer to:
   * S. Grimme, M. Mueller, A. Hansen, J. Chem. Phys., 2023, 158, 124111.
     DOI: 10.1063/5.0137838
   
   with help from (in alphabetical order)
   P. Atkinson, C. Bannwarth, F. Bohle, G. Brandenburg, E. Caldeweyher
   M. Checinski, S. Dohm, S. Ehlert, S. Ehrlich, I. Gerasimov, C. Hölzer
   A. Katbashev, J. Kohn, J. Koopman, C. Lavigne, S. Lehtola, F. März, M. Müller,
   F. Musil, H. Neugebauer, J. Pisarek, C. Plett, P. Pracht, F. Pultar,
   J. Seibert, P. Shushkov, S. Spicher, M. Stahn, M. Steiner, T. Strunk,
   J. Stückrath, T. Rose, and J. Unsleber
   
 * started run on 2025/04/11 at 16:20:41.735     
   ID    Z sym.   atoms
    1    6 C      1-5
    2    8 O      6, 7
    3    1 H      8-17

           -------------------------------------------------
          |                Calculation Setup                |
           -------------------------------------------------

          program call               : /srv/scratch/z5358697/.xtb/bin/xtb xtb_rrho.coord --gfn2 --bhess vtight --chrg 0 --enso --norestart -I rrho-xcontrol-inp --parallel 1 --alpb water
          hostname                   : k018
          coordinate file            : xtb_rrho.coord
          omp threads                :                     1


           -------------------------------------------------
          |                 G F N 2 - x T B                 |
           -------------------------------------------------

        Reference                      10.1021/acs.jctc.8b01176
      * Hamiltonian:
        H0-scaling (s, p, d)           1.850000    2.230000    2.230000
        zeta-weighting                 0.500000
      * Dispersion:
        s8                             2.700000
        a1                             0.520000
        a2                             5.000000
        s9                             5.000000
      * Repulsion:
        kExp                           1.500000    1.000000
        rExp                           1.000000
      * Coulomb:
        alpha                          2.000000
        third order                    shell-resolved
        anisotropic                    true
        a3                             3.000000
        a5                             4.000000
        cn-shift                       1.200000
        cn-exp                         4.000000
        max-rad                        5.000000

      * Solvation model:               ALPB
        Solvent                        water
        Parameter file                 internal GFN2-xTB/ALPB
        Dielectric constant                8.0200E+01
        Reference state                gsolv [1 M gas/solution]
        Free energy shift                  1.0808E-03 Eh       6.7819E-01 kcal/mol
        Temperature                        2.9815E+02 K
        Density                            1.0000E+00 kg/L
        Solvent mass                       1.8000E+01 g/mol
        Interaction kernel             P16
        Born radius scaling (c1)           1.4744E+00
        Born radii integrator          GBOBC
        Born offset                        0.0000E+00 a0       0.0000E+00 AA
        H-bond correction              true
        Ion screening                  false
        Surface tension                    1.0000E-05 Eh       1.5569E+01 dyn/cm
        Grid points                               974 per atom

          ...................................................
          :                      SETUP                      :
          :.................................................:
          :  # basis functions                  38          :
          :  # atomic orbitals                  38          :
          :  # shells                           24          :
          :  # electrons                        42          :
          :  max. iterations                   250          :
          :  Hamiltonian                  GFN2-xTB          :
          :  restarted?                      false          :
          :  GBSA solvation                   true          :
          :  PC potential                    false          :
          :  electronic temp.          300.0000000     K    :
          :  accuracy                    1.0000000          :
          :  -> integral cutoff          0.2500000E+02      :
          :  -> integral neglect         0.1000000E-07      :
          :  -> SCF convergence          0.1000000E-05 Eh   :
          :  -> wf. convergence          0.1000000E-03 e    :
          :  Broyden damping             0.4000000          :
          :  net charge                          0          :
          :  unpaired electrons                  0          :
          ...................................................

 iter      E             dE          RMSdq      gap      omega  full diag
   1    -24.1676684 -0.241677E+02  0.394E+00    5.46       0.0  T
   2    -24.2196037 -0.519353E-01  0.194E+00    4.67       1.0  T
   3    -24.2214564 -0.185263E-02  0.102E+00    4.99       1.0  T
   4    -24.2228813 -0.142495E-02  0.165E-01    4.75       1.0  T
   5    -24.2230387 -0.157422E-03  0.746E-02    4.79       1.0  T
   6    -24.2230408 -0.206285E-05  0.194E-02    4.79       1.2  T
   7    -24.2230418 -0.101417E-05  0.523E-03    4.79       4.6  T
   8    -24.2230418 -0.376788E-07  0.276E-03    4.79       8.8  T
   9    -24.2230419 -0.812423E-08  0.483E-04    4.79      50.2  T
  10    -24.2230419 -0.124473E-08  0.159E-04    4.79     152.2  T

   *** convergence criteria satisfied after 10 iterations ***

         #    Occupation            Energy/Eh            Energy/eV
      -------------------------------------------------------------
         1        2.0000           -0.7427476             -20.2112
       ...           ...                  ...                  ...
        15        2.0000           -0.4809656             -13.0877
        16        2.0000           -0.4735191             -12.8851
        17        2.0000           -0.4540034             -12.3541
        18        2.0000           -0.4441638             -12.0863
        19        2.0000           -0.4296669             -11.6918
        20        2.0000           -0.4258858             -11.5889
        21        2.0000           -0.4221379             -11.4870 (HOMO)
        22                         -0.2460862              -6.6963 (LUMO)
        23                          0.0625458               1.7020
        24                          0.0818177               2.2264
        25                          0.0938275               2.5532
        26                          0.1247474               3.3945
       ...                                ...                  ...
        38                          0.5701805              15.5154
      -------------------------------------------------------------
                  HL-Gap            0.1760516 Eh            4.7906 eV
             Fermi-level           -0.3341120 Eh           -9.0917 eV

 SCC (total)                   0 d,  0 h,  0 min,  0.026 sec
 SCC setup                      ...        0 min,  0.001 sec (  3.724%)
 Dispersion                     ...        0 min,  0.000 sec (  0.376%)
 classical contributions        ...        0 min,  0.000 sec (  0.148%)
 integral evaluation            ...        0 min,  0.001 sec (  4.708%)
 iterations                     ...        0 min,  0.020 sec ( 76.104%)
 molecular gradient             ...        0 min,  0.004 sec ( 14.260%)
 printout                       ...        0 min,  0.000 sec (  0.612%)

         :::::::::::::::::::::::::::::::::::::::::::::::::::::
         ::                     SUMMARY                     ::
         :::::::::::::::::::::::::::::::::::::::::::::::::::::
         :: total energy             -23.961747607622 Eh    ::
         :: total w/o Gsasa/hb       -23.956277463773 Eh    ::
         :: gradient norm              0.035682662439 Eh/a0 ::
         :: HOMO-LUMO gap              4.790609112239 eV    ::
         ::.................................................::
         :: SCC energy               -24.223027253545 Eh    ::
         :: -> isotropic ES            0.065859148391 Eh    ::
         :: -> anisotropic ES          0.002419005708 Eh    ::
         :: -> anisotropic XC          0.006456338026 Eh    ::
         :: -> dispersion             -0.009392415965 Eh    ::
         :: -> Gsolv                  -0.015258486568 Eh    ::
         ::    -> Gelec               -0.009788342719 Eh    ::
         ::    -> Gsasa                0.002617822303 Eh    ::
         ::    -> Ghb                 -0.009168725851 Eh    ::
         ::    -> Gshift               0.001080759698 Eh    ::
         :: repulsion energy           0.261279645923 Eh    ::
         :: add. restraining           0.000000000000 Eh    ::
         :: total charge              -0.000000000000 e     ::
         :::::::::::::::::::::::::::::::::::::::::::::::::::::

metadynamics with 1 initial structures loaded
           -------------------------------------------------
          |           Optimal kpush determination           |
           -------------------------------------------------
      ----------------------------------------------------------- 
     |                   =====================                   |
     |                        A N C O P T                        |
     |                   =====================                   |
     |               Approximate Normal Coordinate               |
     |                Rational Function Optimizer                |
      ----------------------------------------------------------- 
target rmsd / Å         0.100000
unbiased initial rmsd   0.321092
 
iter. min.        max.        rmsd       kpush
      ----------------------------------------------------------- 
     |                   =====================                   |
     |                        A N C O P T                        |
     |                   =====================                   |
     |               Approximate Normal Coordinate               |
     |                Rational Function Optimizer                |
      ----------------------------------------------------------- 
 1    0.000000    0.772727    0.010925   -0.386364
      ----------------------------------------------------------- 
     |                   =====================                   |
     |                        A N C O P T                        |
     |                   =====================                   |
     |               Approximate Normal Coordinate               |
     |                Rational Function Optimizer                |
      ----------------------------------------------------------- 
 2    0.000000    0.386364    0.013486   -0.193182
      ----------------------------------------------------------- 
     |                   =====================                   |
     |                        A N C O P T                        |
     |                   =====================                   |
     |               Approximate Normal Coordinate               |
     |                Rational Function Optimizer                |
      ----------------------------------------------------------- 
 3    0.000000    0.193182    0.016771   -0.096591
      ----------------------------------------------------------- 
     |                   =====================                   |
     |                        A N C O P T                        |
     |                   =====================                   |
     |               Approximate Normal Coordinate               |
     |                Rational Function Optimizer                |
      ----------------------------------------------------------- 
 4    0.000000    0.096591    0.021344   -0.048295
      ----------------------------------------------------------- 
     |                   =====================                   |
     |                        A N C O P T                        |
     |                   =====================                   |
     |               Approximate Normal Coordinate               |
     |                Rational Function Optimizer                |
      ----------------------------------------------------------- 
 5    0.000000    0.048295    0.027486   -0.024148
      ----------------------------------------------------------- 
     |                   =====================                   |
     |                        A N C O P T                        |
     |                   =====================                   |
     |               Approximate Normal Coordinate               |
     |                Rational Function Optimizer                |
      ----------------------------------------------------------- 
 6    0.000000    0.024148    0.034968   -0.012074
      ----------------------------------------------------------- 
     |                   =====================                   |
     |                        A N C O P T                        |
     |                   =====================                   |
     |               Approximate Normal Coordinate               |
     |                Rational Function Optimizer                |
      ----------------------------------------------------------- 
 7    0.000000    0.012074    0.043814   -0.006037
      ----------------------------------------------------------- 
     |                   =====================                   |
     |                        A N C O P T                        |
     |                   =====================                   |
     |               Approximate Normal Coordinate               |
     |                Rational Function Optimizer                |
      ----------------------------------------------------------- 
 8    0.000000    0.006037    0.057606   -0.003018
      ----------------------------------------------------------- 
     |                   =====================                   |
     |                        A N C O P T                        |
     |                   =====================                   |
     |               Approximate Normal Coordinate               |
     |                Rational Function Optimizer                |
      ----------------------------------------------------------- 
 9    0.000000    0.003018    0.108339   -0.001509
      ----------------------------------------------------------- 
     |                   =====================                   |
     |                        A N C O P T                        |
     |                   =====================                   |
     |               Approximate Normal Coordinate               |
     |                Rational Function Optimizer                |
      ----------------------------------------------------------- 
10    0.001509    0.003018    0.064187   -0.002264
final kpush: -0.002264
           -------------------------------------------------
          |            Biased Numerical Hessian             |
           -------------------------------------------------
kpush                :  -0.00226
alpha                :   1.00000
step length          :   0.00500
SCC accuracy         :   0.30000
Hessian scale factor :   1.00000
frozen atoms in %    :   0.00000    0
RMS gradient         :   0.00005
estimated CPU  time      0.01 min
estimated wall time      0.01 min

writing file <hessian>.

 projected vibrational frequencies (cm⁻¹)
eigval :       -0.00    -0.00    -0.00     0.00     0.00     0.00
eigval :      -23.80    64.73   109.10   167.31   234.81   281.02
eigval :      412.87   441.54   549.62   593.70   668.80   777.17
eigval :      819.95   907.82   931.63   953.73  1020.58  1066.78
eigval :     1104.38  1124.78  1135.26  1177.96  1242.28  1253.83
eigval :     1265.58  1278.12  1346.84  1351.26  1410.96  1433.75
eigval :     1482.09  1488.65  1498.94  1506.00  1698.00  2966.84
eigval :     2968.61  2976.07  2986.11  2996.92  3004.96  3031.38
eigval :     3034.63  3045.84  3341.39
           -------------------------------------------------
          |                Property Printout                |
           -------------------------------------------------

    * Orbital Energies and Occupations

         #    Occupation            Energy/Eh            Energy/eV
      -------------------------------------------------------------
         1        2.0000           -0.7457682             -20.2934
       ...           ...                  ...                  ...
         9        2.0000           -0.5610587             -15.2672
        10        2.0000           -0.5464448             -14.8695
        11        2.0000           -0.5119969             -13.9321
        12        2.0000           -0.5056268             -13.7588
        13        2.0000           -0.4899521             -13.3323
        14        2.0000           -0.4833545             -13.1527
        15        2.0000           -0.4803776             -13.0717
        16        2.0000           -0.4721695             -12.8484
        17        2.0000           -0.4541131             -12.3570
        18        2.0000           -0.4431308             -12.0582
        19        2.0000           -0.4288798             -11.6704
        20        2.0000           -0.4261518             -11.5962
        21        2.0000           -0.4195050             -11.4153 (HOMO)
        22                         -0.2379292              -6.4744 (LUMO)
        23                          0.0614888               1.6732
        24                          0.0875886               2.3834
        25                          0.1011853               2.7534
        26                          0.1297599               3.5309
        27                          0.1418813               3.8608
        28                          0.1471910               4.0053
        29                          0.1638547               4.4587
        30                          0.1935243               5.2661
        31                          0.2075352               5.6473
        32                          0.2220281               6.0417
       ...                                ...                  ...
        38                          0.6000654              16.3286
      -------------------------------------------------------------
                  HL-Gap            0.1815758 Eh            4.9409 eV
             Fermi-level           -0.3287171 Eh           -8.9448 eV

     #   Z          covCN         q      C6AA      α(0)
     1   6 C        3.751    -0.115    22.769     6.805
     2   6 C        3.801    -0.061    21.675     6.629
     3   6 C        3.802    -0.061    21.664     6.627
     4   6 C        3.804    -0.096    22.338     6.729
     5   6 C        2.689     0.370    20.726     7.451
     6   8 O        0.856    -0.502    23.832     6.545
     7   8 O        1.659    -0.410    21.044     6.193
     8   1 H        0.925     0.040     2.455     2.450
     9   1 H        0.925     0.042     2.426     2.436
    10   1 H        0.925     0.040     2.445     2.445
    11   1 H        0.924     0.041     2.433     2.439
    12   1 H        0.924     0.038     2.481     2.463
    13   1 H        0.924     0.039     2.463     2.454
    14   1 H        0.924     0.057     2.229     2.335
    15   1 H        0.924     0.071     2.071     2.250
    16   1 H        0.924     0.092     1.856     2.130
    17   1 H        0.803     0.415     0.458     1.063

 Mol. C6AA /au·bohr⁶  :       2215.219489
 Mol. C8AA /au·bohr⁸  :      47340.105210
 Mol. α(0) /au        :         69.443519


Wiberg/Mayer (AO) data.
largest (>0.10) Wiberg bond orders for each atom

 ---------------------------------------------------------------------------
     #   Z sym  total        # sym  WBO       # sym  WBO       # sym  WBO
 ---------------------------------------------------------------------------
     1   6 C    3.996 --     2 C    1.020     9 H    0.987    10 H    0.987
                             8 H    0.986
     2   6 C    3.997 --     1 C    1.020     3 C    1.007    12 H    0.978
                            11 H    0.977
     3   6 C    3.992 --     2 C    1.007     4 C    0.995    13 H    0.978
                            14 H    0.975
     4   6 C    3.990 --     3 C    0.995     5 C    0.989    15 H    0.969
                            16 H    0.935
     5   6 C    3.903 --     6 O    1.691     7 O    1.184     4 C    0.989
     6   8 O    1.958 --     5 C    1.691     7 O    0.171
     7   8 O    2.191 --     5 C    1.184    17 H    0.803     6 O    0.171
     8   1 H    0.998 --     1 C    0.986
     9   1 H    0.998 --     1 C    0.987
    10   1 H    0.998 --     1 C    0.987
    11   1 H    0.998 --     2 C    0.977
    12   1 H    0.999 --     2 C    0.978
    13   1 H    0.998 --     3 C    0.978
    14   1 H    0.997 --     3 C    0.975
    15   1 H    0.995 --     4 C    0.969
    16   1 H    0.991 --     4 C    0.935
    17   1 H    0.828 --     7 O    0.803
 ---------------------------------------------------------------------------

Topologies differ in total number of bonds
Writing topology from bond orders to xtbtopo.mol

molecular dipole:
                 x           y           z       tot (Debye)
 q only:       -0.633       0.517       0.862
   full:       -0.521       0.507       0.872       2.885
molecular quadrupole (traceless):
                xx          xy          yy          xz          yz          zz
 q only:        1.681       5.123      -0.188       7.712      -1.642      -1.493
  q+dip:        1.833       5.712      -0.291       8.768      -2.449      -1.542
   full:        1.812       5.711       0.093       8.718      -2.845      -1.905

           -------------------------------------------------
          |                Geometry Summary                 |
           -------------------------------------------------

      molecular mass/u    :      102.1318968
   center of mass at/Å    :       -0.0010194       0.0066910      -0.0034118
  moments of inertia/u·Å² :        0.7933309E+02   0.4263783E+03   0.4499218E+03
rotational constants/cm⁻¹ :        0.2124918E+00   0.3953680E-01   0.3746791E-01

 * 15 selected distances

     #   Z          #   Z                                           value/Å
     1   6 C        2   6 C                                       1.5246379
     2   6 C        3   6 C                                       1.5285099
     3   6 C        4   6 C                                       1.5309553 (max)
     5   6 C        6   8 O                                       1.2149037
     5   6 C        7   8 O                                       1.3224798
     1   6 C        8   1 H                                       1.0866468
     1   6 C        9   1 H                                       1.0874497
     1   6 C       10   1 H                                       1.0871575
     2   6 C       11   1 H                                       1.0917125
     2   6 C       12   1 H                                       1.0918950
     3   6 C       13   1 H                                       1.0920606
     3   6 C       14   1 H                                       1.0906934
     4   6 C       15   1 H                                       1.0906057
     4   6 C       16   1 H                                       1.0921775
     7   8 O       17   1 H                                       0.9767063 (min)

 * 4 distinct bonds (by element types)

   Z      Z             #   av. dist./Å        max./Å        min./Å
   1 H    6 C           9     1.0900443     1.0921775     1.0866468
   6 C    6 C           3     1.5280344     1.5309553     1.5246379
   1 H    8 O           1     0.9767063     0.9767063     0.9767063
   6 C    8 O           2     1.2686917     1.3224798     1.2149037

           -------------------------------------------------
          |               Frequency Printout                |
           -------------------------------------------------
 projected vibrational frequencies (cm⁻¹)
eigval :       -0.00    -0.00    -0.00     0.00     0.00     0.00
eigval :      -23.80    64.73   109.10   167.31   234.81   281.02
eigval :      412.87   441.54   549.62   593.70   668.80   777.17
eigval :      819.95   907.82   931.63   953.73  1020.58  1066.78
eigval :     1104.38  1124.78  1135.26  1177.96  1242.28  1253.83
eigval :     1265.58  1278.12  1346.84  1351.26  1410.96  1433.75
eigval :     1482.09  1488.65  1498.94  1506.00  1698.00  2966.84
eigval :     2968.61  2976.07  2986.11  2996.92  3004.96  3031.38
eigval :     3034.63  3045.84  3341.39
 reduced masses (amu)
   1: 13.06   2: 10.78   3: 12.01   4: 12.12   5: 11.87   6: 11.37   7: 11.77   8: 10.11
   9:  7.24  10:  9.06  11:  5.95  12:  6.95  13:  9.94  14:  9.39  15:  8.43  16:  8.34
  17:  7.76  18:  3.25  19:  3.38  20: 10.03  21:  7.62  22:  5.01  23:  5.88  24:  5.48
  25:  7.17  26:  7.20  27:  6.95  28:  5.70  29:  3.96  30: 10.25  31:  2.81  32:  3.34
  33:  4.39  34:  5.08  35:  3.20  36:  1.96  37:  1.88  38:  1.89  39:  1.62  40:  1.54
  41: 13.27  42:  1.83  43:  1.92  44:  1.80  45:  1.55  46:  1.60  47:  1.71  48:  1.91
  49:  1.91  50:  1.33  51:  1.85
 IR intensities (km·mol⁻¹)
   1:  0.60   2:  0.86   3:  0.24   4:  0.58   5:  1.42   6:  0.31   7:  2.56   8:  1.38
   9:  0.17  10:  0.26  11:  0.17  12:  0.33  13:  6.20  14:  2.51  15: 69.19  16:117.30
  17:187.58  18: 25.99  19: 10.62  20:  6.16  21:  1.98  22:  4.96  23:  4.50  24:165.83
  25:101.70  26: 34.48  27: 27.68  28: 11.20  29: 13.02  30:311.50  31: 22.09  32:  8.11
  33:  6.38  34:  3.85  35:  2.77  36:  6.37  37:  1.77  38:  0.51  39:  1.30  40:  1.10
  41:787.71  42: 19.18  43: 48.29  44: 34.12  45: 94.47  46:  9.05  47: 74.46  48: 79.98
  49: 80.21  50: 41.36  51:191.21
 Raman intensities (Ä⁴*amu⁻¹)
   1:  0.00   2:  0.00   3:  0.00   4:  0.00   5:  0.00   6:  0.00   7:  0.00   8:  0.00
   9:  0.00  10:  0.00  11:  0.00  12:  0.00  13:  0.00  14:  0.00  15:  0.00  16:  0.00
  17:  0.00  18:  0.00  19:  0.00  20:  0.00  21:  0.00  22:  0.00  23:  0.00  24:  0.00
  25:  0.00  26:  0.00  27:  0.00  28:  0.00  29:  0.00  30:  0.00  31:  0.00  32:  0.00
  33:  0.00  34:  0.00  35:  0.00  36:  0.00  37:  0.00  38:  0.00  39:  0.00  40:  0.00
  41:  0.00  42:  0.00  43:  0.00  44:  0.00  45:  0.00  46:  0.00  47:  0.00  48:  0.00
  49:  0.00  50:  0.00  51:  0.00
 output can be read by thermo (or use thermo option).
 writing <g98.out> molden fake output.
 recommended (thermochemical) frequency scaling factor: 1.0
           -------------------------------------------------
          |             Thermodynamic Functions             |
           -------------------------------------------------

Molecule has no symmetry elements
It seems to be the C1 point group
c1  symmetry found (for desy threshold:  0.10E+00) used in thermo
 inverting freq            1   23.8003873851762     

          ...................................................
          :                      SETUP                      :
          :.................................................:
          :  # frequencies                          45      :
          :  # imaginary freq.                       0      :
          :  linear?                             false      :
          :  only rotor calc.                    false      :
          :  symmetry                               c1      :
          :  rotational number                       1      :
          :  scaling factor                  1.0000000      :
          :  rotor cutoff                    0.0000000 cm⁻¹ :
          :  imag. cutoff                 -100.0000000 cm⁻¹ :
          :.................................................:

    mode    ω/cm⁻¹     T·S(HO)/kcal·mol⁻¹    T·S(FR)/kcal·mol⁻¹   T·S(vib)
   ------------------------------------------------------------------------
       1     23.80    -1.87501 (100.00%)    -1.27580 (  0.00%)    -1.87501
       2     64.73    -1.28433 (100.00%)    -0.97984 (  0.00%)    -1.28433
       3    109.10    -0.97936 (100.00%)    -0.82525 (  0.00%)    -0.97936
       4    167.31    -0.73510 (100.00%)    -0.69865 (  0.00%)    -0.73510
       5    234.81    -0.54916 (100.00%)    -0.59827 (  0.00%)    -0.54916
       6    281.02    -0.45541 (100.00%)    -0.54506 (  0.00%)    -0.45541
   ------------------------------------------------------------------------

   temp. (K)  partition function   enthalpy   heat capacity  entropy
                                   cal/mol     cal/K/mol   cal/K/mol   J/K/mol
 298.15  VIB   532.                 3505.008     23.001     24.230
         ROT  0.298E+06              888.752      2.981     28.030
         INT  0.159E+09             4393.761     25.982     52.260
         TR   0.999E+27             1481.254      4.968     39.763
         TOT                        5875.0147    30.9505    92.0227   385.0228

       T/K    H(0)-H(T)+PV         H(T)/Eh          T*S/Eh         G(T)/Eh
   ------------------------------------------------------------------------
    298.15    0.936243E-02    0.153289E+00    0.437229E-01    0.109566E+00
   ------------------------------------------------------------------------

         :::::::::::::::::::::::::::::::::::::::::::::::::::::
         ::                  THERMODYNAMIC                  ::
         :::::::::::::::::::::::::::::::::::::::::::::::::::::
         :: total free energy         -23.856014938043 Eh   ::
         ::.................................................::
         :: total energy              -23.965580797396 Eh   ::
         :: zero point energy           0.143926364015 Eh   ::
         :: G(RRHO) w/o ZPVE           -0.034360504662 Eh   ::
         :: G(RRHO) contrib.            0.109565859353 Eh   ::
         :::::::::::::::::::::::::::::::::::::::::::::::::::::
imag cut-off (cm-1) :    5.00
 found            1  significant imaginary frequency
 writing imag mode distorted coords to xtbhess.coord
 for further optimization.

optimized geometry written to: xtbopt.coord


           -------------------------------------------------
          | TOTAL ENERGY              -23.965580797396 Eh   |
          | TOTAL ENTHALPY            -23.812292001465 Eh   |
          | TOTAL FREE ENERGY         -23.856014938043 Eh   |
          | GRADIENT NORM               0.000048965823 Eh/α |
          | HOMO-LUMO GAP               4.940928810579 eV   |
           -------------------------------------------------

------------------------------------------------------------------------
 * finished run on 2025/04/11 at 16:20:44.479     
------------------------------------------------------------------------
 total:
 * wall-time:     0 d,  0 h,  0 min,  2.744 sec
 *  cpu-time:     0 d,  0 h,  0 min,  2.503 sec
 * ratio c/w:     0.912 speedup
 SCF:
 * wall-time:     0 d,  0 h,  0 min,  0.027 sec
 *  cpu-time:     0 d,  0 h,  0 min,  0.012 sec
 * ratio c/w:     0.457 speedup
 analytical hessian:
 * wall-time:     0 d,  0 h,  0 min,  0.691 sec
 *  cpu-time:     0 d,  0 h,  0 min,  0.683 sec
 * ratio c/w:     0.988 speedup

