 Entering Gaussian System
 *********************************************
 Gaussian 98:
 frequency output generated by the xtb code
 *********************************************
                         Standard orientation:
 --------------------------------------------------------------------
  Center     Atomic     Atomic              Coordinates (Angstroms)
  Number     Number      Type              X           Y           Z
 --------------------------------------------------------------------
    1          6             0       -3.195562   -0.677293    1.207796
    2          6             0       -3.483886    0.037592   -0.106136
    3          6             0       -2.443957   -0.293167   -1.185612
    4          6             0       -1.076562    0.200522   -0.805653
    5          6             0       -0.766029    1.548385   -0.893594
    6          6             0        0.479644    2.015191   -0.511406
    7          6             0        1.438134    1.137929   -0.034811
    8          6             0        1.136071   -0.229820    0.055286
    9          6             0       -0.113529   -0.683004   -0.327959
   10          8             0        2.159377   -1.017738    0.537245
   11          6             0        1.939680   -2.408658    0.646506
   12          8             0        2.662991    1.609384    0.337949
   13          1             0       -3.197856   -1.755482    1.063901
   14          1             0       -2.222583   -0.381453    1.593910
   15          1             0       -3.950662   -0.428154    1.949295
   16          1             0       -3.491313    1.115882    0.063399
   17          1             0       -4.471909   -0.253458   -0.468282
   18          1             0       -2.749820    0.177742   -2.121981
   19          1             0       -2.419757   -1.373256   -1.338453
   20          1             0       -1.500982    2.245102   -1.266487
   21          1             0        0.730802    3.061756   -0.576893
   22          1             0       -0.355273   -1.731870   -0.260350
   23          1             0        1.124159   -2.625339    1.341248
   24          1             0        2.870307   -2.815940    1.035373
   25          1             0        1.723375   -2.850702   -0.329434
   26          1             0        3.204995    0.862910    0.639760
 --------------------------------------------------------------------
     1 basis functions        1 primitive gaussians
     1 alpha electrons        1 beta electrons
 
 Harmonic frequencies (cm**-1), IR intensities (km*mol⁻¹),
 Raman scattering activities (A**4/amu), Raman depolarization ratios,
 reduced masses (AMU), force constants (mDyne/A) and normal coordinates:
                      1                      2                      3
                        a                      a                      a 
 Frequencies --    33.2852                66.3332                81.2741
 Red. masses --     9.2901                10.2559                 9.8975
 Frc consts  --     0.0000                 0.0000                 0.0000
 IR Inten    --     0.8587                 0.0414                 3.6205
 Raman Activ --     0.0000                 0.0000                 0.0000
 Depolar     --     0.0000                 0.0000                 0.0000
 Atom AN      X      Y      Z        X      Y      Z        X      Y      Z
   1   6     0.19  -0.53  -0.07     0.58   0.23   0.15     0.08   0.10  -0.02
   2   6     0.09  -0.09   0.19     0.14  -0.06   0.09    -0.03  -0.07  -0.09
   3   6    -0.04   0.22  -0.03    -0.04  -0.02  -0.09     0.02  -0.02  -0.05
   4   6    -0.01   0.15  -0.06    -0.01  -0.02  -0.20    -0.00   0.00   0.00
   5   6     0.08   0.12  -0.12    -0.01  -0.02  -0.18    -0.10   0.04   0.27
   6   6     0.11   0.06  -0.13    -0.05  -0.02  -0.04    -0.09   0.04   0.25
   7   6     0.04   0.02  -0.08    -0.10  -0.01   0.07     0.00  -0.01  -0.01
   8   6    -0.05   0.04  -0.00    -0.08  -0.02  -0.03     0.07  -0.03  -0.21
   9   6    -0.07   0.11  -0.01    -0.03  -0.03  -0.17     0.07  -0.03  -0.21
  10   8    -0.14   0.00   0.09    -0.14  -0.03   0.06     0.15  -0.07  -0.42
  11   6    -0.26   0.04   0.25    -0.11  -0.04  -0.06    -0.17   0.05   0.45
  12   8     0.09  -0.05  -0.11    -0.21   0.01   0.33     0.02  -0.02  -0.05
  13   1     0.04  -0.14  -0.12     0.24   0.06   0.09     0.08   0.02   0.02
  14   1     0.07  -0.20  -0.02     0.17   0.16  -0.02     0.01   0.09  -0.01
  15   1     0.08  -0.22   0.02     0.19   0.04   0.07     0.01   0.01  -0.01
  16   1     0.04  -0.04   0.16    -0.01  -0.01  -0.03    -0.06  -0.02  -0.05
  17   1     0.01   0.02   0.06     0.03  -0.09   0.10     0.00  -0.07  -0.02
  18   1    -0.05   0.13   0.04    -0.05   0.00  -0.01     0.01  -0.01  -0.02
  19   1    -0.01   0.07  -0.09    -0.01  -0.00  -0.04     0.02  -0.01  -0.02
  20   1     0.04   0.05  -0.04     0.00  -0.01  -0.06    -0.05   0.02   0.14
  21   1     0.05   0.01  -0.05    -0.02  -0.00   0.00    -0.05   0.02   0.13
  22   1    -0.04   0.04   0.01    -0.01  -0.01  -0.06     0.04  -0.02  -0.11
  23   1    -0.09   0.06   0.07    -0.05  -0.03  -0.05    -0.07   0.19   0.16
  24   1    -0.09  -0.00   0.10    -0.04  -0.01   0.00    -0.08   0.02   0.20
  25   1    -0.08  -0.02   0.09     0.00   0.01  -0.03    -0.07  -0.14   0.20
  26   1     0.00  -0.02  -0.01    -0.06   0.00   0.10     0.02  -0.01  -0.05
                      4                      5                      6
                        a                      a                      a 
 Frequencies --   112.7175               168.7957               190.7114
 Red. masses --     8.6857                 9.9463                 8.9863
 Frc consts  --     0.0000                 0.0000                 0.0000
 IR Inten    --     0.7081                 1.4412                 0.8142
 Raman Activ --     0.0000                 0.0000                 0.0000
 Depolar     --     0.0000                 0.0000                 0.0000
 Atom AN      X      Y      Z        X      Y      Z        X      Y      Z
   1   6    -0.18  -0.10   0.04    -0.18  -0.02   0.12     0.09   0.01  -0.09
   2   6     0.16   0.33   0.20    -0.14  -0.20   0.01    -0.12   0.09   0.00
   3   6    -0.05  -0.01   0.09     0.03  -0.03   0.12    -0.15   0.26  -0.09
   4   6     0.04  -0.11  -0.14     0.01   0.08   0.08    -0.09   0.02   0.02
   5   6     0.01  -0.10  -0.17     0.15   0.02  -0.26     0.00  -0.01  -0.05
   6   6    -0.04  -0.05  -0.09     0.16   0.01  -0.23     0.00  -0.03  -0.03
   7   6    -0.05  -0.01   0.01     0.07   0.04   0.02    -0.09  -0.10   0.01
   8   6     0.05  -0.04  -0.15     0.06   0.04  -0.03    -0.13  -0.09   0.01
   9   6     0.08  -0.10  -0.20    -0.01   0.10   0.16    -0.17  -0.07   0.08
  10   8     0.11   0.01  -0.19     0.13  -0.09  -0.38     0.08   0.13  -0.12
  11   6     0.09   0.04   0.12    -0.16  -0.01  -0.04     0.52   0.07   0.18
  12   8    -0.19   0.08   0.34    -0.03   0.09   0.37    -0.06  -0.30   0.08
  13   1    -0.29  -0.02  -0.04     0.11  -0.01   0.05     0.18   0.01  -0.08
  14   1     0.03  -0.26  -0.02    -0.12   0.13   0.11    -0.02   0.11   0.01
  15   1     0.04   0.10   0.06    -0.15  -0.10  -0.03    -0.03  -0.14  -0.03
  16   1     0.22   0.09   0.12    -0.13  -0.05  -0.02    -0.06   0.02   0.03
  17   1    -0.00   0.28   0.06    -0.01  -0.14  -0.03    -0.03   0.00   0.01
  18   1    -0.03  -0.03   0.02     0.00  -0.02   0.03    -0.03   0.15   0.01
  19   1    -0.07  -0.01   0.07     0.05  -0.01   0.03    -0.08   0.08  -0.10
  20   1    -0.00  -0.04  -0.06     0.07   0.00  -0.13     0.01  -0.00  -0.04
  21   1    -0.03  -0.01  -0.01     0.06  -0.00  -0.10     0.02  -0.01  -0.02
  22   1     0.04  -0.03  -0.07    -0.02   0.04   0.09    -0.06  -0.02   0.04
  23   1     0.02   0.05   0.04     0.05   0.08   0.13     0.25  -0.02   0.16
  24   1     0.02   0.03   0.07    -0.01  -0.06  -0.15     0.23   0.12  -0.05
  25   1     0.04  -0.05   0.06    -0.23  -0.03   0.04     0.06  -0.04   0.10
  26   1    -0.04   0.03   0.10    -0.02   0.02   0.11    -0.05  -0.11   0.01
                      7                      8                      9
                        a                      a                      a 
 Frequencies --   204.6128               242.7543               262.1894
 Red. masses --     5.1471                 5.0119                 7.4990
 Frc consts  --     0.0000                 0.0000                 0.0000
 IR Inten    --     0.1626                 0.2407                 1.4280
 Raman Activ --     0.0000                 0.0000                 0.0000
 Depolar     --     0.0000                 0.0000                 0.0000
 Atom AN      X      Y      Z        X      Y      Z        X      Y      Z
   1   6     0.21   0.01  -0.15    -0.01   0.03   0.08     0.15   0.00  -0.15
   2   6     0.14   0.09  -0.09    -0.16  -0.28  -0.06    -0.02   0.09  -0.06
   3   6     0.05  -0.06  -0.10    -0.01  -0.03  -0.01    -0.01   0.07  -0.03
   4   6    -0.00  -0.05   0.03    -0.06   0.13   0.02    -0.04  -0.04   0.19
   5   6    -0.04  -0.05  -0.00     0.05   0.11  -0.02     0.01  -0.07  -0.08
   6   6    -0.11  -0.00   0.12     0.10   0.06  -0.05    -0.03  -0.05  -0.02
   7   6    -0.07   0.02   0.10     0.03   0.01  -0.01    -0.05  -0.01   0.10
   8   6    -0.05   0.02   0.17    -0.06   0.03  -0.04    -0.01  -0.02   0.15
   9   6    -0.08   0.01   0.29    -0.07   0.09  -0.00    -0.12   0.01   0.42
  10   8     0.04  -0.06  -0.15    -0.02   0.10  -0.07     0.15  -0.12  -0.32
  11   6    -0.11  -0.02  -0.01     0.10   0.08   0.02     0.00  -0.07  -0.04
  12   8    -0.03   0.09  -0.13     0.10  -0.27   0.13    -0.08   0.17  -0.04
  13   1    -0.14   0.00  -0.02    -0.40  -0.01   0.19     0.01   0.00  -0.06
  14   1     0.15  -0.15  -0.16     0.18  -0.25  -0.23     0.07  -0.03  -0.09
  15   1     0.18   0.14   0.04     0.24   0.38   0.15     0.09   0.00   0.01
  16   1     0.10   0.03  -0.02    -0.14  -0.08  -0.06     0.01   0.02  -0.01
  17   1     0.02   0.08   0.00    -0.02  -0.18  -0.02    -0.01   0.03  -0.00
  18   1     0.04  -0.02  -0.04    -0.02  -0.01   0.00     0.04   0.05  -0.01
  19   1     0.00  -0.02  -0.01     0.06  -0.01  -0.02    -0.03   0.02  -0.03
  20   1    -0.00  -0.03  -0.04     0.03   0.05  -0.01     0.03  -0.04  -0.10
  21   1    -0.03   0.00   0.03     0.04   0.01  -0.02     0.01  -0.02  -0.05
  22   1    -0.04   0.01   0.13    -0.03   0.03  -0.01    -0.04   0.00   0.14
  23   1     0.21   0.03   0.29    -0.00   0.01  -0.04    -0.23   0.04  -0.27
  24   1     0.09  -0.08  -0.36     0.02   0.06   0.07    -0.13   0.02   0.35
  25   1    -0.42   0.03   0.07     0.10  -0.01   0.00     0.33  -0.11  -0.04
  26   1     0.02   0.03  -0.05    -0.03  -0.11   0.03     0.02   0.07  -0.02
                     10                     11                     12
                        a                      a                      a 
 Frequencies --   294.6129               335.7009               363.9847
 Red. masses --    10.5980                10.2245                 8.7947
 Frc consts  --     0.0000                 0.0000                 0.0000
 IR Inten    --     5.1308                 1.0751                 2.3535
 Raman Activ --     0.0000                 0.0000                 0.0000
 Depolar     --     0.0000                 0.0000                 0.0000
 Atom AN      X      Y      Z        X      Y      Z        X      Y      Z
   1   6     0.02   0.02  -0.03    -0.17   0.01   0.25     0.10  -0.03  -0.14
   2   6    -0.24  -0.05  -0.01     0.17  -0.15   0.07     0.09   0.08  -0.06
   3   6    -0.12   0.27  -0.01     0.08   0.02  -0.12     0.14  -0.27   0.16
   4   6    -0.03   0.01   0.09     0.07   0.14  -0.31    -0.07   0.28   0.11
   5   6    -0.01  -0.00   0.11     0.08   0.15  -0.29    -0.13   0.30   0.12
   6   6     0.07  -0.12  -0.13    -0.07   0.07   0.28     0.05   0.07  -0.16
   7   6     0.10  -0.08  -0.10    -0.10  -0.02   0.21    -0.03  -0.04  -0.16
   8   6     0.14  -0.11  -0.06    -0.07  -0.05   0.12    -0.04  -0.04  -0.06
   9   6     0.08  -0.03  -0.13    -0.08   0.12  -0.02    -0.11   0.20   0.00
  10   8     0.01  -0.24   0.17    -0.07  -0.20  -0.07    -0.16  -0.19  -0.02
  11   6     0.12  -0.26   0.09     0.18  -0.22   0.09     0.18  -0.23   0.09
  12   8    -0.14   0.50  -0.02    -0.04   0.14  -0.22    -0.13   0.01   0.05
  13   1    -0.08   0.00   0.03    -0.07  -0.01   0.14     0.06  -0.00  -0.09
  14   1     0.06  -0.05  -0.12    -0.08  -0.00   0.15     0.02   0.00  -0.03
  15   1     0.10   0.08   0.06    -0.11   0.07  -0.01     0.02  -0.07  -0.03
  16   1    -0.17  -0.02   0.00     0.04  -0.04   0.01     0.09   0.02  -0.03
  17   1    -0.04  -0.10  -0.01     0.05  -0.04   0.01     0.01   0.07  -0.01
  18   1    -0.01   0.18   0.04    -0.06   0.03   0.00     0.04  -0.30  -0.06
  19   1    -0.06   0.09  -0.12     0.05   0.01  -0.07     0.14  -0.11   0.26
  20   1    -0.01   0.01   0.08     0.06   0.05  -0.15    -0.04   0.11   0.07
  21   1     0.04  -0.04  -0.04     0.01   0.02   0.14     0.07   0.01  -0.05
  22   1     0.03  -0.01  -0.05    -0.05   0.04  -0.01    -0.06   0.06  -0.00
  23   1     0.09  -0.11   0.08     0.06  -0.09   0.03     0.08  -0.12   0.04
  24   1     0.07  -0.06  -0.05     0.08   0.01   0.06     0.09   0.03   0.03
  25   1    -0.02  -0.06   0.03     0.09  -0.12   0.04     0.08  -0.11   0.04
  26   1     0.05   0.22   0.06     0.06   0.06  -0.12    -0.05   0.01   0.07
                     13                     14                     15
                        a                      a                      a 
 Frequencies --   404.7340               420.6625               436.6296
 Red. masses --     9.2482                 3.5717                 9.2662
 Frc consts  --     0.0000                 0.0000                 0.0000
 IR Inten    --     7.9273               165.1049                40.5599
 Raman Activ --     0.0000                 0.0000                 0.0000
 Depolar     --     0.0000                 0.0000                 0.0000
 Atom AN      X      Y      Z        X      Y      Z        X      Y      Z
   1   6     0.08  -0.03  -0.17     0.01  -0.00  -0.01    -0.00  -0.00   0.00
   2   6    -0.36   0.12   0.04    -0.06   0.01   0.01     0.00  -0.01   0.00
   3   6    -0.29  -0.17   0.16    -0.08  -0.04  -0.01    -0.02  -0.01  -0.03
   4   6    -0.15  -0.04  -0.15    -0.03  -0.03  -0.10     0.01  -0.02  -0.09
   5   6     0.10  -0.08  -0.20     0.04  -0.04  -0.09     0.04  -0.03  -0.10
   6   6     0.02  -0.06   0.17    -0.06   0.00   0.22    -0.08   0.03   0.25
   7   6     0.14   0.10   0.25     0.10   0.01  -0.08     0.18  -0.05  -0.44
   8   6     0.02   0.10   0.04     0.05   0.01  -0.15     0.15  -0.05  -0.43
   9   6     0.04   0.12  -0.15    -0.05   0.05   0.10    -0.11   0.05   0.30
  10   8    -0.06  -0.03  -0.00    -0.03  -0.00   0.00    -0.07   0.02   0.14
  11   6     0.04  -0.04   0.03     0.02  -0.01  -0.00     0.00  -0.00   0.01
  12   8     0.31   0.09   0.02     0.17   0.01  -0.18    -0.05   0.05   0.24
  13   1     0.07   0.00  -0.13     0.01  -0.00  -0.01    -0.00  -0.00   0.00
  14   1     0.05   0.02  -0.14     0.00   0.00  -0.02    -0.00   0.00   0.00
  15   1     0.10  -0.11   0.06     0.01  -0.02   0.01    -0.00   0.00  -0.00
  16   1    -0.10   0.03   0.00    -0.01   0.00   0.00     0.00  -0.00   0.00
  17   1    -0.11   0.02   0.04    -0.02   0.01   0.01    -0.00   0.00   0.00
  18   1    -0.08  -0.20  -0.03    -0.03  -0.03  -0.01    -0.01   0.00  -0.00
  19   1    -0.07  -0.07   0.22    -0.03  -0.01   0.02    -0.01  -0.00  -0.01
  20   1     0.08   0.01  -0.10     0.02  -0.00  -0.02    -0.00   0.00   0.01
  21   1    -0.03  -0.01   0.05    -0.06   0.02   0.14    -0.10   0.04   0.26
  22   1     0.06   0.02  -0.04    -0.02   0.02   0.10    -0.10   0.04   0.29
  23   1     0.03  -0.03   0.02     0.00  -0.01  -0.01    -0.00  -0.03  -0.01
  24   1     0.03   0.02   0.00     0.01   0.01   0.01     0.00   0.01   0.01
  25   1     0.01  -0.03   0.01     0.02  -0.00  -0.00     0.02   0.02  -0.01
  26   1     0.15  -0.01  -0.20    -0.27   0.12   0.81     0.11  -0.04  -0.29
                     16                     17                     18
                        a                      a                      a 
 Frequencies --   464.8196               529.3584               534.1816
 Red. masses --    11.1767                10.5798                11.8097
 Frc consts  --     0.0000                 0.0000                 0.0000
 IR Inten    --     1.0225                 2.8626                27.4275
 Raman Activ --     0.0000                 0.0000                 0.0000
 Depolar     --     0.0000                 0.0000                 0.0000
 Atom AN      X      Y      Z        X      Y      Z        X      Y      Z
   1   6    -0.03   0.01   0.11    -0.01  -0.01   0.03     0.01  -0.01  -0.03
   2   6     0.18  -0.06  -0.01     0.00  -0.02   0.01     0.02  -0.00  -0.02
   3   6    -0.15  -0.12  -0.30    -0.16  -0.12  -0.14     0.14  -0.00   0.13
   4   6    -0.18  -0.13  -0.09    -0.13   0.14  -0.25     0.07  -0.02   0.12
   5   6    -0.07  -0.13   0.29    -0.03   0.16   0.11     0.37  -0.08   0.06
   6   6     0.11  -0.10  -0.16     0.17  -0.32   0.03     0.27  -0.00   0.14
   7   6     0.26   0.12  -0.03     0.10  -0.34  -0.01     0.02  -0.15   0.08
   8   6    -0.14   0.18   0.06    -0.01  -0.22   0.15    -0.28  -0.10  -0.15
   9   6    -0.12   0.07   0.07    -0.18   0.13   0.00    -0.19  -0.32  -0.06
  10   8    -0.29  -0.01  -0.18     0.36   0.13   0.06    -0.37   0.18  -0.13
  11   6     0.06  -0.05   0.02    -0.03   0.24  -0.05    -0.01   0.20  -0.03
  12   8     0.31   0.16   0.18    -0.10   0.09  -0.01    -0.11   0.23  -0.09
  13   1    -0.01  -0.00   0.07     0.01  -0.00   0.02    -0.00  -0.00  -0.01
  14   1    -0.04   0.01   0.10    -0.01   0.01   0.02     0.01  -0.01  -0.01
  15   1    -0.07   0.04  -0.04    -0.02  -0.00  -0.00     0.01  -0.00  -0.00
  16   1     0.17  -0.02  -0.00     0.06  -0.00  -0.00    -0.03  -0.00  -0.01
  17   1     0.00   0.09   0.06    -0.03   0.04   0.05     0.03  -0.03  -0.03
  18   1    -0.07   0.05  -0.04    -0.11  -0.11  -0.05     0.05  -0.06   0.00
  19   1    -0.06  -0.02  -0.16     0.00  -0.04   0.03     0.07  -0.01   0.09
  20   1    -0.01   0.00   0.13     0.05   0.14   0.09     0.12  -0.02  -0.00
  21   1    -0.03  -0.02  -0.12     0.13  -0.11   0.05     0.11  -0.01   0.05
  22   1     0.04   0.00   0.03    -0.13   0.05  -0.01    -0.06  -0.09  -0.03
  23   1     0.04  -0.06   0.02    -0.06   0.15  -0.05     0.02   0.01   0.01
  24   1     0.06   0.09   0.02    -0.07  -0.07  -0.01     0.03   0.13  -0.01
  25   1     0.06  -0.08   0.03    -0.05   0.13  -0.04     0.02   0.02   0.01
  26   1     0.08   0.03   0.01     0.08   0.11   0.02     0.08   0.14   0.00
                     19                     20                     21
                        a                      a                      a 
 Frequencies --   605.1077               669.8657               701.8180
 Red. masses --    10.5915                11.5483                10.4269
 Frc consts  --     0.0000                 0.0000                 0.0000
 IR Inten    --     3.1998                 0.2774                10.4956
 Raman Activ --     0.0000                 0.0000                 0.0000
 Depolar     --     0.0000                 0.0000                 0.0000
 Atom AN      X      Y      Z        X      Y      Z        X      Y      Z
   1   6     0.02   0.01   0.02     0.01   0.01  -0.01    -0.00  -0.01   0.03
   2   6     0.14  -0.06  -0.06     0.06  -0.02  -0.03    -0.09  -0.07  -0.01
   3   6    -0.03  -0.07  -0.12     0.04   0.00   0.02    -0.28  -0.21  -0.22
   4   6    -0.30   0.12   0.49    -0.15   0.08   0.37    -0.13  -0.02   0.15
   5   6    -0.07   0.01  -0.16    -0.00  -0.03  -0.28     0.35  -0.00   0.08
   6   6    -0.05  -0.19   0.04    -0.14  -0.10   0.26     0.20   0.50   0.06
   7   6    -0.04  -0.03   0.33     0.21  -0.11  -0.47    -0.07   0.11  -0.13
   8   6     0.17  -0.09  -0.44    -0.16   0.06   0.44    -0.01   0.02   0.03
   9   6    -0.04   0.12  -0.06     0.08   0.02  -0.27    -0.02  -0.11  -0.03
  10   8    -0.01   0.04   0.13    -0.02   0.01  -0.07     0.22  -0.07   0.10
  11   6     0.00   0.05   0.01     0.00   0.03  -0.01     0.01  -0.12   0.02
  12   8     0.10   0.01  -0.04     0.03   0.02   0.09    -0.19  -0.03  -0.05
  13   1     0.00  -0.00   0.05     0.00  -0.00   0.02     0.04  -0.01   0.07
  14   1    -0.01   0.01   0.05    -0.00   0.00   0.01    -0.00   0.06  -0.02
  15   1    -0.03   0.04  -0.05    -0.01   0.02  -0.02     0.01   0.01   0.01
  16   1     0.16  -0.01  -0.02     0.06  -0.01  -0.01     0.20  -0.02   0.02
  17   1    -0.01   0.09   0.03     0.00   0.03  -0.00    -0.12   0.18   0.09
  18   1     0.04   0.06  -0.01     0.05   0.05   0.02    -0.08  -0.03  -0.05
  19   1     0.02  -0.01  -0.12     0.03   0.01  -0.04    -0.05  -0.05  -0.09
  20   1     0.07   0.01  -0.20     0.02   0.00  -0.10     0.10  -0.02  -0.03
  21   1     0.02  -0.07  -0.07    -0.04  -0.03   0.07     0.07   0.13  -0.02
  22   1     0.00   0.02  -0.10     0.03   0.00  -0.12     0.02  -0.04  -0.04
  23   1     0.00   0.01   0.01     0.00   0.01   0.00    -0.02   0.00  -0.00
  24   1     0.00  -0.01  -0.02     0.01   0.02  -0.00    -0.03  -0.10   0.00
  25   1    -0.02   0.04  -0.00     0.00  -0.01   0.00    -0.02   0.00  -0.01
  26   1     0.04   0.01  -0.01     0.02   0.01   0.02    -0.06  -0.02  -0.02
                     22                     23                     24
                        a                      a                      a 
 Frequencies --   799.0618               814.3660               830.0275
 Red. masses --     9.3622                 5.6740                 4.8667
 Frc consts  --     0.0000                 0.0000                 0.0000
 IR Inten    --   109.7527                23.2626                25.7696
 Raman Activ --     0.0000                 0.0000                 0.0000
 Depolar     --     0.0000                 0.0000                 0.0000
 Atom AN      X      Y      Z        X      Y      Z        X      Y      Z
   1   6     0.05   0.00   0.02     0.04   0.02   0.05    -0.08  -0.03  -0.01
   2   6     0.14   0.08   0.01     0.10   0.13   0.04    -0.18  -0.08   0.01
   3   6    -0.01   0.09  -0.06    -0.07   0.03  -0.12     0.10  -0.02   0.08
   4   6    -0.08   0.03   0.02    -0.06  -0.06  -0.05     0.19   0.01  -0.18
   5   6    -0.13   0.07  -0.03     0.11  -0.13   0.20    -0.18   0.15   0.12
   6   6    -0.11   0.22  -0.02     0.03  -0.05   0.19    -0.11   0.02   0.15
   7   6     0.02   0.10  -0.06     0.04  -0.03  -0.13     0.05  -0.04  -0.13
   8   6    -0.16  -0.14  -0.06     0.11   0.11  -0.04     0.00  -0.08  -0.05
   9   6    -0.31  -0.36  -0.02     0.08   0.26   0.16    -0.07  -0.11   0.20
  10   8     0.26  -0.02   0.11    -0.07   0.00  -0.00    -0.04   0.01   0.01
  11   6     0.03  -0.08   0.02    -0.01   0.01  -0.00    -0.00   0.03  -0.00
  12   8     0.36   0.15   0.12    -0.26  -0.09  -0.05     0.11   0.05   0.07
  13   1    -0.09   0.01  -0.10    -0.10   0.03  -0.16     0.12  -0.03   0.14
  14   1    -0.01  -0.14   0.15    -0.00  -0.18   0.18     0.01   0.18  -0.21
  15   1    -0.06  -0.01  -0.06    -0.06  -0.05  -0.04     0.09   0.01   0.10
  16   1    -0.20   0.03  -0.07    -0.24   0.05  -0.11     0.18  -0.04   0.12
  17   1     0.09  -0.22   0.03     0.09  -0.26   0.07    -0.09   0.23  -0.09
  18   1    -0.03  -0.12  -0.08    -0.04  -0.09  -0.08     0.01   0.06   0.06
  19   1     0.01  -0.00   0.14    -0.04  -0.01   0.10     0.03   0.01  -0.06
  20   1    -0.04  -0.04  -0.12     0.18  -0.06  -0.28     0.08  -0.04  -0.38
  21   1    -0.05   0.06  -0.12     0.11  -0.06  -0.24     0.13  -0.05  -0.32
  22   1    -0.13  -0.10  -0.14     0.22   0.01  -0.28     0.08  -0.08  -0.34
  23   1    -0.03   0.05  -0.02     0.01  -0.02   0.01     0.00   0.01   0.01
  24   1    -0.04  -0.15  -0.00     0.02   0.04  -0.01     0.01   0.01  -0.01
  25   1    -0.03   0.05  -0.01     0.00  -0.02   0.01    -0.01   0.00   0.00
  26   1     0.06   0.01   0.02    -0.05  -0.02  -0.02     0.03   0.01   0.01
                     25                     26                     27
                        a                      a                      a 
 Frequencies --   858.6944               903.4118               906.0183
 Red. masses --     3.2098                 4.7232                 3.5511
 Frc consts  --     0.0000                 0.0000                 0.0000
 IR Inten    --     0.1376                 2.3954                 1.7562
 Raman Activ --     0.0000                 0.0000                 0.0000
 Depolar     --     0.0000                 0.0000                 0.0000
 Atom AN      X      Y      Z        X      Y      Z        X      Y      Z
   1   6    -0.01  -0.00   0.01    -0.03   0.21  -0.13     0.01   0.02  -0.07
   2   6    -0.01  -0.00  -0.00     0.07  -0.03   0.09     0.06  -0.04  -0.00
   3   6     0.01   0.01  -0.01    -0.03  -0.38   0.27    -0.02  -0.00   0.09
   4   6    -0.01   0.01   0.02     0.03  -0.02  -0.06    -0.02  -0.01  -0.04
   5   6     0.06  -0.03  -0.18    -0.04   0.14  -0.00     0.13  -0.07  -0.28
   6   6     0.06  -0.03  -0.17     0.04   0.08  -0.01    -0.10   0.04   0.28
   7   6    -0.00   0.00  -0.00    -0.01  -0.04  -0.00     0.00   0.01   0.01
   8   6     0.00  -0.01  -0.01    -0.01  -0.04   0.01     0.01   0.00  -0.08
   9   6    -0.12   0.04   0.33    -0.03  -0.01   0.01    -0.06   0.04   0.07
  10   8    -0.01   0.00   0.02    -0.01  -0.00  -0.00     0.02   0.00   0.01
  11   6     0.00   0.00  -0.00     0.00   0.02  -0.00     0.01  -0.02   0.00
  12   8     0.01   0.00  -0.01     0.04   0.01   0.01    -0.01   0.00   0.01
  13   1     0.01  -0.00   0.01    -0.07   0.09  -0.35    -0.01   0.00   0.01
  14   1     0.00   0.01  -0.01     0.02  -0.13   0.01    -0.01   0.01  -0.00
  15   1     0.00   0.00   0.00     0.00  -0.13   0.03    -0.02   0.03  -0.05
  16   1     0.01  -0.00   0.01     0.02   0.04  -0.28     0.01  -0.01   0.01
  17   1    -0.01   0.02  -0.01     0.03  -0.11   0.07     0.02  -0.00  -0.01
  18   1     0.01  -0.00  -0.01    -0.09   0.33   0.31    -0.02   0.03   0.05
  19   1    -0.00  -0.00   0.01    -0.09  -0.03  -0.40    -0.02   0.00  -0.01
  20   1    -0.10   0.04   0.28     0.02   0.05  -0.05    -0.20   0.09   0.59
  21   1    -0.15   0.06   0.41     0.06   0.02   0.05     0.19  -0.08  -0.57
  22   1     0.24  -0.10  -0.66    -0.02  -0.00  -0.05     0.01  -0.00  -0.06
  23   1     0.00   0.01   0.01     0.00   0.00  -0.00    -0.00   0.00  -0.00
  24   1     0.01  -0.00  -0.02     0.00   0.01  -0.00    -0.00  -0.02   0.00
  25   1    -0.01  -0.01   0.00    -0.00   0.00   0.00    -0.00   0.00  -0.00
  26   1     0.00  -0.00  -0.01     0.03   0.02   0.01    -0.00  -0.00  -0.01
                     28                     29                     30
                        a                      a                      a 
 Frequencies --   916.0357               958.8711              1038.2124
 Red. masses --     8.6093                 7.7037                11.1342
 Frc consts  --     0.0000                 0.0000                 0.0000
 IR Inten    --    15.5015                15.1871                45.2952
 Raman Activ --     0.0000                 0.0000                 0.0000
 Depolar     --     0.0000                 0.0000                 0.0000
 Atom AN      X      Y      Z        X      Y      Z        X      Y      Z
   1   6    -0.03  -0.03   0.33    -0.12  -0.00   0.25     0.04   0.02  -0.04
   2   6    -0.26   0.19   0.03    -0.10   0.11  -0.01    -0.05  -0.03   0.02
   3   6     0.06  -0.13  -0.43     0.36  -0.02  -0.05    -0.04  -0.01  -0.02
   4   6     0.16   0.03   0.13    -0.14   0.02  -0.06     0.11   0.03   0.03
   5   6    -0.11   0.21  -0.15     0.14  -0.26   0.08    -0.07   0.19  -0.05
   6   6    -0.02   0.03   0.02    -0.02  -0.10   0.01     0.05  -0.27   0.06
   7   6    -0.03  -0.07   0.01     0.04   0.09   0.00     0.07   0.08   0.01
   8   6     0.10  -0.09   0.03    -0.17   0.11  -0.08    -0.12   0.27  -0.08
   9   6     0.17  -0.16   0.07    -0.23   0.18  -0.11     0.05  -0.23   0.05
  10   8    -0.15  -0.02  -0.05     0.17   0.07   0.05     0.07   0.49  -0.04
  11   6    -0.03   0.11  -0.03     0.05  -0.18   0.04    -0.03  -0.51   0.06
  12   8     0.07   0.01   0.02    -0.06  -0.00  -0.02    -0.09  -0.01  -0.03
  13   1    -0.01   0.02  -0.17     0.07   0.02  -0.13    -0.03   0.01  -0.01
  14   1     0.04  -0.12   0.04     0.05  -0.00  -0.14    -0.01  -0.03   0.06
  15   1     0.07  -0.22   0.24     0.14  -0.22   0.31    -0.04   0.03  -0.07
  16   1    -0.07   0.07  -0.11     0.01   0.04  -0.10     0.02  -0.01  -0.00
  17   1    -0.10   0.01   0.11     0.02   0.05  -0.14    -0.06   0.01   0.10
  18   1     0.11  -0.07  -0.16     0.12   0.06   0.01    -0.01  -0.01  -0.01
  19   1     0.02  -0.04  -0.08     0.18   0.01  -0.10     0.01  -0.00  -0.01
  20   1    -0.11   0.05   0.11     0.07  -0.04   0.04     0.07   0.15   0.00
  21   1     0.14  -0.02  -0.03    -0.18   0.00  -0.07     0.15  -0.10   0.07
  22   1     0.04  -0.04   0.05    -0.11   0.06  -0.04     0.13  -0.08   0.06
  23   1     0.02  -0.02   0.01    -0.03   0.03  -0.02    -0.03  -0.03   0.00
  24   1     0.03   0.11  -0.00    -0.04  -0.17   0.01    -0.04  -0.19   0.01
  25   1     0.02  -0.02   0.01    -0.03   0.03  -0.01    -0.03  -0.03  -0.01
  26   1     0.04   0.02   0.01    -0.05  -0.03  -0.01    -0.10  -0.07  -0.02
                     31                     32                     33
                        a                      a                      a 
 Frequencies --  1070.7270              1081.1111              1104.0027
 Red. masses --     4.7804                 4.9916                 8.3914
 Frc consts  --     0.0000                 0.0000                 0.0000
 IR Inten    --     3.0519                 3.4868                86.4661
 Raman Activ --     0.0000                 0.0000                 0.0000
 Depolar     --     0.0000                 0.0000                 0.0000
 Atom AN      X      Y      Z        X      Y      Z        X      Y      Z
   1   6    -0.02  -0.23   0.15     0.29  -0.10   0.02    -0.09   0.10  -0.12
   2   6     0.15   0.27  -0.18    -0.35   0.10  -0.09     0.03  -0.07   0.20
   3   6    -0.04  -0.20   0.05     0.14  -0.12   0.10     0.04   0.02  -0.12
   4   6    -0.07  -0.14   0.02     0.10  -0.03  -0.08     0.01  -0.03   0.04
   5   6    -0.05   0.12  -0.04     0.04  -0.06   0.04    -0.01  -0.14   0.01
   6   6     0.05   0.11  -0.00    -0.03   0.04  -0.01    -0.01   0.22  -0.04
   7   6    -0.02  -0.08   0.01    -0.03  -0.05  -0.00    -0.14  -0.25  -0.01
   8   6    -0.01   0.03  -0.01    -0.04  -0.05  -0.00     0.06  -0.18   0.05
   9   6    -0.03   0.07  -0.03    -0.08   0.17  -0.04     0.06   0.24  -0.02
  10   8     0.00   0.11  -0.01    -0.02   0.04  -0.01    -0.08   0.39  -0.08
  11   6    -0.00  -0.09   0.01     0.05  -0.03   0.02    -0.02  -0.27   0.03
  12   8     0.01  -0.02   0.01     0.03  -0.00   0.01     0.10  -0.08   0.05
  13   1     0.09  -0.08   0.24    -0.11  -0.04   0.13     0.00   0.03  -0.07
  14   1     0.00   0.09  -0.08    -0.03  -0.12   0.33    -0.00   0.04  -0.09
  15   1     0.07   0.03   0.08    -0.15   0.14  -0.27     0.01  -0.01   0.01
  16   1    -0.22   0.05   0.07     0.02   0.02   0.02    -0.03  -0.03   0.10
  17   1     0.19  -0.09  -0.34    -0.20   0.08   0.24     0.01  -0.03   0.06
  18   1     0.20   0.12   0.03     0.41   0.12  -0.02    -0.07  -0.05  -0.03
  19   1    -0.49  -0.06  -0.02    -0.06  -0.01  -0.11     0.08   0.00   0.02
  20   1    -0.01   0.05  -0.01    -0.02  -0.06  -0.01    -0.22  -0.28  -0.03
  21   1     0.19  -0.00   0.07    -0.07   0.02  -0.04     0.07   0.04   0.02
  22   1     0.01   0.02   0.01    -0.15   0.07  -0.08    -0.02   0.07  -0.01
  23   1    -0.01   0.00  -0.00    -0.02   0.03  -0.02    -0.02   0.00  -0.01
  24   1    -0.01  -0.04   0.00    -0.02  -0.07   0.00    -0.01  -0.07   0.01
  25   1    -0.01  -0.00  -0.00    -0.02   0.03  -0.00    -0.02  -0.00  -0.01
  26   1     0.08   0.06   0.02     0.06   0.04   0.01     0.35   0.26   0.09
                     34                     35                     36
                        a                      a                      a 
 Frequencies --  1117.9768              1118.1192              1137.4044
 Red. masses --     6.6551                 5.0767                 6.7073
 Frc consts  --     0.0000                 0.0000                 0.0000
 IR Inten    --    15.0873                 5.8989               413.0639
 Raman Activ --     0.0000                 0.0000                 0.0000
 Depolar     --     0.0000                 0.0000                 0.0000
 Atom AN      X      Y      Z        X      Y      Z        X      Y      Z
   1   6     0.10  -0.07   0.26     0.07  -0.05   0.18     0.01   0.01  -0.01
   2   6     0.02  -0.06  -0.42     0.02  -0.04  -0.29    -0.03  -0.00   0.03
   3   6    -0.21   0.19   0.22    -0.14   0.13   0.15     0.07   0.01   0.01
   4   6     0.00   0.00  -0.05     0.00   0.00  -0.03    -0.04  -0.05  -0.01
   5   6    -0.02  -0.03   0.01    -0.01  -0.02   0.00    -0.06   0.14  -0.04
   6   6    -0.01   0.05  -0.01    -0.01   0.04  -0.00    -0.04   0.03  -0.02
   7   6    -0.04  -0.06  -0.01    -0.03  -0.04  -0.01     0.23  -0.02   0.09
   8   6     0.05  -0.05   0.03     0.03  -0.03   0.02    -0.13   0.32  -0.09
   9   6     0.04   0.01   0.02     0.03   0.01   0.02    -0.10  -0.11  -0.02
  10   8    -0.05   0.13   0.10     0.06   0.05  -0.18     0.17  -0.17   0.09
  11   6     0.04  -0.10  -0.23    -0.15  -0.01   0.32    -0.07   0.08  -0.04
  12   8     0.02  -0.03   0.01     0.02  -0.02   0.01    -0.21  -0.28  -0.04
  13   1    -0.01  -0.01  -0.03    -0.01  -0.01  -0.02    -0.01   0.00  -0.01
  14   1     0.03  -0.11   0.12     0.02  -0.08   0.08    -0.00  -0.01   0.02
  15   1     0.01  -0.09   0.07     0.00  -0.06   0.05    -0.01   0.01  -0.02
  16   1     0.20   0.02  -0.31     0.13   0.01  -0.21     0.00  -0.00   0.02
  17   1    -0.03   0.11  -0.11    -0.02   0.08  -0.08    -0.02   0.01   0.02
  18   1    -0.10  -0.02   0.03    -0.07  -0.01   0.02     0.05   0.01  -0.00
  19   1     0.08   0.05   0.07     0.05   0.03   0.05     0.04   0.00  -0.01
  20   1    -0.04  -0.06  -0.01    -0.03  -0.04  -0.01     0.00   0.06  -0.01
  21   1     0.01   0.01  -0.00     0.01   0.01  -0.00    -0.15   0.04  -0.06
  22   1     0.04  -0.00   0.01     0.04  -0.01  -0.01     0.22  -0.08   0.09
  23   1     0.04   0.31   0.08    -0.04  -0.50  -0.09     0.04  -0.07   0.04
  24   1    -0.03   0.05   0.12     0.07   0.00  -0.17     0.02   0.09  -0.00
  25   1    -0.09  -0.33   0.11     0.15   0.43  -0.16     0.05  -0.08   0.02
  26   1     0.10   0.07   0.03     0.07   0.05   0.02     0.50   0.40   0.12
                     37                     38                     39
                        a                      a                      a 
 Frequencies --  1148.4677              1160.1046              1204.0786
 Red. masses --     4.9207                 4.6280                 4.5898
 Frc consts  --     0.0000                 0.0000                 0.0000
 IR Inten    --    45.8103               140.9000                31.0288
 Raman Activ --     0.0000                 0.0000                 0.0000
 Depolar     --     0.0000                 0.0000                 0.0000
 Atom AN      X      Y      Z        X      Y      Z        X      Y      Z
   1   6    -0.01  -0.02  -0.02    -0.03  -0.03   0.01    -0.10   0.21   0.03
   2   6     0.01   0.04   0.03     0.06   0.02  -0.03     0.13  -0.33  -0.04
   3   6    -0.00  -0.06  -0.02    -0.12  -0.04  -0.04    -0.14   0.11   0.01
   4   6     0.02   0.08   0.01     0.16   0.12   0.06     0.19  -0.02   0.04
   5   6     0.11  -0.01   0.04     0.07   0.06   0.01    -0.01   0.04   0.00
   6   6    -0.06  -0.03  -0.02    -0.04  -0.04  -0.01     0.01  -0.05   0.01
   7   6    -0.07  -0.01  -0.02     0.04   0.04   0.01     0.15   0.06   0.04
   8   6     0.13  -0.15   0.07     0.07  -0.14   0.05    -0.00   0.12  -0.02
   9   6    -0.01  -0.04   0.00     0.17  -0.06   0.07    -0.06   0.03  -0.03
  10   8     0.18   0.24   0.03    -0.26   0.05  -0.10     0.03  -0.03   0.01
  11   6    -0.34  -0.15  -0.10     0.22  -0.02   0.08    -0.00  -0.00  -0.00
  12   8     0.04   0.02   0.01    -0.07  -0.08  -0.01    -0.09  -0.03  -0.03
  13   1     0.01  -0.01   0.03     0.02  -0.01   0.02    -0.01   0.08  -0.24
  14   1    -0.01   0.02  -0.02    -0.00   0.02  -0.04     0.04  -0.07  -0.06
  15   1     0.00   0.02  -0.01     0.02  -0.00   0.02     0.03  -0.13   0.11
  16   1    -0.04   0.01   0.02    -0.02   0.01  -0.03     0.13  -0.10   0.09
  17   1     0.02  -0.02  -0.00     0.02  -0.03  -0.01    -0.04   0.03   0.10
  18   1    -0.00   0.01   0.01    -0.09  -0.02   0.00     0.35  -0.04  -0.16
  19   1    -0.06  -0.02  -0.02    -0.14  -0.02   0.02    -0.42  -0.01   0.18
  20   1     0.19   0.18   0.04     0.20   0.23   0.04    -0.11  -0.12  -0.03
  21   1    -0.34   0.06  -0.13    -0.53   0.10  -0.21     0.03  -0.02   0.01
  22   1    -0.21   0.03  -0.08    -0.11   0.02  -0.04    -0.34   0.08  -0.13
  23   1     0.10  -0.24   0.11    -0.08   0.17  -0.08     0.00  -0.02  -0.00
  24   1     0.14   0.47  -0.01    -0.08  -0.31   0.01     0.02   0.04   0.00
  25   1     0.12  -0.25   0.04    -0.10   0.18  -0.03    -0.00  -0.02   0.01
  26   1    -0.01  -0.01  -0.00     0.15   0.12   0.04    -0.01  -0.00  -0.00
                     40                     41                     42
                        a                      a                      a 
 Frequencies --  1210.8869              1254.5010              1263.8872
 Red. masses --     5.0806                 3.1464                 3.5964
 Frc consts  --     0.0000                 0.0000                 0.0000
 IR Inten    --    93.2302                 1.4136                21.7282
 Raman Activ --     0.0000                 0.0000                 0.0000
 Depolar     --     0.0000                 0.0000                 0.0000
 Atom AN      X      Y      Z        X      Y      Z        X      Y      Z
   1   6    -0.03   0.15   0.00     0.22   0.21   0.09     0.03  -0.01  -0.01
   2   6     0.02  -0.20   0.03    -0.19  -0.11  -0.05    -0.05   0.02   0.04
   3   6     0.06   0.12   0.05     0.12  -0.08  -0.07     0.07   0.05  -0.02
   4   6    -0.24  -0.18  -0.10    -0.04   0.02   0.03    -0.04  -0.17   0.03
   5   6     0.02   0.02   0.01    -0.01   0.01  -0.01    -0.06  -0.16  -0.00
   6   6    -0.09   0.11  -0.05     0.05   0.01   0.01    -0.13   0.01  -0.05
   7   6    -0.27  -0.13  -0.08     0.04   0.01   0.01    -0.11   0.20  -0.07
   8   6     0.02  -0.11   0.03     0.02  -0.03   0.01     0.15   0.16   0.03
   9   6     0.00   0.04  -0.00     0.03  -0.02   0.01     0.06  -0.07   0.03
  10   8    -0.03   0.02  -0.01    -0.01   0.02  -0.01    -0.05  -0.05  -0.01
  11   6     0.01   0.01   0.00    -0.00  -0.01   0.00     0.05   0.00   0.02
  12   8     0.17   0.06   0.05    -0.03  -0.00  -0.01    -0.00  -0.11   0.01
  13   1    -0.02   0.05  -0.15    -0.13   0.08  -0.20    -0.01  -0.01   0.02
  14   1     0.02  -0.05  -0.00     0.04  -0.19   0.24    -0.01   0.00   0.02
  15   1    -0.00  -0.07   0.04    -0.08  -0.06  -0.07    -0.01   0.01  -0.02
  16   1     0.08  -0.06   0.11    -0.05  -0.10   0.46     0.02   0.01  -0.04
  17   1    -0.02   0.03   0.01     0.08   0.19  -0.53     0.01   0.01  -0.05
  18   1     0.36   0.03  -0.10    -0.26  -0.01   0.08    -0.14  -0.04   0.02
  19   1    -0.03   0.02   0.11    -0.09  -0.03  -0.01     0.11   0.01   0.01
  20   1     0.34   0.39   0.06    -0.03  -0.02  -0.00     0.28   0.30   0.06
  21   1     0.03   0.02   0.01    -0.05   0.02  -0.02     0.39  -0.09   0.16
  22   1     0.35  -0.06   0.14    -0.00  -0.00   0.01    -0.50   0.08  -0.19
  23   1    -0.00   0.02   0.00    -0.00   0.00  -0.00    -0.02   0.02  -0.03
  24   1    -0.02  -0.06   0.00     0.00   0.00   0.00     0.02   0.01   0.00
  25   1     0.00   0.02  -0.01    -0.00   0.00  -0.00    -0.04   0.02   0.01
  26   1     0.02   0.00   0.01    -0.02  -0.01  -0.00     0.21   0.15   0.05
                     43                     44                     45
                        a                      a                      a 
 Frequencies --  1291.1976              1326.8948              1339.3542
 Red. masses --    10.1020                 5.7339                 4.8925
 Frc consts  --     0.0000                 0.0000                 0.0000
 IR Inten    --   299.0309                23.9894                 9.9624
 Raman Activ --     0.0000                 0.0000                 0.0000
 Depolar     --     0.0000                 0.0000                 0.0000
 Atom AN      X      Y      Z        X      Y      Z        X      Y      Z
   1   6    -0.01   0.01   0.00     0.01   0.03   0.03     0.11  -0.07  -0.04
   2   6     0.04   0.02   0.05     0.10   0.07   0.04    -0.16  -0.10   0.48
   3   6    -0.04   0.03   0.09    -0.49  -0.11   0.08    -0.01   0.09  -0.09
   4   6    -0.34   0.02  -0.17     0.18   0.02   0.01     0.00  -0.11   0.03
   5   6    -0.32  -0.09  -0.10     0.16   0.08   0.05     0.03   0.10  -0.01
   6   6     0.33   0.13   0.10    -0.15  -0.09  -0.04    -0.02   0.03  -0.01
   7   6     0.32   0.25   0.08    -0.11  -0.08  -0.03     0.07  -0.10   0.04
   8   6     0.11  -0.28   0.08     0.04   0.16  -0.00     0.06   0.05   0.01
   9   6     0.15  -0.14   0.08    -0.04  -0.02  -0.01    -0.06   0.01  -0.02
  10   8    -0.08   0.10  -0.04    -0.01  -0.03   0.00    -0.02   0.01  -0.01
  11   6    -0.02  -0.06   0.00     0.02   0.01   0.01     0.01  -0.01   0.00
  12   8    -0.21  -0.06  -0.06     0.06   0.01   0.02    -0.02   0.02  -0.01
  13   1    -0.00   0.01  -0.02    -0.00   0.02  -0.05    -0.07  -0.01  -0.04
  14   1     0.00   0.01  -0.02     0.01  -0.00  -0.01    -0.01   0.09  -0.02
  15   1    -0.01   0.01  -0.01    -0.00   0.01  -0.00    -0.08   0.12  -0.17
  16   1    -0.02  -0.00   0.05    -0.12  -0.02   0.20     0.19   0.08  -0.53
  17   1     0.04  -0.02  -0.05     0.12  -0.01  -0.24     0.14   0.07  -0.44
  18   1     0.31   0.03  -0.08     0.33  -0.05  -0.14     0.12  -0.05  -0.10
  19   1     0.24   0.03  -0.08     0.48   0.02  -0.26    -0.08   0.00   0.07
  20   1    -0.06   0.02  -0.03    -0.01  -0.06  -0.01    -0.04  -0.02  -0.00
  21   1    -0.01   0.07  -0.02    -0.01  -0.04   0.00    -0.05   0.02  -0.02
  22   1    -0.08  -0.02  -0.03    -0.07   0.01  -0.04    -0.02   0.00  -0.00
  23   1    -0.02   0.02  -0.01    -0.00  -0.00  -0.01    -0.01   0.01  -0.00
  24   1     0.02   0.06   0.00    -0.01  -0.02  -0.00     0.00   0.00   0.00
  25   1    -0.02   0.02  -0.01    -0.01  -0.00   0.00    -0.01   0.01  -0.00
  26   1    -0.03  -0.00  -0.01     0.02   0.01   0.01    -0.05  -0.04  -0.01
                     46                     47                     48
                        a                      a                      a 
 Frequencies --  1361.7609              1391.8761              1410.1676
 Red. masses --    10.2169                 2.7460                 3.2529
 Frc consts  --     0.0000                 0.0000                 0.0000
 IR Inten    --    27.4657                 1.2538                 3.8616
 Raman Activ --     0.0000                 0.0000                 0.0000
 Depolar     --     0.0000                 0.0000                 0.0000
 Atom AN      X      Y      Z        X      Y      Z        X      Y      Z
   1   6     0.02  -0.01   0.00    -0.00   0.00  -0.01     0.06  -0.19   0.39
   2   6    -0.01  -0.03   0.11     0.00   0.01  -0.01     0.04   0.01  -0.10
   3   6    -0.10  -0.06  -0.03     0.01   0.02   0.00     0.05  -0.01   0.02
   4   6     0.12   0.44  -0.03    -0.01  -0.12   0.01    -0.02   0.00  -0.00
   5   6    -0.07  -0.28   0.02    -0.05   0.03  -0.02     0.01  -0.00   0.00
   6   6     0.11  -0.16   0.06     0.03   0.06   0.00    -0.02   0.00  -0.01
   7   6    -0.27   0.31  -0.14     0.07  -0.07   0.04     0.00   0.01  -0.00
   8   6    -0.36  -0.16  -0.11     0.04  -0.01   0.02     0.03  -0.00   0.01
   9   6     0.25   0.02   0.08     0.01   0.02   0.00    -0.02  -0.01  -0.01
  10   8     0.11  -0.06   0.05    -0.01   0.14  -0.02    -0.01   0.00  -0.00
  11   6    -0.03   0.08  -0.02     0.01   0.30  -0.04     0.00   0.01  -0.00
  12   8     0.08  -0.03   0.03    -0.02   0.02  -0.01    -0.00  -0.00   0.00
  13   1    -0.02   0.00  -0.03     0.01  -0.00   0.01    -0.08   0.05  -0.49
  14   1     0.00   0.02  -0.01    -0.00  -0.01   0.01     0.09   0.28  -0.42
  15   1    -0.02   0.03  -0.04     0.01  -0.01   0.01    -0.25   0.28  -0.32
  16   1     0.02   0.01  -0.09     0.00  -0.00   0.01    -0.10  -0.01   0.07
  17   1     0.04   0.02  -0.13    -0.00  -0.00   0.01    -0.06   0.05   0.11
  18   1     0.11   0.01  -0.04    -0.02  -0.01   0.00    -0.05  -0.01   0.02
  19   1    -0.15  -0.01  -0.01     0.04   0.01  -0.00    -0.02   0.00  -0.02
  20   1     0.04  -0.02   0.02     0.01   0.03  -0.00     0.01   0.00   0.00
  21   1     0.10  -0.06   0.04    -0.03   0.03  -0.01     0.01  -0.00   0.01
  22   1     0.10   0.01   0.04    -0.09   0.02  -0.03     0.00  -0.00   0.00
  23   1     0.04  -0.10   0.02     0.11  -0.50  -0.03     0.00  -0.01   0.00
  24   1    -0.04  -0.07  -0.01    -0.23  -0.50  -0.02    -0.01  -0.02  -0.00
  25   1     0.04  -0.10   0.04     0.03  -0.47   0.21     0.01  -0.01   0.00
  26   1     0.16   0.12   0.04    -0.05  -0.04  -0.01     0.00   0.00   0.00
                     49                     50                     51
                        a                      a                      a 
 Frequencies --  1437.3922              1457.6067              1472.6041
 Red. masses --    10.3195                 1.5433                 2.0661
 Frc consts  --     0.0000                 0.0000                 0.0000
 IR Inten    --    54.6380                 6.7474                58.0517
 Raman Activ --     0.0000                 0.0000                 0.0000
 Depolar     --     0.0000                 0.0000                 0.0000
 Atom AN      X      Y      Z        X      Y      Z        X      Y      Z
   1   6     0.00  -0.01   0.01    -0.00   0.00   0.00     0.00  -0.00   0.01
   2   6     0.01   0.01  -0.01     0.00   0.00   0.00    -0.01   0.01  -0.01
   3   6    -0.10   0.05  -0.01    -0.00  -0.00  -0.00     0.01   0.01   0.01
   4   6     0.30  -0.30   0.15     0.00  -0.00   0.00    -0.04  -0.02  -0.01
   5   6    -0.30  -0.09  -0.10    -0.00  -0.00  -0.00    -0.02   0.03  -0.01
   6   6     0.15   0.19   0.03     0.00   0.00   0.00     0.08  -0.01   0.03
   7   6     0.14  -0.22   0.08     0.00  -0.00   0.00    -0.08  -0.07  -0.02
   8   6    -0.47  -0.04  -0.16    -0.00  -0.00  -0.00    -0.08   0.07  -0.04
   9   6     0.17   0.27   0.02     0.00   0.00   0.00     0.07  -0.01   0.03
  10   8     0.12  -0.05   0.05     0.01  -0.00  -0.03     0.07  -0.00   0.03
  11   6    -0.04  -0.04  -0.01     0.07  -0.03  -0.20     0.19   0.00   0.07
  12   8     0.01   0.07  -0.01     0.00   0.00  -0.00     0.04   0.02   0.01
  13   1    -0.01   0.00  -0.03     0.01   0.00   0.00    -0.01   0.00  -0.01
  14   1    -0.00   0.02  -0.00     0.01  -0.01  -0.01    -0.00   0.02  -0.01
  15   1     0.00   0.02  -0.00    -0.01   0.00  -0.01    -0.00  -0.00  -0.00
  16   1    -0.02  -0.00   0.02    -0.00   0.00  -0.00     0.03  -0.00   0.01
  17   1     0.00   0.01  -0.01    -0.00   0.00  -0.00     0.01  -0.03   0.01
  18   1    -0.09  -0.09  -0.03     0.00   0.00   0.00    -0.00  -0.02  -0.01
  19   1     0.12   0.02  -0.06     0.00  -0.00   0.00    -0.00   0.00  -0.01
  20   1     0.13   0.22   0.01     0.00   0.00  -0.00    -0.02  -0.01  -0.01
  21   1    -0.05   0.08  -0.03    -0.00   0.00  -0.00    -0.05   0.01  -0.02
  22   1    -0.07   0.11  -0.04     0.01  -0.00  -0.02     0.01   0.00   0.00
  23   1     0.02   0.06   0.05     0.29  -0.29   0.23    -0.36  -0.21  -0.49
  24   1     0.03   0.07  -0.01    -0.24   0.09   0.67     0.13   0.26   0.01
  25   1     0.05   0.05  -0.04    -0.35   0.31  -0.07    -0.60  -0.12   0.19
  26   1    -0.09  -0.07  -0.02    -0.00  -0.00   0.00    -0.01  -0.01  -0.00
                     52                     53                     54
                        a                      a                      a 
 Frequencies --  1476.2741              1484.9241              1494.5550
 Red. masses --     2.0862                 2.5028                 9.4940
 Frc consts  --     0.0000                 0.0000                 0.0000
 IR Inten    --     5.4109                37.8562               287.0300
 Raman Activ --     0.0000                 0.0000                 0.0000
 Depolar     --     0.0000                 0.0000                 0.0000
 Atom AN      X      Y      Z        X      Y      Z        X      Y      Z
   1   6    -0.03  -0.01  -0.01    -0.03   0.01  -0.04    -0.01   0.01  -0.00
   2   6    -0.08   0.06  -0.01     0.19  -0.16   0.07     0.06  -0.05   0.01
   3   6     0.12   0.14   0.22     0.03   0.03   0.07     0.10   0.05   0.05
   4   6    -0.04   0.01   0.01     0.06   0.02   0.02    -0.30  -0.07  -0.10
   5   6     0.02  -0.01   0.00     0.00  -0.05   0.01    -0.03   0.15  -0.03
   6   6    -0.02  -0.00  -0.01    -0.09   0.03  -0.04     0.34  -0.09   0.14
   7   6    -0.00   0.02  -0.00     0.10   0.06   0.03    -0.37  -0.22  -0.10
   8   6     0.04  -0.02   0.02     0.04  -0.10   0.03    -0.04   0.35  -0.07
   9   6    -0.03  -0.00  -0.01    -0.10   0.03  -0.04     0.29  -0.12   0.12
  10   8    -0.01   0.01  -0.00    -0.01   0.03  -0.01     0.01  -0.08   0.02
  11   6    -0.01   0.00  -0.00     0.01   0.00   0.01    -0.01  -0.00  -0.01
  12   8    -0.00  -0.01   0.00    -0.03  -0.02  -0.01     0.11   0.05   0.03
  13   1     0.08   0.00  -0.03     0.11  -0.00   0.03     0.02  -0.00   0.02
  14   1    -0.01  -0.03   0.03     0.00  -0.09   0.06     0.01  -0.03  -0.01
  15   1     0.03   0.07   0.01     0.04   0.04   0.02    -0.01  -0.01  -0.00
  16   1     0.22  -0.01   0.07    -0.57   0.02  -0.19    -0.16   0.01  -0.06
  17   1     0.06  -0.21   0.01    -0.17   0.58   0.02    -0.06   0.17   0.03
  18   1    -0.08  -0.56  -0.25    -0.01  -0.17  -0.08     0.01  -0.07  -0.03
  19   1    -0.24   0.09  -0.58    -0.07   0.02  -0.18    -0.02   0.02  -0.07
  20   1     0.01   0.00   0.01     0.05   0.03   0.01    -0.12  -0.09  -0.03
  21   1     0.01  -0.00   0.01     0.06  -0.01   0.02    -0.20   0.03  -0.08
  22   1     0.04  -0.01   0.02     0.08  -0.01   0.03    -0.23   0.03  -0.09
  23   1     0.01   0.00   0.02    -0.04  -0.03  -0.05     0.06   0.05   0.09
  24   1    -0.01  -0.01   0.00     0.01   0.03  -0.00    -0.02  -0.05   0.00
  25   1     0.02   0.00  -0.01    -0.06  -0.02   0.02     0.11   0.04  -0.04
  26   1     0.00   0.00   0.00    -0.00  -0.00  -0.00     0.01   0.01   0.00
                     55                     56                     57
                        a                      a                      a 
 Frequencies --  1500.0821              1505.2748              1587.0196
 Red. masses --     1.5637                 1.5892                11.5486
 Frc consts  --     0.0000                 0.0000                 0.0000
 IR Inten    --     0.9375                 1.3297                11.5279
 Raman Activ --     0.0000                 0.0000                 0.0000
 Depolar     --     0.0000                 0.0000                 0.0000
 Atom AN      X      Y      Z        X      Y      Z        X      Y      Z
   1   6    -0.16  -0.14  -0.02     0.13  -0.14  -0.09     0.00   0.00   0.00
   2   6    -0.05  -0.02  -0.01     0.05  -0.04  -0.04     0.00   0.00  -0.01
   3   6    -0.00  -0.02  -0.04     0.00   0.01   0.02     0.00   0.05  -0.01
   4   6    -0.01  -0.00  -0.01    -0.01   0.01  -0.01     0.05  -0.50   0.09
   5   6    -0.00   0.01  -0.00     0.01   0.00   0.00     0.12   0.38  -0.02
   6   6     0.02  -0.01   0.01     0.01  -0.01   0.00     0.18  -0.25   0.10
   7   6    -0.02  -0.01  -0.01    -0.01   0.01  -0.01    -0.18   0.47  -0.14
   8   6    -0.00   0.02  -0.00     0.02   0.00   0.01    -0.07  -0.30   0.02
   9   6     0.02  -0.01   0.01    -0.01  -0.01  -0.00    -0.11   0.20  -0.07
  10   8     0.00  -0.00   0.00    -0.00  -0.00  -0.00     0.02   0.00   0.01
  11   6     0.00   0.00   0.00    -0.00   0.00  -0.01    -0.01   0.01  -0.01
  12   8     0.00   0.00   0.00     0.00  -0.00   0.00     0.00  -0.05   0.01
  13   1     0.45   0.04  -0.35    -0.52   0.01  -0.16     0.00  -0.00   0.00
  14   1    -0.12  -0.08   0.33    -0.28   0.58   0.28     0.00  -0.00  -0.00
  15   1     0.32   0.59   0.13     0.27  -0.02   0.26    -0.00  -0.00  -0.00
  16   1     0.05  -0.01   0.02    -0.05  -0.01   0.02    -0.01   0.00  -0.00
  17   1     0.01  -0.02  -0.03    -0.02   0.04   0.03    -0.00   0.01   0.01
  18   1     0.01   0.09   0.04     0.00  -0.04  -0.02    -0.05  -0.02   0.00
  19   1     0.02  -0.01   0.10    -0.02   0.01  -0.03     0.08   0.01   0.01
  20   1    -0.01  -0.01  -0.00    -0.00  -0.01  -0.00    -0.10  -0.05  -0.03
  21   1    -0.01   0.00  -0.00    -0.00  -0.00  -0.00    -0.06  -0.04  -0.02
  22   1    -0.02   0.00  -0.01     0.01  -0.00  -0.00     0.03   0.04   0.01
  23   1    -0.00   0.00  -0.00     0.01  -0.01   0.01     0.00  -0.00   0.00
  24   1     0.00  -0.00  -0.00    -0.01  -0.01   0.01     0.00   0.01  -0.00
  25   1     0.00  -0.00   0.00     0.00   0.00  -0.00     0.00  -0.00   0.00
  26   1     0.00   0.00   0.00     0.00   0.00   0.00     0.09   0.07   0.02
                     58                     59                     60
                        a                      a                      a 
 Frequencies --  1602.2681              2946.8612              2959.4570
 Red. masses --    11.6030                 1.9555                 1.4381
 Frc consts  --     0.0000                 0.0000                 0.0000
 IR Inten    --    37.5941                47.7353                42.3585
 Raman Activ --     0.0000                 0.0000                 0.0000
 Depolar     --     0.0000                 0.0000                 0.0000
 Atom AN      X      Y      Z        X      Y      Z        X      Y      Z
   1   6     0.00   0.00   0.00     0.00   0.00   0.00    -0.00   0.00   0.00
   2   6    -0.01   0.00   0.01    -0.00  -0.00  -0.00     0.00  -0.00   0.00
   3   6    -0.04  -0.02  -0.02     0.00  -0.00   0.00     0.00   0.00   0.00
   4   6     0.29   0.06   0.09    -0.00   0.00   0.00     0.00   0.00   0.00
   5   6    -0.35  -0.25  -0.09     0.00  -0.00   0.00     0.00   0.00   0.00
   6   6     0.43  -0.00   0.16    -0.00  -0.00   0.00    -0.00  -0.00  -0.00
   7   6    -0.24   0.00  -0.09    -0.00   0.00   0.00     0.00  -0.00   0.00
   8   6     0.35   0.18   0.10     0.00  -0.00  -0.00    -0.00   0.00  -0.00
   9   6    -0.46   0.01  -0.17     0.00   0.00  -0.00     0.00   0.00  -0.00
  10   8    -0.03  -0.01  -0.01    -0.00   0.00   0.01    -0.00  -0.02   0.00
  11   6     0.02   0.01   0.00    -0.10   0.04   0.27    -0.17  -0.09  -0.05
  12   8     0.02  -0.00   0.01     0.00  -0.00  -0.00    -0.00  -0.00  -0.00
  13   1     0.00  -0.00   0.00     0.00   0.00   0.00     0.00  -0.00  -0.00
  14   1     0.00  -0.00  -0.00    -0.00  -0.00  -0.00    -0.00  -0.00  -0.00
  15   1    -0.00  -0.00  -0.00     0.00  -0.00   0.00     0.00  -0.00  -0.00
  16   1     0.01   0.00   0.00     0.00   0.00   0.00     0.00   0.00   0.00
  17   1     0.00  -0.01  -0.01     0.00   0.00   0.00    -0.01  -0.00  -0.00
  18   1    -0.02   0.00   0.00    -0.00   0.00  -0.00    -0.00   0.00  -0.00
  19   1     0.00  -0.00   0.00     0.00  -0.00   0.00     0.00  -0.01  -0.00
  20   1     0.05   0.09   0.00     0.00   0.00  -0.00    -0.00   0.00  -0.00
  21   1    -0.08   0.04  -0.04     0.00   0.00  -0.00     0.00   0.00  -0.00
  22   1     0.11  -0.04   0.05     0.00  -0.00  -0.00     0.00  -0.01   0.00
  23   1    -0.00  -0.00  -0.01     0.53   0.14  -0.42     0.49   0.12  -0.45
  24   1    -0.00  -0.01   0.00    -0.01   0.01   0.04    -0.01  -0.01  -0.00
  25   1    -0.01   0.00   0.00    -0.16  -0.27  -0.59     0.11   0.27   0.64
  26   1     0.02   0.02   0.00    -0.00   0.00   0.00     0.00   0.00   0.00
                     61                     62                     63
                        a                      a                      a 
 Frequencies --  2966.8731              2969.5109              2984.9665
 Red. masses --     1.9187                 1.8877                 1.4854
 Frc consts  --     0.0000                 0.0000                 0.0000
 IR Inten    --    59.2535                47.7610                88.6783
 Raman Activ --     0.0000                 0.0000                 0.0000
 Depolar     --     0.0000                 0.0000                 0.0000
 Atom AN      X      Y      Z        X      Y      Z        X      Y      Z
   1   6    -0.01  -0.01  -0.00    -0.01   0.00  -0.00     0.02  -0.01  -0.01
   2   6     0.19   0.19   0.09    -0.01   0.05   0.01    -0.12   0.14  -0.02
   3   6    -0.00  -0.02  -0.03     0.07  -0.20   0.18    -0.03  -0.02  -0.08
   4   6    -0.00  -0.00  -0.00     0.00  -0.01   0.01    -0.00  -0.00  -0.00
   5   6     0.00  -0.00   0.00    -0.00   0.00  -0.00     0.00  -0.00   0.00
   6   6    -0.00   0.00   0.00     0.00  -0.00   0.00    -0.00  -0.00   0.00
   7   6    -0.00  -0.00   0.00    -0.00   0.00  -0.00     0.00   0.00   0.00
   8   6    -0.00   0.00   0.00    -0.00  -0.00  -0.00     0.00  -0.00   0.00
   9   6     0.00   0.00  -0.00     0.00   0.00   0.00     0.00   0.00  -0.00
  10   8     0.00   0.00   0.00     0.00  -0.00   0.00    -0.00   0.00  -0.00
  11   6     0.00   0.00   0.00     0.00  -0.00  -0.00    -0.00  -0.00  -0.00
  12   8     0.00   0.00   0.00     0.00   0.00   0.00    -0.00  -0.00  -0.00
  13   1    -0.00   0.06   0.01    -0.00   0.00  -0.00     0.00   0.05   0.00
  14   1     0.06   0.01   0.03     0.01   0.00   0.00    -0.02  -0.01  -0.01
  15   1     0.01  -0.01  -0.01     0.00  -0.00  -0.00    -0.05   0.02   0.05
  16   1     0.03  -0.47  -0.07    -0.00  -0.22  -0.04    -0.02  -0.69  -0.12
  17   1    -0.73  -0.21  -0.27     0.06   0.03   0.02     0.46   0.17   0.18
  18   1     0.04  -0.07   0.11    -0.24   0.37  -0.73     0.09  -0.15   0.28
  19   1    -0.01   0.16   0.02    -0.00   0.35   0.07    -0.01   0.26   0.02
  20   1    -0.00   0.00  -0.00     0.01  -0.00   0.00    -0.00   0.00  -0.00
  21   1    -0.00  -0.00   0.00    -0.00  -0.00   0.00     0.00   0.00  -0.00
  22   1    -0.00  -0.00  -0.00    -0.00  -0.00  -0.00    -0.00  -0.00   0.00
  23   1    -0.00  -0.00   0.00    -0.00  -0.00   0.00     0.01   0.00  -0.00
  24   1    -0.00   0.00  -0.00    -0.00   0.00  -0.00     0.00  -0.00   0.00
  25   1    -0.00  -0.00  -0.00     0.00   0.00   0.00     0.00   0.00   0.01
  26   1    -0.00   0.00  -0.00     0.00  -0.00   0.00    -0.00   0.00  -0.00
                     64                     65                     66
                        a                      a                      a 
 Frequencies --  2987.0091              3026.0698              3028.9776
 Red. masses --     1.6331                 1.9275                 1.9276
 Frc consts  --     0.0000                 0.0000                 0.0000
 IR Inten    --   103.9228                91.3485                87.4454
 Raman Activ --     0.0000                 0.0000                 0.0000
 Depolar     --     0.0000                 0.0000                 0.0000
 Atom AN      X      Y      Z        X      Y      Z        X      Y      Z
   1   6    -0.00   0.02   0.01    -0.04  -0.26  -0.10    -0.28   0.01   0.04
   2   6     0.01  -0.11  -0.02    -0.01  -0.04  -0.01    -0.03   0.00  -0.01
   3   6    -0.01  -0.19  -0.08     0.00  -0.01   0.00    -0.00   0.01  -0.00
   4   6    -0.00  -0.01  -0.00     0.00  -0.00   0.00     0.00   0.00   0.00
   5   6    -0.00   0.00  -0.00    -0.00   0.00  -0.00    -0.00   0.00  -0.00
   6   6    -0.00  -0.00   0.00     0.00  -0.00   0.00    -0.00  -0.00   0.00
   7   6     0.00   0.00   0.00     0.00   0.00  -0.00     0.00   0.00   0.00
   8   6    -0.00  -0.00   0.00    -0.00  -0.00  -0.00     0.00  -0.00   0.00
   9   6     0.00   0.00   0.00     0.00   0.00  -0.00    -0.00  -0.00   0.00
  10   8    -0.00   0.00  -0.00    -0.00  -0.00  -0.00    -0.00   0.00  -0.00
  11   6    -0.00  -0.00  -0.00     0.00  -0.00   0.00    -0.00   0.00  -0.00
  12   8    -0.00  -0.00  -0.00    -0.00   0.00  -0.00    -0.00  -0.00  -0.00
  13   1    -0.00  -0.06  -0.01    -0.00   0.86   0.12    -0.04  -0.12  -0.01
  14   1    -0.00   0.00   0.00     0.30   0.06   0.10     0.65   0.22   0.27
  15   1     0.02  -0.01  -0.02    -0.17   0.02   0.14     0.39  -0.15  -0.41
  16   1     0.01   0.39   0.06     0.00   0.09   0.02    -0.00  -0.03  -0.01
  17   1    -0.03  -0.02  -0.01     0.03   0.01   0.01     0.07   0.03   0.02
  18   1     0.07  -0.14   0.21    -0.00   0.00  -0.01     0.00  -0.01   0.02
  19   1    -0.02   0.84   0.10    -0.00   0.03   0.01    -0.00  -0.01  -0.00
  20   1    -0.00   0.00  -0.00     0.00  -0.00   0.00     0.00  -0.00   0.00
  21   1     0.00   0.00  -0.00     0.00   0.00  -0.00     0.00   0.00  -0.00
  22   1    -0.00  -0.01  -0.00    -0.00  -0.01   0.00     0.00   0.01  -0.00
  23   1     0.00   0.00  -0.00     0.00   0.00  -0.00     0.00   0.00  -0.00
  24   1    -0.00   0.00  -0.00    -0.01   0.00  -0.00     0.01  -0.01   0.01
  25   1     0.00   0.00   0.00     0.00   0.00   0.00    -0.00  -0.00  -0.00
  26   1     0.00   0.00  -0.00     0.00  -0.00   0.00    -0.00   0.00   0.00
                     67                     68                     69
                        a                      a                      a 
 Frequencies --  3034.1462              3038.5910              3087.2898
 Red. masses --     1.7045                 1.2873                 1.7993
 Frc consts  --     0.0000                 0.0000                 0.0000
 IR Inten    --    17.5641                40.7595                54.2720
 Raman Activ --     0.0000                 0.0000                 0.0000
 Depolar     --     0.0000                 0.0000                 0.0000
 Atom AN      X      Y      Z        X      Y      Z        X      Y      Z
   1   6    -0.00   0.00   0.00     0.01   0.02  -0.16    -0.00  -0.00  -0.00
   2   6    -0.00   0.00  -0.00     0.00  -0.00  -0.00    -0.00  -0.00  -0.00
   3   6    -0.00   0.00  -0.00    -0.00   0.00   0.00     0.00  -0.00   0.00
   4   6    -0.00   0.00  -0.00     0.00  -0.00   0.00     0.01   0.00   0.00
   5   6     0.00  -0.00   0.00    -0.00   0.00  -0.00     0.17  -0.17   0.09
   6   6    -0.00  -0.00   0.00     0.00   0.00   0.00     0.02   0.07  -0.00
   7   6     0.00   0.00   0.00    -0.00  -0.00  -0.00     0.00   0.00  -0.00
   8   6    -0.00   0.00  -0.00    -0.00   0.00  -0.00    -0.00  -0.00   0.00
   9   6    -0.00  -0.00   0.00    -0.00  -0.00   0.00    -0.01  -0.02   0.00
  10   8     0.00  -0.01   0.00     0.00  -0.00   0.00    -0.00  -0.00  -0.00
  11   6     0.22  -0.09   0.09     0.00  -0.00   0.00    -0.00   0.00  -0.00
  12   8    -0.00  -0.00  -0.00     0.00   0.00   0.00     0.00  -0.00   0.00
  13   1    -0.00  -0.01  -0.00     0.00  -0.39  -0.08     0.00   0.00   0.00
  14   1     0.00   0.00   0.00     0.48   0.15   0.16     0.00   0.00   0.00
  15   1     0.01  -0.00  -0.01    -0.52   0.18   0.48    -0.00   0.00   0.00
  16   1    -0.00  -0.00  -0.00    -0.00   0.02   0.00    -0.00   0.00   0.00
  17   1     0.00   0.00   0.00    -0.01  -0.00  -0.01     0.00   0.00   0.00
  18   1     0.00  -0.00   0.00    -0.00   0.00  -0.01    -0.00   0.00  -0.01
  19   1    -0.00  -0.00  -0.00     0.00  -0.00  -0.00     0.00   0.00   0.00
  20   1    -0.00   0.00  -0.00     0.00  -0.00   0.00    -0.62   0.59  -0.31
  21   1     0.00   0.00  -0.00    -0.00  -0.00  -0.00    -0.07  -0.29   0.02
  22   1     0.00   0.01  -0.00     0.00   0.00  -0.00     0.02   0.09  -0.01
  23   1     0.04  -0.01   0.01     0.00   0.00  -0.00     0.00   0.00  -0.00
  24   1    -0.83   0.36  -0.35    -0.01   0.00  -0.00     0.00  -0.00   0.00
  25   1     0.03  -0.00   0.02    -0.00  -0.00  -0.00     0.00   0.00   0.00
  26   1     0.00   0.00  -0.00    -0.00  -0.00   0.00    -0.00   0.00  -0.00
                     70                     71                     72
                        a                      a                      a 
 Frequencies --  3101.8990              3106.9268              3432.2778
 Red. masses --     1.8196                 1.8646                 1.8649
 Frc consts  --     0.0000                 0.0000                 0.0000
 IR Inten    --    69.3016                57.1137               200.6285
 Raman Activ --     0.0000                 0.0000                 0.0000
 Depolar     --     0.0000                 0.0000                 0.0000
 Atom AN      X      Y      Z        X      Y      Z        X      Y      Z
   1   6    -0.00   0.00   0.00     0.00  -0.00   0.00     0.00   0.00  -0.00
   2   6    -0.00   0.00   0.00    -0.00  -0.00  -0.00    -0.00   0.00   0.00
   3   6     0.00   0.00   0.00    -0.00  -0.00  -0.00     0.00  -0.00  -0.00
   4   6     0.01   0.01   0.00    -0.00  -0.00  -0.00     0.00  -0.00   0.00
   5   6     0.00  -0.01   0.00    -0.07   0.06  -0.03    -0.00   0.00  -0.00
   6   6     0.01   0.06  -0.00     0.06   0.25  -0.02     0.00   0.00   0.00
   7   6     0.00  -0.00   0.00     0.01   0.00   0.00    -0.01   0.00  -0.00
   8   6    -0.01   0.01  -0.00     0.00  -0.00   0.00     0.00   0.00   0.00
   9   6     0.06   0.26  -0.02    -0.01  -0.05   0.00    -0.00  -0.00  -0.00
  10   8     0.00   0.00   0.00    -0.00   0.00  -0.00    -0.00  -0.00   0.00
  11   6     0.00   0.00   0.00    -0.00  -0.00  -0.00    -0.00   0.00  -0.00
  12   8     0.00   0.00   0.00    -0.00  -0.00   0.00    -0.13   0.19  -0.07
  13   1    -0.00  -0.01  -0.00    -0.00   0.00   0.00    -0.00  -0.00   0.00
  14   1     0.01   0.00   0.00    -0.00  -0.00  -0.00    -0.00  -0.00   0.00
  15   1     0.00  -0.00  -0.00     0.00  -0.00  -0.00     0.00  -0.00  -0.00
  16   1     0.00  -0.00  -0.00     0.00  -0.00  -0.00    -0.00  -0.00  -0.00
  17   1    -0.00  -0.00  -0.00     0.00   0.00   0.00     0.00   0.00   0.00
  18   1     0.00  -0.00   0.00     0.00  -0.00   0.00     0.00  -0.00   0.00
  19   1    -0.00  -0.01  -0.00     0.00   0.01   0.00    -0.00   0.00   0.00
  20   1    -0.02   0.02  -0.01     0.21  -0.20   0.11     0.00  -0.00   0.00
  21   1    -0.05  -0.20   0.01    -0.20  -0.87   0.06    -0.00  -0.01   0.00
  22   1    -0.21  -0.91   0.06     0.04   0.18  -0.01     0.00   0.00   0.00
  23   1    -0.01  -0.00   0.00     0.00   0.00  -0.00     0.00   0.00   0.00
  24   1    -0.01   0.00  -0.00    -0.00   0.00  -0.00     0.00   0.00  -0.00
  25   1    -0.00  -0.00  -0.01     0.00   0.00   0.00     0.00   0.00  -0.00
  26   1    -0.00  -0.00  -0.00    -0.01   0.01  -0.00     0.56  -0.73   0.31
