! r2scan-3c def2/J RI DEFGRID2 scfconv6 printgap
%output
    printlevel normal
end
%cpcm
    smd true
    smdsolvent "water"
end
* xyz 0 1
C -3.8884134155 0.3720723066 0.0236715021
C -2.6864621126 -0.5287646502 0.28105033
C -1.3752251623 0.179068932 -0.0504152138
C -0.1629514983 -0.7138404845 0.2228345533
C 1.1145425297 -0.0565414094 -0.2286205274
O 1.2616421413 0.5369947992 -1.2763105966
O 2.0845605132 -0.2163452829 0.6649341106
C 3.3758461804 0.3312769829 0.3799281655
H -3.8309105192 1.2686507638 0.6364582308
H -3.9202852535 0.6739207857 -1.0205961603
H -4.8127351271 -0.1483495819 0.2606327594
H -2.6771669717 -0.8311271712 1.3299562315
H -2.7731169671 -1.431531986 -0.3264902018
H -1.2928672449 1.0907377081 0.5451177458
H -1.3644800706 0.4708931614 -1.1025944973
H -0.2665531797 -1.6426425444 -0.3432556264
H -0.0759141572 -0.9584175602 1.2808195096
H 3.4366469717 1.3372134947 0.7950090634
H 3.5333024944 0.3710615659 -0.6984509133
H 4.0972363815 -0.3243058366 0.8592469156
*
