! pbe def2-sv(p) def2/J RI DEFGRID1 loosescf d4 GCP(DFT/SV(P)) printgap
%output
    printlevel normal
end
* xyz 0 1
C -1.9905021197 0.6619504572 -0.54929544
C -1.4903360222 -0.5843576526 0.1708507452
C -0.2171528101 -0.3015349017 0.9746954133
N 0.8884390887 -0.0187653139 0.0662518439
O 1.4276976441 1.0673165891 0.1374754717
O 1.2114219258 -0.8815272343 -0.7243882918
H -2.9044958469 0.4391125516 -1.091994991
H -2.197592814 1.4593629605 0.160078455
H -1.2531560799 1.0234075593 -1.2640570923
H -1.2797932378 -1.3751463842 -0.5512018042
H -2.253721463 -0.9420492442 0.8604526535
H -0.3380460916 0.5638876275 1.6268732888
H 0.0547268862 -1.1883872959 1.5504769764
*
