      -----------------------------------------------------------      
     |                   =====================                   |     
     |                           x T B                           |     
     |                   =====================                   |     
     |                         S. Grimme                         |     
     |          Mulliken Center for Theoretical Chemistry        |     
     |                    University of Bonn                     |     
      -----------------------------------------------------------      

   * xtb version 6.7.1 (edcfbbe) compiled by 'albert@albert-system' on 2024-07-22

   xtb is free software: you can redistribute it and/or modify it under
   the terms of the GNU Lesser General Public License as published by
   the Free Software Foundation, either version 3 of the License, or
   (at your option) any later version.
   
   xtb is distributed in the hope that it will be useful,
   but WITHOUT ANY WARRANTY; without even the implied warranty of
   MERCHANTABILITY or FITNESS FOR A PARTICULAR PURPOSE.  See the
   GNU Lesser General Public License for more details.
   
   Cite this work as:
   * C. Bannwarth, E. Caldeweyher, S. Ehlert, A. Hansen, P. Pracht,
     J. Seibert, S. Spicher, S. Grimme, WIREs Comput. Mol. Sci., 2020, 11,
     e01493. DOI: 10.1002/wcms.1493
   
   for GFN2-xTB:
   * C. Bannwarth, S. Ehlert and S. Grimme., J. Chem. Theory Comput., 2019,
     15, 1652-1671. DOI: 10.1021/acs.jctc.8b01176
   for GFN1-xTB:
   * S. Grimme, C. Bannwarth, P. Shushkov, J. Chem. Theory Comput., 2017,
     13, 1989-2009. DOI: 10.1021/acs.jctc.7b00118
   for GFN0-xTB:
   * P. Pracht, E. Caldeweyher, S. Ehlert, S. Grimme, ChemRxiv, 2019, preprint.
     DOI: 10.26434/chemrxiv.8326202.v1
   for GFN-FF:
   * S. Spicher and S. Grimme, Angew. Chem. Int. Ed., 2020, 59, 15665-15673.
     DOI: 10.1002/anie.202004239
   
   for ALPB and GBSA implicit solvation:
   * S. Ehlert, M. Stahn, S. Spicher, S. Grimme, J. Chem. Theory Comput.,
     2021, 17, 4250-4261. DOI: 10.1021/acs.jctc.1c00471
   
   for ddCOSMO and CPCM-X implicit solvation:
   * M. Stahn, S. Ehlert, S. Grimme, J. Phys. Chem. A,
     2023, XX, XXXX-XXXX. DOI: 10.1021/acs.jpca.3c04382
   
   for DFT-D4:
   * E. Caldeweyher, C. Bannwarth and S. Grimme, J. Chem. Phys., 2017,
     147, 034112. DOI: 10.1063/1.4993215
   * E. Caldeweyher, S. Ehlert, A. Hansen, H. Neugebauer, S. Spicher,
     C. Bannwarth and S. Grimme, J. Chem. Phys., 2019, 150, 154122.
     DOI: 10.1063/1.5090222
   * E. Caldeweyher, J.-M. Mewes, S. Ehlert and S. Grimme, Phys. Chem. Chem. Phys.
     2020, 22, 8499-8512. DOI: 10.1039/D0CP00502A
   
   for sTDA-xTB:
   * S. Grimme and C. Bannwarth, J. Chem. Phys., 2016, 145, 054103.
     DOI: 10.1063/1.4959605
   
   in the mass-spec context:
   * V. Asgeirsson, C. Bauer and S. Grimme, Chem. Sci., 2017, 8, 4879.
     DOI: 10.1039/c7sc00601b
   * J. Koopman and S. Grimme, ACS Omega 2019, 4, 12, 15120-15133.
     DOI: 10.1021/acsomega.9b02011
   
   for metadynamics refer to:
   * S. Grimme, J. Chem. Theory Comput., 2019, 155, 2847-2862
     DOI: 10.1021/acs.jctc.9b00143
   
   for SPH calculations refer to:
   * S. Spicher and S. Grimme, J. Chem. Theory Comput., 2021, 17, 1701-1714
     DOI: 10.1021/acs.jctc.0c01306
   
   for ONIOM refer to:
   * C. Plett, A. Katbashev, S. Ehlert, S. Grimme, M. Bursch,
     Phys. Chem. Chem. Phys., 2023, 25, 17860-17868. DOI: 10.1039/D3CP02178E
   
   for DIPRO refer to:
   * J. Kohn, N. Gildemeister, S. Grimme, D. Fazzi, A. Hansen,
     J. Chem. Phys., 2023, just accepted.
   
   for PTB refer to:
   * S. Grimme, M. Mueller, A. Hansen, J. Chem. Phys., 2023, 158, 124111.
     DOI: 10.1063/5.0137838
   
   with help from (in alphabetical order)
   P. Atkinson, C. Bannwarth, F. Bohle, G. Brandenburg, E. Caldeweyher
   M. Checinski, S. Dohm, S. Ehlert, S. Ehrlich, I. Gerasimov, C. Hölzer
   A. Katbashev, J. Kohn, J. Koopman, C. Lavigne, S. Lehtola, F. März, M. Müller,
   F. Musil, H. Neugebauer, J. Pisarek, C. Plett, P. Pracht, F. Pultar,
   J. Seibert, P. Shushkov, S. Spicher, M. Stahn, M. Steiner, T. Strunk,
   J. Stückrath, T. Rose, and J. Unsleber
   
 * started run on 2025/04/11 at 14:14:41.649     
   ID    Z sym.   atoms
    1    6 C      1-7
    2    1 H      8-23

           -------------------------------------------------
          |                Calculation Setup                |
           -------------------------------------------------

          program call               : /software/projects/pawsey0265/mwang1/xtb/bin/xtb xtb_opt.coord --opt normal --orca -I xtb_opt-xcontrol-inp
          hostname                   : nid001220
          coordinate file            : xtb_opt.coord
          omp threads                :                   108

           -------------------------------------------------
          |                   Orca driver                   |
           -------------------------------------------------
orca executable           : /software/projects/pawsey0265/mwang1/orca_avx2/orca
orca input file           : xtb_opt.inp
orca input line           : 
orca parallel             : true
orca number of threads    : 108
                         * ORCA takes the control...
  ------------------------------------------------------------------------

                                 *****************
                                 * O   R   C   A *
                                 *****************

                                            #,                                       
                                            ###                                      
                                            ####                                     
                                            #####                                    
                                            ######                                   
                                           ########,                                 
                                     ,,################,,,,,                         
                               ,,#################################,,                 
                          ,,##########################################,,             
                       ,#########################################, ''#####,          
                    ,#############################################,,   '####,        
                  ,##################################################,,,,####,       
                ,###########''''           ''''###############################       
              ,#####''   ,,,,##########,,,,          '''####'''          '####       
            ,##' ,,,,###########################,,,                        '##       
           ' ,,###''''                  '''############,,,                           
         ,,##''                                '''############,,,,        ,,,,,,###''
      ,#''                                            '''#######################'''  
     '                                                          ''''####''''         
             ,#######,   #######,   ,#######,      ##                                
            ,#'     '#,  ##    ##  ,#'     '#,    #''#        ,####,   ,####,        
            ##       ##  ##   ,#'  ##            #'  '#       #'       #'  '#        
            ##       ##  #######   ##           ,######,      #####,   #    #        
            '#,     ,#'  ##    ##  '#,     ,#' ,#      #,     #,   #   #,  ,#        
             '#######'   ##     ##  '#######'  #'      '#     '####' # '####'        



                #########################################################
                #                        -***-                          #
                #          Department of theory and spectroscopy        #
                #                                                       #
                #                      Frank Neese                      #
                #                                                       #
                #     Directorship, Architecture, Infrastructure        #
                #                    SHARK, DRIVERS                     #
                #        Core code/Algorithms in most modules           #
                #                                                       #
                #        Max Planck Institute fuer Kohlenforschung      #
                #                Kaiser Wilhelm Platz 1                 #
                #                 D-45470 Muelheim/Ruhr                 #
                #                      Germany                          #
                #                                                       #
                #                  All rights reserved                  #
                #                        -***-                          #
                #########################################################


                         Program Version 6.0.1  -  RELEASE   -


 With contributions from (in alphabetic order):
[Max-Planck-Institut fuer Kohlenforschung]                               
  Daniel Aravena         : Magnetic Suceptibility                        
  Michael Atanasov       : Ab Initio Ligand Field Theory (pilot matlab implementation)
  Alexander A. Auer      : GIAO ZORA, VPT2 properties, NMR spectrum      
  Ute Becker             : All parallelization in ORCA, NUMFREQ, NUMCALC 
  Giovanni Bistoni       : ED, misc. LED, open-shell LED, HFLD           
  Martin Brehm           : Molecular dynamics                            
  Dmytro Bykov           : pre 5.0 version of the SCF Hessian            
  Marcos Casanova-Páez   : Triplet and SCS-CIS(D). UHF-(DLPNO)-IP/EA/STEOM-CCSD. UHF-CVS-IP/STEOM-CCSD   
  Vijay G. Chilkuri      : MRCI spin determinant printing, contributions to CSF-ICE 
  Pauline Colinet        : FMM embedding                                 
  Dipayan Datta          : RHF DLPNO-CCSD density                        
  Achintya Kumar Dutta   : EOM-CC, STEOM-CC                              
  Nicolas Foglia         : Exact transition moments, OPA infrastructure, MCD improvements    
  Dmitry Ganyushin       : Spin-Orbit,Spin-Spin,Magnetic field MRCI      
  Miquel Garcia-Rates    : C-PCM and meta-GGA Hessian, CCSD/C-PCM, Gaussian charge scheme 
  Tiago L. C. Gouveia    : GS-ROHF, GS-ROCIS                             
  Yang Guo               : DLPNO-NEVPT2, F12-NEVPT2, CIM, IAO-localization        
  Andreas Hansen         : Spin unrestricted coupled pair/coupled cluster methods 
  Ingolf Harden          : AUTO-CI MPn and infrastructure                
  Benjamin Helmich-Paris : MC-RPA, TRAH-(SCF,CASSCF), AVAS, COSX integrals, SCF dyn. polar. 
  Lee Huntington         : MR-EOM, pCC                                   
  Robert Izsak           : Overlap fitted RIJCOSX, COSX-SCS-MP3, EOM     
  Riya Kayal             : Wick's Theorem for AUTO-CI, AUTO-CI UHF-CCSDT 
  Emily Kempfer          : AUTO-CI, RHF CISDT and CCSDT                  
  Christian Kollmar      : KDIIS, OOCD, Brueckner-CCSD(T), CCSD density, CASPT2, CASPT2-K, improved NEVPT2 
  Axel Koslowski         : Symmetry handling                             
  Simone Kossmann        : meta-GGA functionals, TD-DFT gradient, OOMP2, (MP2 Hessian; deprecated post 5.0) 
  Lucas Lang             : DCDCAS                                        
  Marvin Lechner         : AUTO-CI (C++ implementation), FIC-MRCC        
  Spencer Leger          : CASSCF response                               
  Dagmar Lenk            : GEPOL surface, SMD, ORCA-2-JSON               
  Dimitrios Liakos       : Extrapolation schemes; Compound Job, initial MDCI parallelization 
  Dimitrios Manganas     : Further ROCIS development; embedding schemes. LFT, Crystal Embedding 
  Dimitrios Pantazis     : SARC Basis sets                               
  Anastasios Papadopoulos: AUTO-CI, single reference methods and gradients 
  Taras Petrenko         : pre 6.0 DFT Hessian and TD-DFT gradient, (ASA, deprecated), ECA, 1-Electron XAS/XES, NRVS 
  Peter Pinski           : DLPNO-MP2, DLPNO-MP2 Gradient                 
  Christoph Reimann      : Effective Core Potentials                     
  Marius Retegan         : Local ZFS, SOC                                
  Christoph Riplinger    : Optimizer, TS searches, QM/MM, DLPNO-CCSD(T), (RO)-DLPNO pert. Triples 
  Michael Roemelt        : Original ROCIS implementation                 
  Masaaki Saitow         : Open-shell DLPNO-CCSD energy and density      
  Barbara Sandhoefer     : DKH picture change effects                    
  Kantharuban Sivalingam : CASSCF convergence/infrastructure, NEVPT2 and variants, FIC-MRCI 
  Bernardo de Souza      : ESD, SOC TD-DFT                               
  Georgi L. Stoychev     : AutoAux, RI-MP2 NMR, DLPNO-MP2 response, X2C  
  Van Anh Tran           : RI-MP2 g-tensors                              
  Willem Van den Heuvel  : Paramagnetic NMR                              
  Zikuan Wang            : NOTCH, Electric field optimization            
  Frank Wennmohs         : Technical directorship and infrastructure     
  Hang Xu                : AUTO-CI-Response properties                   
                                                                         
[FACCTs GmbH]                                                            
  Markus Bursch, Miquel Garcia-Rates, Christoph Riplinger, Bernardo de Souza, Georgi L. Stoychev 
                                                                 
  APM, Basis sets (HGBS, AHGBS, def-TZVP (Ac-Lr), def2-XVPD (La-Lu)), CI-OPT, improved COSX, DLPNO-Multilevel,           
  DOCKER, DRACO, updates on ESD, GOAT, IRC, LR-CPCM, MBIS, meta-GGA TD-DFT gradient, ML-optimized integration grids, 
  MM, NACMEs, nearIR, NEB, NEB-TS, NL-DFT gradient (VV10), 2- and 3-layer-ONIOM, interface openCOSMO-RS, QMMM,   
  Crystal-QMMM, SF, symmetry and pop. for TD-DFT, r2SCAN hybrids, SOLVATOR                                   
                                                                         
[Other institutions]                                                     
  V. Asgeirsson          : NEB                                           
  Christoph Bannwarth    : sTDA-DFT, sTD-DFT, PBEh-3c, B97-3c, D3        
  Sebastian Ehlert       : rSCAN, r2SCAN, r2SCAN-3c, D4, dhf basis sets  
  Marvin Friede          : D4 for Fr, Ra, Ac-Lr                          
  Lars Goerigk           : TD-DFT with DH, B97 family of functionals     
  Stefan Grimme          : VdW corrections, initial TS optimization, DFT functionals, gCP, sTDA/sTD-DF 
  Waldemar Hujo          : DFT-NL                                        
  H. Jonsson             : NEB                                           
  Holger Kruse           : gCP                                           
  Marcel Mueller         : wB97X-3c, vDZP basis set                      
  Hagen Neugebauer       : wr2SCAN                                       
  Tobias Risthaus        : range-separated hybrid DFT                    
  Lukas Wittmann         : regularized MP2, r2SCAN double-hybrids, wr2SCAN        
                                                                         
We gratefully acknowledge several colleagues who have allowed us to      
interface, adapt or use parts of their codes:                            
  Ed Valeev, F. Pavosevic, A. Kumar             : LibInt (2-el integral package), F12 methods 
  Garnet Chan, S. Sharma, J. Yang, R. Olivares  : DMRG                   
  Ulf Ekstrom                                   : XCFun DFT Library      
  Mihaly Kallay                                 : mrcc  (arbitrary order and MRCC methods)
  Frank Weinhold                                : gennbo (NPA and NBO analysis)           
  Simon Mueller                                 : openCOSMO-RS                            
  Christopher J. Cramer and Donald G. Truhlar   : smd solvation model                     
  S Lehtola, MJT Oliveira, MAL Marques          : LibXC Library                           
  Liviu Ungur et al                             : ANISO software                          


 Your calculation uses the libint2 library for the computation of 2-el integrals
 For citations please refer to: http://libint.valeyev.net

 Your ORCA version has been built with support for libXC version: 6.2.2
 For citations please refer to: https://libxc.gitlab.io

 This ORCA versions uses:
   CBLAS   interface :  Fast vector & matrix operations
   LAPACKE interface :  Fast linear algebra routines
   SCALAPACK package :  Parallel linear algebra routines
   Shared memory     :  Shared parallel matrices
   BLAS/LAPACK       :  OpenBLAS 0.3.27  USE64BITINT DYNAMIC_ARCH NO_AFFINITY Zen SINGLE_THREADED
        Core in use  :  Zen
   Copyright (c) 2011-2014, The OpenBLAS Project




***************************************
The coordinates will be read from file: xtb_opt.xyz
***************************************


Your calculation utilizes the geometrical counterpoise correction gCP
Please cite in your paper:
H.Kruse, S. Grimme J.Chem.Phys., 136, (2012), 154101 
   

Your calculation utilizes the atom-pairwise dispersion correction
based on EEQ partial charges (D4)


Your calculation utilizes the SMD solvation module
Please cite in your paper:
A.V. Marenich, C.J. Cramer, D.G. Truhlar J. Phys. Chem. B, 113, (2009), 6378 

================================================================================

----- Orbital basis set information -----
Your calculation utilizes the basis: def2-mTZVPP
   Stefan Grimme, Andreas Hansen, Sebastian Ehlert, and Jan-Michael Mewes 
   J. Chem. Phys. 154, 064103 (2021). DOI: 10.1063/5.0040021

----- AuxJ basis set information -----
Your calculation utilizes the auxiliary basis: def2/J
   F. Weigend, Phys. Chem. Chem. Phys. 8, 1057 (2006).

================================================================================
                                        WARNINGS
                       Please study these warnings very carefully!
================================================================================



WARNING: SCAN, rSCAN, or r2SCAN functional requested.
  ===> : libXC variant has now been activated.



================================================================================
                                       INPUT FILE
================================================================================
NAME = xtb_opt.inp
|  1> ! r2scan-3c def2/J RI DEFGRID2 scfconv7 ENGRAD tightSCF miniprint
|  2> %cpcm
|  3>     smd true
|  4>     smdsolvent "water"
|  5> end
|  6> * xyzfile 0 1 xtb_opt.xyz
|  7> 
|  8>                          ****END OF INPUT****
================================================================================

                     *******************************
                     * Energy+Gradient Calculation *
                     *******************************

---------------------------------
CARTESIAN COORDINATES (ANGSTROEM)
---------------------------------
  C      2.317641    0.639495    0.756819
  C      2.253812   -0.456766   -0.299999
  C      0.885965   -1.136550   -0.394339
  C     -0.235654   -0.202900   -0.872832
  C     -1.142862    0.318961    0.249735
  C     -1.936105    1.531978   -0.234192
  C     -2.102468   -0.768976    0.727990
  H      3.325811    1.043107    0.819613
  H      1.640879    1.453944    0.512878
  H      2.046558    0.242892    1.732943
  H      3.001973   -1.217787   -0.064127
  H      2.511679   -0.034658   -1.274283
  H      0.977173   -1.974848   -1.088253
  H      0.631802   -1.551628    0.582442
  H      0.211893    0.646150   -1.393548
  H     -0.864077   -0.725929   -1.597191
  H     -0.520311    0.627699    1.094974
  H     -2.594974    1.895714    0.550910
  H     -1.267926    2.340691   -0.522170
  H     -2.544049    1.266124   -1.096590
  H     -2.771226   -1.062218   -0.078861
  H     -2.704877   -0.407009    1.558157
  H     -1.560937   -1.651371    1.059364

----------------------------
CARTESIAN COORDINATES (A.U.)
----------------------------
  NO LB      ZA    FRAG     MASS         X           Y           Z
   0 C     6.0000    0    12.011    4.379708    1.208471    1.430180
   1 C     6.0000    0    12.011    4.259088   -0.863162   -0.566915
   2 C     6.0000    0    12.011    1.674232   -2.147769   -0.745193
   3 C     6.0000    0    12.011   -0.445322   -0.383425   -1.649413
   4 C     6.0000    0    12.011   -2.159696    0.602749    0.471931
   5 C     6.0000    0    12.011   -3.658709    2.895019   -0.442558
   6 C     6.0000    0    12.011   -3.973088   -1.453153    1.375702
   7 H     1.0000    0     1.008    6.284873    1.971187    1.548844
   8 H     1.0000    0     1.008    3.100811    2.747557    0.969199
   9 H     1.0000    0     1.008    3.867434    0.458998    3.274788
  10 H     1.0000    0     1.008    5.672906   -2.301284   -0.121183
  11 H     1.0000    0     1.008    4.746385   -0.065495   -2.408046
  12 H     1.0000    0     1.008    1.846589   -3.731922   -2.056501
  13 H     1.0000    0     1.008    1.193932   -2.932153    1.100657
  14 H     1.0000    0     1.008    0.400420    1.221046   -2.633425
  15 H     1.0000    0     1.008   -1.632869   -1.371807   -3.018254
  16 H     1.0000    0     1.008   -0.983245    1.186179    2.069202
  17 H     1.0000    0     1.008   -4.903790    3.582381    1.041069
  18 H     1.0000    0     1.008   -2.396032    4.423266   -0.986758
  19 H     1.0000    0     1.008   -4.807556    2.392628   -2.072255
  20 H     1.0000    0     1.008   -5.236859   -2.007301   -0.149025
  21 H     1.0000    0     1.008   -5.111477   -0.769136    2.944489
  22 H     1.0000    0     1.008   -2.949744   -3.120639    2.001908

------------------------------------------------------------------------------
                   ___                                                        
                  /   \      - P O W E R E D   B Y -                         
                 /     \                                                     
                 |  |  |   _    _      __       _____    __    __             
                 |  |  |  | |  | |    /  \     |  _  \  |  |  /  |          
                  \  \/   | |  | |   /    \    | | | |  |  | /  /          
                 / \  \   | |__| |  /  /\  \   | |_| |  |  |/  /          
                |  |  |   |  __  | /  /__\  \  |    /   |      \           
                |  |  |   | |  | | |   __   |  |    \   |  |\   \          
                \     /   | |  | | |  |  |  |  | |\  \  |  | \   \       
                 \___/    |_|  |_| |__|  |__|  |_| \__\ |__|  \__/        
                                                                              
                      - O R C A' S   B I G   F R I E N D -                    
                                      &                                       
                       - I N T E G R A L  F E E D E R -                       
                                                                              
 v1 FN, 2020, v2 2021, v3 2022-2024                                           
------------------------------------------------------------------------------


----------------------
SHARK INTEGRAL PACKAGE
----------------------

Number of atoms                             ...     23
Number of basis functions                   ...    213
Number of shells                            ...    111
Maximum angular momentum                    ...      2
Integral batch strategy                     ... SHARK/LIBINT Hybrid
RI-J (if used) integral strategy            ... SPLIT-RIJ (Revised 2003 algorithm where possible)
Printlevel                                  ...      1
Contraction scheme used                     ... SEGMENTED contraction
Prescreening option                         ... SCHWARTZ
   Thresh                                   ... 3.000e-11
   Tcut                                     ... 1.000e-12
   Tpresel                                  ... 1.000e-12 
Coulomb Range Separation                    ... NOT USED
Exchange Range Separation                   ... NOT USED
Multipole approximations                    ... NOT USED
Finite Nucleus Model                        ... NOT USED
CABS basis                                  ... NOT available
Auxiliary Coulomb fitting basis             ... AVAILABLE
   # of basis functions in Aux-J            ...    519
   # of shells in Aux-J                     ...    185
   Maximum angular momentum in Aux-J        ...      4
Auxiliary J/K fitting basis                 ... NOT available
Auxiliary Correlation fitting basis         ... NOT available
Auxiliary 'external' fitting basis          ... NOT available

Checking pre-screening integrals            ... done (  0.0 sec) Dimension = 111
Check shell pair data                       ... done (  0.0 sec)
Shell pair information
Shell pair cut-off parameter TPreSel        ...   1.0e-12
Total number of shell pairs                 ...      6216
Shell pairs after pre-screening             ...      5696
Total number of primitive shell pairs       ...     21523
Primitive shell pairs kept                  ...     14322
          la=0 lb=0:   2084 shell pairs
          la=1 lb=0:   2270 shell pairs
          la=1 lb=1:    640 shell pairs
          la=2 lb=0:    432 shell pairs
          la=2 lb=1:    242 shell pairs
          la=2 lb=2:     28 shell pairs

Calculating one electron integrals          ... done (  0.0 sec)
Calculating RI/J V-Matrix + Cholesky decomp.... done (  0.0 sec)
Calculating Nuclear repulsion               ... done (  0.0 sec) ENN=    329.572791438660 Eh

Diagonalization of the overlap matrix:
Smallest eigenvalue                        ... 1.778e-04
Time for diagonalization                   ...    0.008 sec
Threshold for overlap eigenvalues          ... 1.000e-07
Number of eigenvalues below threshold      ... 0
Time for construction of square roots      ...    0.005 sec
Total time needed                          ...    0.015 sec

-------------------
DFT GRID GENERATION
-------------------

General Integration Accuracy     IntAcc      ... 4.388
Radial Grid Type                 RadialGrid  ... OptM3 with GC (2021)
Angular Grid (max. ang.)         AngularGrid ... 4 (Lebedev-302)
Angular grid pruning method      GridPruning ... 4 (adaptive)
Weight generation scheme         WeightScheme... mBecke (2022)
Basis function cutoff            BFCut       ... 1.0000e-11
Integration weight cutoff        WCut        ... 1.0000e-14
Partially contracted basis set               ... off
Rotationally invariant grid construction     ... off
Angular grids for H and He will be reduced by one unit

Total number of grid points                  ...    92970
Total number of batches                      ...     1465
Average number of points per batch           ...       63
Average number of grid points per atom       ...     4042
Initializing property integral containers    ... done (  0.0 sec)

SHARK setup successfully completed in   1.2 seconds

Maximum memory used throughout the entire STARTUP-calculation: 39.9 MB
Occupation numbers will be reassigned to an Aufbau configuration
             **** ENERGY FILE WAS UPDATED (xtb_opt.en.tmp) ****
Finished Guess after   0.1 sec
Maximum memory used throughout the entire GUESS-calculation: 15.7 MB
--------------------
CPCM SOLVATION MODEL
--------------------
CPCM parameters:
  Epsilon                                         ...      78.3550
  Refrac                                          ...       1.3328
  Rsolv                                           ...       1.3000
  Surface type                                    ... GAUSSIAN VDW
  Discretization scheme                           ... Constant charge density
    Threshold for H atoms                         ...       5.0000 (charges/Ang^2)
    Threshold for non-H atoms                     ...       5.0000 (charges/Ang^2)
  Epsilon function type                           ...         CPCM
Solvent:                                          ... WATER
SMD-CDS solvent descriptors:
  Soln                                            ...       1.3328
  Soln25                                          ...       1.3323
  Sola                                            ...       0.0000
  Solb                                            ...       0.0000
  Solg                                            ...       0.0000
  Solc                                            ...       0.0000
  Solh                                            ...       0.0000
Radii:
  Scheme                                          ... Element-dependent radii
  Radius for C  used is    3.4960 Bohr (=   1.8500 Ang.)
  Radius for H  used is    2.2677 Bohr (=   1.2000 Ang.)
Calculating surface                               ...        done! (  0.0s)
Cavity surface points                             ...         1684
Cavity Volume                                     ...     915.6314
Cavity Surface-area                               ...     595.3078
Calculating surface distance matrix               ...        done! (  0.0s)
Performing Cholesky decomposition & store         ...        done! (  0.1s)
Overall time for CPCM initialization              ...                 0.1s

----------------------------------------D-I-I-S--------------------------------------------
Iteration    Energy (Eh)           Delta-E    RMSDP     MaxDP     DIISErr   Damp  Time(sec)
-------------------------------------------------------------------------------------------
               ***  Starting incremental Fock matrix formation  ***
                              *** Initializing SOSCF ***
---------------------------------------S-O-S-C-F--------------------------------------
Iteration    Energy (Eh)           Delta-E    RMSDP     MaxDP     MaxGrad    Time(sec)
--------------------------------------------------------------------------------------
    1    -276.2908941105176837     0.00e+00  5.35e-06  9.29e-05  8.85e-06     2.5
               *** Restarting incremental Fock matrix formation ***
    2    -276.2908941441442039    -3.36e-08  5.41e-06  9.74e-05  2.18e-05     2.5
                  *** Gradient check signals convergence ***

               *****************************************************
               *                     SUCCESS                       *
               *           SCF CONVERGED AFTER   2 CYCLES          *
               *****************************************************


SMD CDS free energy correction energy :                 3.77000     Kcal/mol
Total Energy after SMD CDS correction =              -276.284886266 Eh
             **** ENERGY FILE WAS UPDATED (xtb_opt.en.tmp) ****

----------------
TOTAL SCF ENERGY
----------------

Total Energy       :       -276.28488626613512 Eh           -7518.09397 eV

Components:
Nuclear Repulsion  :        329.57279143866049 Eh            8968.13159 eV
Electronic Energy  :       -605.86117682637257 Eh          -16486.32077 eV
One Electron Energy:      -1023.34073614602892 Eh          -27846.51712 eV
Two Electron Energy:        417.47955931965635 Eh           11360.19635 eV
CPCM Dielectric    :         -0.00250875643213 Eh              -0.06827 eV
SMD CDS (Gcds)     :          0.00600787800909 Eh               0.16348 eV

Virial components:
Potential Energy   :       -551.24679800363128 Eh          -15000.18797 eV
Kinetic Energy     :        274.96191173749617 Eh            7482.09400 eV
Virial Ratio       :          2.00481148287150

DFT components:
N(Alpha)           :       29.000102824675 electrons
N(Beta)            :       29.000102824675 electrons
N(Total)           :       58.000205649351 electrons
E(X)               :      -42.135925288738 Eh       
E(C)               :       -1.780025178333 Eh       
E(XC)              :      -43.915950467071 Eh       

CPCM Solvation Model Properties:
Surface-charge          :         -0.05245439311459
Corrected charge        :          0.00000000000000
Outlying charge corr.   :          0.00020943701421 Eh               0.00570 eV
Free-energy (cav+disp)  :          0.00600787800909 Eh               0.16348 eV

---------------
SCF CONVERGENCE
---------------

  Last Energy change         ...    3.3627e-08  Tolerance :   1.0000e-07
  Last MAX-Density change    ...    9.7354e-05  Tolerance :   1.0000e-07
  Last RMS-Density change    ...    5.4114e-06  Tolerance :   5.0000e-09
  Last DIIS Error            ...    1.0755e-04  Tolerance :   1.0000e-07
  Last Orbital Gradient      ...    2.1776e-05  Tolerance :   1.0000e-04
  Last Orbital Rotation      ...    3.7861e-05  Tolerance :   1.0000e-04


----------------
ORBITAL ENERGIES
----------------

  NO   OCC          E(Eh)            E(eV) 
   0   2.0000     -10.021495      -272.6987 
   1   2.0000     -10.014251      -272.5016 
   2   2.0000     -10.011245      -272.4198 
   3   2.0000     -10.009732      -272.3787 
   4   2.0000     -10.005940      -272.2755 
   5   2.0000     -10.004710      -272.2420 
   6   2.0000     -10.004510      -272.2366 
   7   2.0000      -0.773653       -21.0522 
   8   2.0000      -0.735438       -20.0123 
   9   2.0000      -0.668207       -18.1828 
  10   2.0000      -0.640160       -17.4196 
  11   2.0000      -0.600101       -16.3296 
  12   2.0000      -0.531589       -14.4653 
  13   2.0000      -0.513542       -13.9742 
  14   2.0000      -0.433982       -11.8092 
  15   2.0000      -0.413186       -11.2434 
  16   2.0000      -0.395898       -10.7729 
  17   2.0000      -0.391655       -10.6575 
  18   2.0000      -0.379313       -10.3216 
  19   2.0000      -0.351434        -9.5630 
  20   2.0000      -0.344448        -9.3729 
  21   2.0000      -0.334965        -9.1149 
  22   2.0000      -0.321931        -8.7602 
  23   2.0000      -0.310543        -8.4503 
  24   2.0000      -0.295576        -8.0430 
  25   2.0000      -0.292290        -7.9536 
  26   2.0000      -0.275277        -7.4907 
  27   2.0000      -0.268090        -7.2951 
  28   2.0000      -0.264316        -7.1924 
  29   0.0000       0.092651         2.5212 
  30   0.0000       0.106926         2.9096 
  31   0.0000       0.116200         3.1620 
  32   0.0000       0.122121         3.3231 
  33   0.0000       0.132390         3.6025 
  34   0.0000       0.141109         3.8398 
  35   0.0000       0.144149         3.9225 
  36   0.0000       0.153384         4.1738 
  37   0.0000       0.157732         4.2921 
  38   0.0000       0.165511         4.5038 
  39   0.0000       0.170233         4.6323 
*Only the first 10 virtual orbitals were printed.
Total SCF time: 0 days 0 hours 0 min 5 sec 
Finished LeanSCF after   6.9 sec

Maximum memory used throughout the entire LEANSCF-calculation: 35.6 MB


-------------------------------------------------------------------------------
                          DFT DISPERSION CORRECTION                            
                                                                               
                                DFTD4 V3.4.0                                   
-------------------------------------------------------------------------------
-------------------------   ----------------
Dispersion correction           -0.006274555
-------------------------   ----------------

------------------   -----------------
gCP correction             0.010851249
------------------   -----------------

-------------------------   --------------------
FINAL SINGLE POINT ENERGY      -276.280309572796
-------------------------   --------------------

------------------------------------------------------------------------------
                         ORCA SCF GRADIENT CALCULATION
------------------------------------------------------------------------------

Nuc. rep. gradient        (SHARK) ... done (  0.0 sec)
HCore & Overlap gradient  (SHARK) ... done (  0.3 sec)
Split-RIJ-J gradient      (SHARK) ... done (  1.3 sec)
XC gradient                       ... done (  6.4 sec)
CPCM gradient                     ... done (  1.8 sec)
SMD gradient                      ... done (  0.0 sec)
Dispersion correction             ... done (  0.0 sec)

-------------------
DISPERSION GRADIENT
-------------------

   1   C   :    0.000102567    0.000036644    0.000043783
   2   C   :    0.000098929   -0.000020791   -0.000016531
   3   C   :    0.000050959   -0.000067421   -0.000023765
   4   C   :   -0.000015330   -0.000012825   -0.000055792
   5   C   :   -0.000068426    0.000015975    0.000011312
   6   C   :   -0.000084080    0.000078482   -0.000015399
   7   C   :   -0.000094941   -0.000043087    0.000039651
   8   H   :    0.000036881    0.000016257    0.000014620
   9   H   :    0.000050621    0.000023349    0.000015377
  10   H   :    0.000047573    0.000010165    0.000029998
  11   H   :    0.000034106   -0.000011842   -0.000000123
  12   H   :    0.000037694   -0.000003795   -0.000012921
  13   H   :    0.000021850   -0.000036878   -0.000024819
  14   H   :    0.000019487   -0.000030662    0.000000474
  15   H   :    0.000002100    0.000006257   -0.000030249
  16   H   :   -0.000014565   -0.000016085   -0.000030960
  17   H   :   -0.000027546    0.000011068    0.000014556
  18   H   :   -0.000028696    0.000030624    0.000004862
  19   H   :   -0.000030609    0.000047220   -0.000010456
  20   H   :   -0.000028746    0.000026147   -0.000011663
  21   H   :   -0.000037303   -0.000016702    0.000008357
  22   H   :   -0.000035514   -0.000011126    0.000025952
  23   H   :   -0.000037012   -0.000030974    0.000023740

Difference to translation invariance:
           :    0.0000000000   -0.0000000000   -0.0000000000

Difference to rotation invariance:
           :    0.0000000000   -0.0000000000    0.0000000000

Norm of the Dispersion gradient    ...    0.0003138041
RMS gradient                       ...    0.0000377776
MAX gradient                       ...    0.0001025672
gCP correction                   ... done

------------------
CARTESIAN GRADIENT
------------------

   1   C   :   -0.001098353    0.003865265    0.004803452
   2   C   :    0.002910600    0.001087694   -0.004134378
   3   C   :   -0.002798080   -0.002286398    0.005322498
   4   C   :   -0.001028059    0.001254424   -0.006574005
   5   C   :    0.004213050   -0.000733378    0.005052431
   6   C   :   -0.004185571    0.003567376   -0.003981214
   7   C   :   -0.005221772   -0.003924790   -0.000360530
   8   H   :   -0.003911528   -0.003098325   -0.001282162
   9   H   :    0.003102193   -0.004822515   -0.000147267
  10   H   :    0.001296468    0.000652479   -0.004995015
  11   H   :   -0.002850329    0.001549376    0.000514562
  12   H   :   -0.001496556   -0.000119319    0.003221791
  13   H   :   -0.000063713    0.003456971    0.000385256
  14   H   :    0.001016600    0.002889893   -0.003144618
  15   H   :   -0.001123998   -0.002959913    0.002848847
  16   H   :    0.002704608    0.000064426    0.002995788
  17   H   :   -0.001874690   -0.000581032   -0.001679003
  18   H   :    0.003929540   -0.002656578   -0.002818060
  19   H   :   -0.002337142   -0.004261402    0.001735288
  20   H   :    0.003434687    0.000823515    0.004438950
  21   H   :    0.003502250    0.001586761    0.003873280
  22   H   :    0.003326834   -0.000418621   -0.004009332
  23   H   :   -0.001447039    0.005064091   -0.002066556

Difference to translation invariance:
           :    0.0000000000    0.0000000000    0.0000000000

Difference to rotation invariance:
           :    0.0001488545   -0.0000316303   -0.0005682884

Norm of the Cartesian gradient     ...    0.0254300224
RMS gradient                       ...    0.0030614149
MAX gradient                       ...    0.0065740051

-------
TIMINGS
-------

Total SCF gradient time     ....        9.851 sec

Densities                   ....       0.001 sec  (  0.0%)
One electron gradient       ....       0.291 sec  (  3.0%)
RI-J Coulomb gradient       ....       1.318 sec  ( 13.4%)
XC gradient                 ....       6.400 sec  ( 65.0%)
CPCM gradient               ....       1.776 sec  ( 18.0%)
   A-Matrix (El+Nuc)        ....       0.109 sec  (  1.1%)
   Potential                ....       1.667 sec  ( 16.9%)
SMD gradient                ....       0.003 sec  (  0.0%)

Maximum memory used throughout the entire SCFGRAD-calculation: 35.9 MB

------------------------------------------------------------------------------
                              ORCA PROPERTY CALCULATIONS
------------------------------------------------------------------------------

GBWName                                 ... xtb_opt.gbw
Number of atoms                         ...     23
Number of basis functions               ...    213
Max core memory                         ...   1024 MB

Electric properties:
Dipole moment                           ... YES
Quadrupole moment                       ...  NO
Static polarizability (Dipole/Dipole)   ...  NO
Static polarizability (Dipole/Quad.)    ...  NO
Static polarizability (Quad./Quad.)     ...  NO
Static polarizability (Velocity)        ...  NO

Atomic electric properties:
Dipole moment                           ...  NO
Quadrupole moment                       ...  NO
Static polarizability                   ...  NO

Choice of electric origin               ... Center of mass
Position of electric origin             ...    -0.000001     0.000002     0.000002

General magnetic properties:
Magnetizability                         ...  NO

EPR properties:
g-Tensor (aka g-matrix)                 ...  NO
Zero-Field splitting spin-orbit         ...  NO
Zero-field splitting spin-spin          ...  NO
Hyperfine couplings                     ...  NO (   0 nuclei)
Quadrupole couplings                    ...  NO (   0 nuclei)
Contact density                         ...  NO (   0 nuclei)

NMR properties:
Chemical shifts                         ...  NO (   0 nuclei)
Spin-rotation constants                 ...  NO (   0 nuclei)
Spin-spin couplings                     ...  NO (   0 nuclei,    0 pairs)

Choice of magnetic origin               ... GIAO
Position of magnetic origin             ...     0.000000     0.000000     0.000000

Properties with geometric perturbations:
SCF Hessian                             ...  NO
IR spectrum                             ...  NO
VCD spectrum                            ...  NO
X-ray spectroscopy properties:
SCF XES/XAS/RIXS spectra                ...  NO


-------------
DIPOLE MOMENT
-------------

Method             : SCF
Type of density    : Electron Density
Multiplicity       :   1
Irrep              :   0
Energy             :  -276.2848862661351177 Eh
Relativity type    : 
Basis              : AO
                                X                 Y                 Z
Electronic contribution:      0.507701678      -0.857026777      -0.740337837
Nuclear contribution   :     -0.450888903       0.835781760       0.747017960
                        -----------------------------------------
Total Dipole Moment    :      0.056812775      -0.021245017       0.006680124
                        -----------------------------------------
Magnitude (a.u.)       :      0.061021850
Magnitude (Debye)      :      0.155105216



--------------------
Rotational spectrum 
--------------------
 
Rotational constants in cm-1:             0.131673             0.046001             0.041540 
Rotational constants in MHz :          3947.465107          1379.071085          1245.329054 

Dipole components along the rotational axes: 
x,y,z [a.u.] :     0.058958    -0.012551    -0.009490 
x,y,z [Debye]:     0.149860    -0.031902    -0.024122 

 

Dipole moment calculation done in   0.0 sec 

Maximum memory used throughout the entire PROP-calculation: 14.4 MB

--------------------------------
SUGGESTED CITATIONS FOR THIS RUN
--------------------------------

Below you find a list of papers that are relevant to this ORCA run
We neither can nor want to force you to cite these papers, but we appreciate if you do
You receive ORCA, which is the product of decades of hard work by many enthusiastic individuals, for free
The only thing we kindly ask in return is that you cite our papers,
We deeply appreciate it, if you show your appreciation for ORCA by not just citing the generic ORCA reference.

Please note that relegating all ORCA citations to the supporting information does *not* help us.
SI sections are not indexed - citations you put there will not count into any citation statistics
But we need these citations in order to attract the funding resources that allow us to do what we are doing

Therefore, if you are a happy ORCA user, please consider citing a few of the papers listed below in the main body of your paper

In addition to the list printed below, the program has created the file xtb_opt.bibtex that contains the list in bibtex format
You can import this file easily into all common literature databanks and citation aid programs


List of essential papers. We consider these as the minimum necessary citations

  1. Neese,F.
     Software update: the ORCA program system, version 5.0
     WIRES Comput. Molec. Sci., 2022 12(1)e1606
     doi.org/10.1002/wcms.1606
  2. Grimme,S.; Hansen,A.; Ehlert,S.; Mewes,J.
     r2SCAN-3c: A 'Swiss army knife' composite electronic-structure method
     J. Chem. Phys., 2021 154 064103
     doi.org/10.1063/5.0040021

List of papers to cite with high priority. The work reported in these papers was absolutely
necessary for this run to complete.
Our perspective: the developers of density functionals and basis sets usually get cited in chemistry papers
Good! But without the algorithms to do something with them, the functionals or basis sets would not do anything.
Hence, in our opinion, the algorithm design and method developments papers are equally worthy of getting cited

  1. Neese,F.
     An improvement of the resolution of the identity approximation for the formation of the Coulomb matrix
     J. Comp. Chem., 2003 24(14)1740-1747
     doi.org/10.1002/jcc.10318
  2. Garcia-Rates,M.; Neese,F.
     Effect of the Solute Cavity on the Solvation Energy and its Derivatives within the Framework of the Gaussian Charge Scheme
     J. Comput. Chem., 2020 41 922-939
     doi.org/10.1002/jcc.26139
  3. Neese,F.
     The SHARK Integral Generation and Digestion System
     J. Comp. Chem., 2022  1-16
     doi.org/10.1002/jcc.26942
  4. Lehtola,S.; Steigemann,C.; Oliveira,M.; Marques,M.
     Recent developments in Libxc - A comprehensive library of functionals for density functional theory
     Software X, 2018 7 
     doi.org/10.1016/j.softx.2017.11.002
  5. Caldeweyher,E.; Bannwarth,C.; Grimme,S.
     Extension of the D3 dispersion coefficient model
     J. Chem. Phys., 2017 147 034112
     doi.org/10.1063/1.4993215
  6. Caldeweyher,E.; Ehlert,S.; Hansen,A.; Neugebauer,H.; Spicher,S.; Bannwarth,C.; Grimme,S.
     A generally applicable atomic-charge dependent London dispersion correction
     J. Chem. Phys., 2019 150 154122
     doi.org/10.1063/1.5090222
  7. Caldeweyher,E.; Mewes,J.; Ehlert,S.; Grimme,S.
     Extension and evaluation of the D4 London-dispersion model for periodic systems
     Phys. Chem. Chem. Phys., 2020 22(16)8499-8512
     doi.org/10.1039/D0CP00502A
  8. Wittmann,L.; Gordiy,I.; Friede,M.; Helmich-Paris,B.; Grimme,S.; Hansen,A.; Bursch,M.
     Extension of the D3 and D4 London Dispersion Corrections to the full Actinides Series
     Phys. Chem. Chem. Phys., 2024 26(32)21379-21394
     doi.org/https://doi.org/10.1039/D4CP01514B 

List of suggested additional citations. These are papers that are important in the 'surrounding' of 
of this run, or papers that preceded the highly important papers. If you like your results we are grateful for a citation.

  1. Neese,F.
     The ORCA program system
     WIRES Comput. Molec. Sci., 2012 2(1)73-78
     doi.org/10.1002/wcms.81
  2. Neese,F.
     Software update: the ORCA program system, version 4.0
     WIRES Comput. Molec. Sci., 2018 8(1)1-6
     doi.org/10.1002/wcms.1327
  3. Neese,F.; Wennmohs,F.; Becker,U.; Riplinger,C.
     The ORCA quantum chemistry program package
     J. Chem. Phys., 2020 152 Art. No. L224108
     doi.org/10.1063/5.0004608

List of optional additional citations

  1. Neese,F.
     Approximate second-order SCF convergence for spin unrestricted wavefunctions
     Chem. Phys. Lett., 2000 325(1-3)93-98
     doi.org/10.1016/s0009-2614(00)00662-x

Timings for individual modules:

Sum of individual times          ...       18.511 sec (=   0.309 min)
Startup calculation              ...        1.222 sec (=   0.020 min)   6.6 %
SCF iterations                   ...        7.041 sec (=   0.117 min)  38.0 %
Property calculations            ...        0.131 sec (=   0.002 min)   0.7 %
SCF Gradient evaluation          ...       10.117 sec (=   0.169 min)  54.7 %
                             ****ORCA TERMINATED NORMALLY****
TOTAL RUN TIME: 0 days 0 hours 0 minutes 19 seconds 892 msec
  ------------------------------------------------------------------------
          * successful ORCA run, taking over control again...

         :::::::::::::::::::::::::::::::::::::::::::::::::::::
         ::                  ORCA SUMMARY                   ::
         :::::::::::::::::::::::::::::::::::::::::::::::::::::
         :: total energy            -276.280309572796 Eh    ::
         :: gradient norm              0.025430022411 Eh/a0 ::
         :: HOMO-LUMO gap              0.000000000000 eV    ::
         :::::::::::::::::::::::::::::::::::::::::::::::::::::

      ----------------------------------------------------------- 
     |                       L-ANC optimizer                     |
      ----------------------------------------------------------- 
          low memory version by Sebastian Ehlert

          ...................................................
          :                      SETUP                      :
          :.................................................:
          :   energy convergence        0.5000000E-05 Eh    :
          :   grad. convergence         0.1000000E-02 Eh/a0 :
          :   optimization log               true           :
          :   writing optlog all                1     steps :
          :   Hessian reset                     8     steps :
          :   maximium step len.        1.0000000     a0    :
          :   LBFGS images                      8           :
          ...................................................
 * calculating model hessian...
Using Lindh-Hessian (1995)
 Shifting diagonal of input Hessian by   1.000000000000000E-002
 Lowest  eigenvalues of input Hessian
    0.000000    0.000000    0.000000    0.000000    0.000000    0.000000
    0.011365    0.012268    0.013537    0.017425    0.018119    0.019719
    0.020710    0.021600    0.023351    0.028285    0.029497    0.032055
 Highest eigenvalues
    1.196799    1.206926    1.214683    1.260226    1.265663    1.289568
 

........................................................................
.............................. CYCLE    1 ..............................
........................................................................
                         * ORCA takes the control...
  ------------------------------------------------------------------------

                                 *****************
                                 * O   R   C   A *
                                 *****************

                                            #,                                       
                                            ###                                      
                                            ####                                     
                                            #####                                    
                                            ######                                   
                                           ########,                                 
                                     ,,################,,,,,                         
                               ,,#################################,,                 
                          ,,##########################################,,             
                       ,#########################################, ''#####,          
                    ,#############################################,,   '####,        
                  ,##################################################,,,,####,       
                ,###########''''           ''''###############################       
              ,#####''   ,,,,##########,,,,          '''####'''          '####       
            ,##' ,,,,###########################,,,                        '##       
           ' ,,###''''                  '''############,,,                           
         ,,##''                                '''############,,,,        ,,,,,,###''
      ,#''                                            '''#######################'''  
     '                                                          ''''####''''         
             ,#######,   #######,   ,#######,      ##                                
            ,#'     '#,  ##    ##  ,#'     '#,    #''#        ,####,   ,####,        
            ##       ##  ##   ,#'  ##            #'  '#       #'       #'  '#        
            ##       ##  #######   ##           ,######,      #####,   #    #        
            '#,     ,#'  ##    ##  '#,     ,#' ,#      #,     #,   #   #,  ,#        
             '#######'   ##     ##  '#######'  #'      '#     '####' # '####'        



                #########################################################
                #                        -***-                          #
                #          Department of theory and spectroscopy        #
                #                                                       #
                #                      Frank Neese                      #
                #                                                       #
                #     Directorship, Architecture, Infrastructure        #
                #                    SHARK, DRIVERS                     #
                #        Core code/Algorithms in most modules           #
                #                                                       #
                #        Max Planck Institute fuer Kohlenforschung      #
                #                Kaiser Wilhelm Platz 1                 #
                #                 D-45470 Muelheim/Ruhr                 #
                #                      Germany                          #
                #                                                       #
                #                  All rights reserved                  #
                #                        -***-                          #
                #########################################################


                         Program Version 6.0.1  -  RELEASE   -


 With contributions from (in alphabetic order):
[Max-Planck-Institut fuer Kohlenforschung]                               
  Daniel Aravena         : Magnetic Suceptibility                        
  Michael Atanasov       : Ab Initio Ligand Field Theory (pilot matlab implementation)
  Alexander A. Auer      : GIAO ZORA, VPT2 properties, NMR spectrum      
  Ute Becker             : All parallelization in ORCA, NUMFREQ, NUMCALC 
  Giovanni Bistoni       : ED, misc. LED, open-shell LED, HFLD           
  Martin Brehm           : Molecular dynamics                            
  Dmytro Bykov           : pre 5.0 version of the SCF Hessian            
  Marcos Casanova-Páez   : Triplet and SCS-CIS(D). UHF-(DLPNO)-IP/EA/STEOM-CCSD. UHF-CVS-IP/STEOM-CCSD   
  Vijay G. Chilkuri      : MRCI spin determinant printing, contributions to CSF-ICE 
  Pauline Colinet        : FMM embedding                                 
  Dipayan Datta          : RHF DLPNO-CCSD density                        
  Achintya Kumar Dutta   : EOM-CC, STEOM-CC                              
  Nicolas Foglia         : Exact transition moments, OPA infrastructure, MCD improvements    
  Dmitry Ganyushin       : Spin-Orbit,Spin-Spin,Magnetic field MRCI      
  Miquel Garcia-Rates    : C-PCM and meta-GGA Hessian, CCSD/C-PCM, Gaussian charge scheme 
  Tiago L. C. Gouveia    : GS-ROHF, GS-ROCIS                             
  Yang Guo               : DLPNO-NEVPT2, F12-NEVPT2, CIM, IAO-localization        
  Andreas Hansen         : Spin unrestricted coupled pair/coupled cluster methods 
  Ingolf Harden          : AUTO-CI MPn and infrastructure                
  Benjamin Helmich-Paris : MC-RPA, TRAH-(SCF,CASSCF), AVAS, COSX integrals, SCF dyn. polar. 
  Lee Huntington         : MR-EOM, pCC                                   
  Robert Izsak           : Overlap fitted RIJCOSX, COSX-SCS-MP3, EOM     
  Riya Kayal             : Wick's Theorem for AUTO-CI, AUTO-CI UHF-CCSDT 
  Emily Kempfer          : AUTO-CI, RHF CISDT and CCSDT                  
  Christian Kollmar      : KDIIS, OOCD, Brueckner-CCSD(T), CCSD density, CASPT2, CASPT2-K, improved NEVPT2 
  Axel Koslowski         : Symmetry handling                             
  Simone Kossmann        : meta-GGA functionals, TD-DFT gradient, OOMP2, (MP2 Hessian; deprecated post 5.0) 
  Lucas Lang             : DCDCAS                                        
  Marvin Lechner         : AUTO-CI (C++ implementation), FIC-MRCC        
  Spencer Leger          : CASSCF response                               
  Dagmar Lenk            : GEPOL surface, SMD, ORCA-2-JSON               
  Dimitrios Liakos       : Extrapolation schemes; Compound Job, initial MDCI parallelization 
  Dimitrios Manganas     : Further ROCIS development; embedding schemes. LFT, Crystal Embedding 
  Dimitrios Pantazis     : SARC Basis sets                               
  Anastasios Papadopoulos: AUTO-CI, single reference methods and gradients 
  Taras Petrenko         : pre 6.0 DFT Hessian and TD-DFT gradient, (ASA, deprecated), ECA, 1-Electron XAS/XES, NRVS 
  Peter Pinski           : DLPNO-MP2, DLPNO-MP2 Gradient                 
  Christoph Reimann      : Effective Core Potentials                     
  Marius Retegan         : Local ZFS, SOC                                
  Christoph Riplinger    : Optimizer, TS searches, QM/MM, DLPNO-CCSD(T), (RO)-DLPNO pert. Triples 
  Michael Roemelt        : Original ROCIS implementation                 
  Masaaki Saitow         : Open-shell DLPNO-CCSD energy and density      
  Barbara Sandhoefer     : DKH picture change effects                    
  Kantharuban Sivalingam : CASSCF convergence/infrastructure, NEVPT2 and variants, FIC-MRCI 
  Bernardo de Souza      : ESD, SOC TD-DFT                               
  Georgi L. Stoychev     : AutoAux, RI-MP2 NMR, DLPNO-MP2 response, X2C  
  Van Anh Tran           : RI-MP2 g-tensors                              
  Willem Van den Heuvel  : Paramagnetic NMR                              
  Zikuan Wang            : NOTCH, Electric field optimization            
  Frank Wennmohs         : Technical directorship and infrastructure     
  Hang Xu                : AUTO-CI-Response properties                   
                                                                         
[FACCTs GmbH]                                                            
  Markus Bursch, Miquel Garcia-Rates, Christoph Riplinger, Bernardo de Souza, Georgi L. Stoychev 
                                                                 
  APM, Basis sets (HGBS, AHGBS, def-TZVP (Ac-Lr), def2-XVPD (La-Lu)), CI-OPT, improved COSX, DLPNO-Multilevel,           
  DOCKER, DRACO, updates on ESD, GOAT, IRC, LR-CPCM, MBIS, meta-GGA TD-DFT gradient, ML-optimized integration grids, 
  MM, NACMEs, nearIR, NEB, NEB-TS, NL-DFT gradient (VV10), 2- and 3-layer-ONIOM, interface openCOSMO-RS, QMMM,   
  Crystal-QMMM, SF, symmetry and pop. for TD-DFT, r2SCAN hybrids, SOLVATOR                                   
                                                                         
[Other institutions]                                                     
  V. Asgeirsson          : NEB                                           
  Christoph Bannwarth    : sTDA-DFT, sTD-DFT, PBEh-3c, B97-3c, D3        
  Sebastian Ehlert       : rSCAN, r2SCAN, r2SCAN-3c, D4, dhf basis sets  
  Marvin Friede          : D4 for Fr, Ra, Ac-Lr                          
  Lars Goerigk           : TD-DFT with DH, B97 family of functionals     
  Stefan Grimme          : VdW corrections, initial TS optimization, DFT functionals, gCP, sTDA/sTD-DF 
  Waldemar Hujo          : DFT-NL                                        
  H. Jonsson             : NEB                                           
  Holger Kruse           : gCP                                           
  Marcel Mueller         : wB97X-3c, vDZP basis set                      
  Hagen Neugebauer       : wr2SCAN                                       
  Tobias Risthaus        : range-separated hybrid DFT                    
  Lukas Wittmann         : regularized MP2, r2SCAN double-hybrids, wr2SCAN        
                                                                         
We gratefully acknowledge several colleagues who have allowed us to      
interface, adapt or use parts of their codes:                            
  Ed Valeev, F. Pavosevic, A. Kumar             : LibInt (2-el integral package), F12 methods 
  Garnet Chan, S. Sharma, J. Yang, R. Olivares  : DMRG                   
  Ulf Ekstrom                                   : XCFun DFT Library      
  Mihaly Kallay                                 : mrcc  (arbitrary order and MRCC methods)
  Frank Weinhold                                : gennbo (NPA and NBO analysis)           
  Simon Mueller                                 : openCOSMO-RS                            
  Christopher J. Cramer and Donald G. Truhlar   : smd solvation model                     
  S Lehtola, MJT Oliveira, MAL Marques          : LibXC Library                           
  Liviu Ungur et al                             : ANISO software                          


 Your calculation uses the libint2 library for the computation of 2-el integrals
 For citations please refer to: http://libint.valeyev.net

 Your ORCA version has been built with support for libXC version: 6.2.2
 For citations please refer to: https://libxc.gitlab.io

 This ORCA versions uses:
   CBLAS   interface :  Fast vector & matrix operations
   LAPACKE interface :  Fast linear algebra routines
   SCALAPACK package :  Parallel linear algebra routines
   Shared memory     :  Shared parallel matrices
   BLAS/LAPACK       :  OpenBLAS 0.3.27  USE64BITINT DYNAMIC_ARCH NO_AFFINITY Zen SINGLE_THREADED
        Core in use  :  Zen
   Copyright (c) 2011-2014, The OpenBLAS Project




***************************************
The coordinates will be read from file: xtb_opt.xyz
***************************************


Your calculation utilizes the geometrical counterpoise correction gCP
Please cite in your paper:
H.Kruse, S. Grimme J.Chem.Phys., 136, (2012), 154101 
   

Your calculation utilizes the atom-pairwise dispersion correction
based on EEQ partial charges (D4)


Your calculation utilizes the SMD solvation module
Please cite in your paper:
A.V. Marenich, C.J. Cramer, D.G. Truhlar J. Phys. Chem. B, 113, (2009), 6378 

================================================================================

----- Orbital basis set information -----
Your calculation utilizes the basis: def2-mTZVPP
   Stefan Grimme, Andreas Hansen, Sebastian Ehlert, and Jan-Michael Mewes 
   J. Chem. Phys. 154, 064103 (2021). DOI: 10.1063/5.0040021

----- AuxJ basis set information -----
Your calculation utilizes the auxiliary basis: def2/J
   F. Weigend, Phys. Chem. Chem. Phys. 8, 1057 (2006).

================================================================================
                                        WARNINGS
                       Please study these warnings very carefully!
================================================================================

WARNING: Old DensityContainer found on disk!
         Will remove this file - 
         If you want to keep old densities, please start your calculation with a different basename. 



WARNING: SCAN, rSCAN, or r2SCAN functional requested.
  ===> : libXC variant has now been activated.



================================================================================
                                       INPUT FILE
================================================================================
NAME = xtb_opt.inp
|  1> ! r2scan-3c def2/J RI DEFGRID2 scfconv7 ENGRAD tightSCF miniprint
|  2> %cpcm
|  3>     smd true
|  4>     smdsolvent "water"
|  5> end
|  6> * xyzfile 0 1 xtb_opt.xyz
|  7> 
|  8>                          ****END OF INPUT****
================================================================================

                     *******************************
                     * Energy+Gradient Calculation *
                     *******************************

---------------------------------
CARTESIAN COORDINATES (ANGSTROEM)
---------------------------------
  C      2.320096    0.641372    0.755569
  C      2.259132   -0.465170   -0.295550
  C      0.891118   -1.146244   -0.404519
  C     -0.233683   -0.203444   -0.871201
  C     -1.149021    0.322129    0.244873
  C     -1.940471    1.539991   -0.232278
  C     -2.100341   -0.771061    0.733980
  H      3.328971    1.057573    0.825213
  H      1.638445    1.461383    0.514409
  H      2.046760    0.252554    1.741064
  H      3.014735   -1.223934   -0.061477
  H      2.523093   -0.048398   -1.275085
  H      0.981432   -1.991179   -1.095234
  H      0.632916   -1.570509    0.573050
  H      0.214350    0.649077   -1.396270
  H     -0.870388   -0.714071   -1.603885
  H     -0.520362    0.630312    1.089987
  H     -2.607100    1.910240    0.551902
  H     -1.271649    2.354526   -0.525326
  H     -2.553215    1.275109   -1.100221
  H     -2.775249   -1.067307   -0.075782
  H     -2.709505   -0.414933    1.569647
  H     -1.560342   -1.661899    1.066571

----------------------------
CARTESIAN COORDINATES (A.U.)
----------------------------
  NO LB      ZA    FRAG     MASS         X           Y           Z
   0 C     6.0000    0    12.011    4.384346    1.212018    1.427819
   1 C     6.0000    0    12.011    4.269141   -0.879044   -0.558508
   2 C     6.0000    0    12.011    1.683969   -2.166087   -0.764430
   3 C     6.0000    0    12.011   -0.441598   -0.384454   -1.646331
   4 C     6.0000    0    12.011   -2.171334    0.608735    0.462743
   5 C     6.0000    0    12.011   -3.666959    2.910161   -0.438942
   6 C     6.0000    0    12.011   -3.969070   -1.457093    1.387022
   7 H     1.0000    0     1.008    6.290843    1.998523    1.559426
   8 H     1.0000    0     1.008    3.096213    2.761613    0.972093
   9 H     1.0000    0     1.008    3.867816    0.477258    3.290134
  10 H     1.0000    0     1.008    5.697023   -2.312901   -0.116174
  11 H     1.0000    0     1.008    4.767955   -0.091459   -2.409562
  12 H     1.0000    0     1.008    1.854638   -3.762783   -2.069692
  13 H     1.0000    0     1.008    1.196037   -2.967831    1.082907
  14 H     1.0000    0     1.008    0.405062    1.226578   -2.638568
  15 H     1.0000    0     1.008   -1.644796   -1.349398   -3.030903
  16 H     1.0000    0     1.008   -0.983342    1.191116    2.059778
  17 H     1.0000    0     1.008   -4.926704    3.609830    1.042944
  18 H     1.0000    0     1.008   -2.403067    4.449410   -0.992723
  19 H     1.0000    0     1.008   -4.824877    2.409607   -2.079116
  20 H     1.0000    0     1.008   -5.244461   -2.016918   -0.143208
  21 H     1.0000    0     1.008   -5.120223   -0.784110    2.966203
  22 H     1.0000    0     1.008   -2.948618   -3.140534    2.015528

------------------------------------------------------------------------------
                   ___                                                        
                  /   \      - P O W E R E D   B Y -                         
                 /     \                                                     
                 |  |  |   _    _      __       _____    __    __             
                 |  |  |  | |  | |    /  \     |  _  \  |  |  /  |          
                  \  \/   | |  | |   /    \    | | | |  |  | /  /          
                 / \  \   | |__| |  /  /\  \   | |_| |  |  |/  /          
                |  |  |   |  __  | /  /__\  \  |    /   |      \           
                |  |  |   | |  | | |   __   |  |    \   |  |\   \          
                \     /   | |  | | |  |  |  |  | |\  \  |  | \   \       
                 \___/    |_|  |_| |__|  |__|  |_| \__\ |__|  \__/        
                                                                              
                      - O R C A' S   B I G   F R I E N D -                    
                                      &                                       
                       - I N T E G R A L  F E E D E R -                       
                                                                              
 v1 FN, 2020, v2 2021, v3 2022-2024                                           
------------------------------------------------------------------------------


----------------------
SHARK INTEGRAL PACKAGE
----------------------

Number of atoms                             ...     23
Number of basis functions                   ...    213
Number of shells                            ...    111
Maximum angular momentum                    ...      2
Integral batch strategy                     ... SHARK/LIBINT Hybrid
RI-J (if used) integral strategy            ... SPLIT-RIJ (Revised 2003 algorithm where possible)
Printlevel                                  ...      1
Contraction scheme used                     ... SEGMENTED contraction
Prescreening option                         ... SCHWARTZ
   Thresh                                   ... 3.000e-11
   Tcut                                     ... 1.000e-12
   Tpresel                                  ... 1.000e-12 
Coulomb Range Separation                    ... NOT USED
Exchange Range Separation                   ... NOT USED
Multipole approximations                    ... NOT USED
Finite Nucleus Model                        ... NOT USED
CABS basis                                  ... NOT available
Auxiliary Coulomb fitting basis             ... AVAILABLE
   # of basis functions in Aux-J            ...    519
   # of shells in Aux-J                     ...    185
   Maximum angular momentum in Aux-J        ...      4
Auxiliary J/K fitting basis                 ... NOT available
Auxiliary Correlation fitting basis         ... NOT available
Auxiliary 'external' fitting basis          ... NOT available

Checking pre-screening integrals            ... done (  0.0 sec) Dimension = 111
Check shell pair data                       ... done (  0.0 sec)
Shell pair information
Shell pair cut-off parameter TPreSel        ...   1.0e-12
Total number of shell pairs                 ...      6216
Shell pairs after pre-screening             ...      5688
Total number of primitive shell pairs       ...     21523
Primitive shell pairs kept                  ...     14286
          la=0 lb=0:   2082 shell pairs
          la=1 lb=0:   2266 shell pairs
          la=1 lb=1:    639 shell pairs
          la=2 lb=0:    432 shell pairs
          la=2 lb=1:    241 shell pairs
          la=2 lb=2:     28 shell pairs

Calculating one electron integrals          ... done (  0.0 sec)
Calculating RI/J V-Matrix + Cholesky decomp.... done (  0.0 sec)
Calculating Nuclear repulsion               ... done (  0.0 sec) ENN=    328.553773024543 Eh

Diagonalization of the overlap matrix:
Smallest eigenvalue                        ... 1.851e-04
Time for diagonalization                   ...    0.005 sec
Threshold for overlap eigenvalues          ... 1.000e-07
Number of eigenvalues below threshold      ... 0
Time for construction of square roots      ...    0.012 sec
Total time needed                          ...    0.025 sec

-------------------
DFT GRID GENERATION
-------------------

General Integration Accuracy     IntAcc      ... 4.388
Radial Grid Type                 RadialGrid  ... OptM3 with GC (2021)
Angular Grid (max. ang.)         AngularGrid ... 4 (Lebedev-302)
Angular grid pruning method      GridPruning ... 4 (adaptive)
Weight generation scheme         WeightScheme... mBecke (2022)
Basis function cutoff            BFCut       ... 1.0000e-11
Integration weight cutoff        WCut        ... 1.0000e-14
Partially contracted basis set               ... off
Rotationally invariant grid construction     ... off
Angular grids for H and He will be reduced by one unit

Total number of grid points                  ...    92993
Total number of batches                      ...     1466
Average number of points per batch           ...       63
Average number of grid points per atom       ...     4043
Initializing property integral containers    ... done (  0.0 sec)

SHARK setup successfully completed in   1.2 seconds

Maximum memory used throughout the entire STARTUP-calculation: 39.9 MB
Occupation numbers will be reassigned to an Aufbau configuration
             **** ENERGY FILE WAS UPDATED (xtb_opt.en.tmp) ****
Finished Guess after   0.1 sec
Maximum memory used throughout the entire GUESS-calculation: 15.7 MB
--------------------
CPCM SOLVATION MODEL
--------------------
CPCM parameters:
  Epsilon                                         ...      78.3550
  Refrac                                          ...       1.3328
  Rsolv                                           ...       1.3000
  Surface type                                    ... GAUSSIAN VDW
  Discretization scheme                           ... Constant charge density
    Threshold for H atoms                         ...       5.0000 (charges/Ang^2)
    Threshold for non-H atoms                     ...       5.0000 (charges/Ang^2)
  Epsilon function type                           ...         CPCM
Solvent:                                          ... WATER
SMD-CDS solvent descriptors:
  Soln                                            ...       1.3328
  Soln25                                          ...       1.3323
  Sola                                            ...       0.0000
  Solb                                            ...       0.0000
  Solg                                            ...       0.0000
  Solc                                            ...       0.0000
  Solh                                            ...       0.0000
Radii:
  Scheme                                          ... Element-dependent radii
  Radius for C  used is    3.4960 Bohr (=   1.8500 Ang.)
  Radius for H  used is    2.2677 Bohr (=   1.2000 Ang.)
Calculating surface                               ...        done! (  0.0s)
Cavity surface points                             ...         1687
Cavity Volume                                     ...     919.1351
Cavity Surface-area                               ...     598.3229
Calculating surface distance matrix               ...        done! (  0.0s)
Performing Cholesky decomposition & store         ...        done! (  0.1s)
Overall time for CPCM initialization              ...                 0.1s

----------------------------------------D-I-I-S--------------------------------------------
Iteration    Energy (Eh)           Delta-E    RMSDP     MaxDP     DIISErr   Damp  Time(sec)
-------------------------------------------------------------------------------------------
               ***  Starting incremental Fock matrix formation  ***
                              *** Initializing SOSCF ***
---------------------------------------S-O-S-C-F--------------------------------------
Iteration    Energy (Eh)           Delta-E    RMSDP     MaxDP     MaxGrad    Time(sec)
--------------------------------------------------------------------------------------
    1    -276.2914491466564186     0.00e+00  2.24e-04  6.28e-03  2.47e-04     2.5
               *** Restarting incremental Fock matrix formation ***
    2    -276.2916259371459091    -1.77e-04  8.79e-05  1.65e-03  3.16e-04     2.5
    3    -276.2916291538303994    -3.22e-06  3.33e-05  5.13e-04  3.41e-04     2.1
    4    -276.2916409146039314    -1.18e-05  1.10e-05  2.39e-04  3.19e-05     2.0
    5    -276.2916410196901325    -1.05e-07  1.86e-06  3.30e-05  1.13e-05     1.9
                  *** Gradient check signals convergence ***

               *****************************************************
               *                     SUCCESS                       *
               *           SCF CONVERGED AFTER   5 CYCLES          *
               *****************************************************


SMD CDS free energy correction energy :                 3.77843     Kcal/mol
Total Energy after SMD CDS correction =              -276.285619710 Eh
             **** ENERGY FILE WAS UPDATED (xtb_opt.en.tmp) ****

----------------
TOTAL SCF ENERGY
----------------

Total Energy       :       -276.28561971049328 Eh           -7518.11393 eV

Components:
Nuclear Repulsion  :        328.55377302454315 Eh            8940.40269 eV
Electronic Energy  :       -604.84291623487206 Eh          -16458.61249 eV
One Electron Energy:      -1021.33819354894240 Eh          -27792.02517 eV
Two Electron Energy:        416.49527731407028 Eh           11333.41268 eV
CPCM Dielectric    :         -0.00249780936115 Eh              -0.06797 eV
SMD CDS (Gcds)     :          0.00602130919686 Eh               0.16385 eV

Virial components:
Potential Energy   :       -551.10526475555855 Eh          -14996.33665 eV
Kinetic Energy     :        274.81964504506527 Eh            7478.22273 eV
Virial Ratio       :          2.00533431540233

DFT components:
N(Alpha)           :       29.000106984332 electrons
N(Beta)            :       29.000106984332 electrons
N(Total)           :       58.000213968663 electrons
E(X)               :      -42.098401210436 Eh       
E(C)               :       -1.778428594323 Eh       
E(XC)              :      -43.876829804759 Eh       

CPCM Solvation Model Properties:
Surface-charge          :         -0.05275512362890
Corrected charge        :          0.00000000000000
Outlying charge corr.   :          0.00021142946286 Eh               0.00575 eV
Free-energy (cav+disp)  :          0.00602130919686 Eh               0.16385 eV

---------------
SCF CONVERGENCE
---------------

  Last Energy change         ...    1.0509e-07  Tolerance :   1.0000e-07
  Last MAX-Density change    ...    3.3028e-05  Tolerance :   1.0000e-07
  Last RMS-Density change    ...    1.8564e-06  Tolerance :   5.0000e-09
  Last DIIS Error            ...    2.4709e-03  Tolerance :   1.0000e-07
  Last Orbital Gradient      ...    1.1350e-05  Tolerance :   1.0000e-04
  Last Orbital Rotation      ...    1.3053e-05  Tolerance :   1.0000e-04


----------------
ORBITAL ENERGIES
----------------

  NO   OCC          E(Eh)            E(eV) 
   0   2.0000     -10.023369      -272.7497 
   1   2.0000     -10.016311      -272.5577 
   2   2.0000     -10.013778      -272.4888 
   3   2.0000     -10.012002      -272.4404 
   4   2.0000     -10.008646      -272.3491 
   5   2.0000     -10.007702      -272.3234 
   6   2.0000     -10.007068      -272.3062 
   7   2.0000      -0.772428       -21.0188 
   8   2.0000      -0.734315       -19.9817 
   9   2.0000      -0.666975       -18.1493 
  10   2.0000      -0.639182       -17.3930 
  11   2.0000      -0.600133       -16.3305 
  12   2.0000      -0.531846       -14.4723 
  13   2.0000      -0.512587       -13.9482 
  14   2.0000      -0.433028       -11.7833 
  15   2.0000      -0.412129       -11.2146 
  16   2.0000      -0.394972       -10.7477 
  17   2.0000      -0.390087       -10.6148 
  18   2.0000      -0.379254       -10.3200 
  19   2.0000      -0.350170        -9.5286 
  20   2.0000      -0.343013        -9.3339 
  21   2.0000      -0.334015        -9.0890 
  22   2.0000      -0.321870        -8.7585 
  23   2.0000      -0.310601        -8.4519 
  24   2.0000      -0.296366        -8.0645 
  25   2.0000      -0.291286        -7.9263 
  26   2.0000      -0.274864        -7.4794 
  27   2.0000      -0.267894        -7.2898 
  28   2.0000      -0.266683        -7.2568 
  29   0.0000       0.091831         2.4988 
  30   0.0000       0.106583         2.9003 
  31   0.0000       0.115502         3.1430 
  32   0.0000       0.121254         3.2995 
  33   0.0000       0.131145         3.5686 
  34   0.0000       0.139815         3.8046 
  35   0.0000       0.142769         3.8849 
  36   0.0000       0.152505         4.1499 
  37   0.0000       0.156436         4.2568 
  38   0.0000       0.164323         4.4714 
  39   0.0000       0.169092         4.6012 
*Only the first 10 virtual orbitals were printed.
Total SCF time: 0 days 0 hours 0 min 11 sec 
Finished LeanSCF after  11.5 sec

Maximum memory used throughout the entire LEANSCF-calculation: 35.7 MB


-------------------------------------------------------------------------------
                          DFT DISPERSION CORRECTION                            
                                                                               
                                DFTD4 V3.4.0                                   
-------------------------------------------------------------------------------
-------------------------   ----------------
Dispersion correction           -0.006254938
-------------------------   ----------------

------------------   -----------------
gCP correction             0.010728080
------------------   -----------------

-------------------------   --------------------
FINAL SINGLE POINT ENERGY      -276.281146568354
-------------------------   --------------------

------------------------------------------------------------------------------
                         ORCA SCF GRADIENT CALCULATION
------------------------------------------------------------------------------

Nuc. rep. gradient        (SHARK) ... done (  0.0 sec)
HCore & Overlap gradient  (SHARK) ... done (  0.3 sec)
Split-RIJ-J gradient      (SHARK) ... done (  1.3 sec)
XC gradient                       ... done (  6.6 sec)
CPCM gradient                     ... done (  1.8 sec)
SMD gradient                      ... done (  0.0 sec)
Dispersion correction             ... done (  0.0 sec)

-------------------
DISPERSION GRADIENT
-------------------

   1   C   :    0.000102299    0.000037223    0.000043981
   2   C   :    0.000098806   -0.000020968   -0.000016397
   3   C   :    0.000050776   -0.000067979   -0.000024342
   4   C   :   -0.000015110   -0.000012830   -0.000056080
   5   C   :   -0.000068636    0.000016277    0.000011123
   6   C   :   -0.000083837    0.000079021   -0.000015569
   7   C   :   -0.000094964   -0.000043702    0.000040086
   8   H   :    0.000036448    0.000016336    0.000014686
   9   H   :    0.000050694    0.000023478    0.000015575
  10   H   :    0.000047511    0.000010529    0.000030016
  11   H   :    0.000033908   -0.000011910   -0.000000123
  12   H   :    0.000037464   -0.000003968   -0.000012800
  13   H   :    0.000021709   -0.000036922   -0.000024797
  14   H   :    0.000019407   -0.000030974    0.000000129
  15   H   :    0.000002038    0.000006194   -0.000030302
  16   H   :   -0.000014466   -0.000015759   -0.000030998
  17   H   :   -0.000027625    0.000011134    0.000014434
  18   H   :   -0.000028247    0.000030641    0.000004623
  19   H   :   -0.000030533    0.000046920   -0.000010325
  20   H   :   -0.000028415    0.000026342   -0.000011461
  21   H   :   -0.000037031   -0.000016794    0.000008725
  22   H   :   -0.000035124   -0.000011463    0.000025933
  23   H   :   -0.000037074   -0.000030826    0.000023882

Difference to translation invariance:
           :   -0.0000000000    0.0000000000    0.0000000000

Difference to rotation invariance:
           :    0.0000000000   -0.0000000000   -0.0000000000

Norm of the Dispersion gradient    ...    0.0003140183
RMS gradient                       ...    0.0000378034
MAX gradient                       ...    0.0001022992
gCP correction                   ... done

------------------
CARTESIAN GRADIENT
------------------

   1   C   :    0.000009069    0.001701538    0.001464408
   2   C   :    0.000774622   -0.000330626   -0.000605626
   3   C   :   -0.000313842   -0.001430322   -0.000152454
   4   C   :    0.000171499    0.000238526   -0.000446658
   5   C   :   -0.000044884    0.000027771   -0.000791085
   6   C   :   -0.001291520    0.001972769   -0.000585294
   7   C   :   -0.001043671   -0.001479233    0.000377366
   8   H   :   -0.000809252   -0.000695419   -0.000188951
   9   H   :    0.000751858   -0.001046985    0.000035066
  10   H   :    0.000277628   -0.000128157   -0.001368078
  11   H   :   -0.000733374    0.000404459   -0.000092362
  12   H   :   -0.000870239    0.000065223    0.000916020
  13   H   :    0.000040658    0.000580266    0.000352383
  14   H   :    0.000464530    0.001284043   -0.000751672
  15   H   :   -0.000410652   -0.000766508    0.000788431
  16   H   :    0.000511757    0.000046822    0.001236340
  17   H   :   -0.000529010   -0.000443796   -0.000651271
  18   H   :    0.000830407   -0.000545422   -0.000522450
  19   H   :   -0.000379907   -0.000925938    0.000367908
  20   H   :    0.001110131   -0.000232436    0.001200391
  21   H   :    0.001115237    0.000724808    0.000725280
  22   H   :    0.000766777    0.000065067   -0.000940626
  23   H   :   -0.000397818    0.000913548   -0.000367066

Difference to translation invariance:
           :   -0.0000000000   -0.0000000000   -0.0000000000

Difference to rotation invariance:
           :    0.0001674546    0.0000253829   -0.0005901709

Norm of the Cartesian gradient     ...    0.0065284232
RMS gradient                       ...    0.0007859298
MAX gradient                       ...    0.0019727690

-------
TIMINGS
-------

Total SCF gradient time     ....       10.067 sec

Densities                   ....       0.001 sec  (  0.0%)
One electron gradient       ....       0.308 sec  (  3.1%)
RI-J Coulomb gradient       ....       1.336 sec  ( 13.3%)
XC gradient                 ....       6.590 sec  ( 65.5%)
CPCM gradient               ....       1.782 sec  ( 17.7%)
   A-Matrix (El+Nuc)        ....       0.110 sec  (  1.1%)
   Potential                ....       1.672 sec  ( 16.6%)
SMD gradient                ....       0.003 sec  (  0.0%)

Maximum memory used throughout the entire SCFGRAD-calculation: 35.9 MB

------------------------------------------------------------------------------
                              ORCA PROPERTY CALCULATIONS
------------------------------------------------------------------------------

GBWName                                 ... xtb_opt.gbw
Number of atoms                         ...     23
Number of basis functions               ...    213
Max core memory                         ...   1024 MB

Electric properties:
Dipole moment                           ... YES
Quadrupole moment                       ...  NO
Static polarizability (Dipole/Dipole)   ...  NO
Static polarizability (Dipole/Quad.)    ...  NO
Static polarizability (Quad./Quad.)     ...  NO
Static polarizability (Velocity)        ...  NO

Atomic electric properties:
Dipole moment                           ...  NO
Quadrupole moment                       ...  NO
Static polarizability                   ...  NO

Choice of electric origin               ... Center of mass
Position of electric origin             ...     0.001348    -0.001590    -0.000477

General magnetic properties:
Magnetizability                         ...  NO

EPR properties:
g-Tensor (aka g-matrix)                 ...  NO
Zero-Field splitting spin-orbit         ...  NO
Zero-field splitting spin-spin          ...  NO
Hyperfine couplings                     ...  NO (   0 nuclei)
Quadrupole couplings                    ...  NO (   0 nuclei)
Contact density                         ...  NO (   0 nuclei)

NMR properties:
Chemical shifts                         ...  NO (   0 nuclei)
Spin-rotation constants                 ...  NO (   0 nuclei)
Spin-spin couplings                     ...  NO (   0 nuclei,    0 pairs)

Choice of magnetic origin               ... GIAO
Position of magnetic origin             ...     0.000000     0.000000     0.000000

Properties with geometric perturbations:
SCF Hessian                             ...  NO
IR spectrum                             ...  NO
VCD spectrum                            ...  NO
X-ray spectroscopy properties:
SCF XES/XAS/RIXS spectra                ...  NO


-------------
DIPOLE MOMENT
-------------

Method             : SCF
Type of density    : Electron Density
Multiplicity       :   1
Irrep              :   0
Energy             :  -276.2856197104932789 Eh
Relativity type    : 
Basis              : AO
                                X                 Y                 Z
Electronic contribution:      0.524466041      -0.874285622      -0.745655718
Nuclear contribution   :     -0.467699771       0.855620218       0.752985462
                        -----------------------------------------
Total Dipole Moment    :      0.056766270      -0.018665403       0.007329744
                        -----------------------------------------
Magnitude (a.u.)       :      0.060204085
Magnitude (Debye)      :      0.153026622



--------------------
Rotational spectrum 
--------------------
 
Rotational constants in cm-1:             0.130525             0.045811             0.041307 
Rotational constants in MHz :          3913.052492          1373.383808          1238.365420 

Dipole components along the rotational axes: 
x,y,z [a.u.] :     0.058587    -0.009754    -0.009848 
x,y,z [Debye]:     0.148916    -0.024794    -0.025031 

 

Dipole moment calculation done in   0.6 sec 

Maximum memory used throughout the entire PROP-calculation: 14.4 MB

--------------------------------
SUGGESTED CITATIONS FOR THIS RUN
--------------------------------

Below you find a list of papers that are relevant to this ORCA run
We neither can nor want to force you to cite these papers, but we appreciate if you do
You receive ORCA, which is the product of decades of hard work by many enthusiastic individuals, for free
The only thing we kindly ask in return is that you cite our papers,
We deeply appreciate it, if you show your appreciation for ORCA by not just citing the generic ORCA reference.

Please note that relegating all ORCA citations to the supporting information does *not* help us.
SI sections are not indexed - citations you put there will not count into any citation statistics
But we need these citations in order to attract the funding resources that allow us to do what we are doing

Therefore, if you are a happy ORCA user, please consider citing a few of the papers listed below in the main body of your paper

In addition to the list printed below, the program has created the file xtb_opt.bibtex that contains the list in bibtex format
You can import this file easily into all common literature databanks and citation aid programs


List of essential papers. We consider these as the minimum necessary citations

  1. Neese,F.
     Software update: the ORCA program system, version 5.0
     WIRES Comput. Molec. Sci., 2022 12(1)e1606
     doi.org/10.1002/wcms.1606
  2. Grimme,S.; Hansen,A.; Ehlert,S.; Mewes,J.
     r2SCAN-3c: A 'Swiss army knife' composite electronic-structure method
     J. Chem. Phys., 2021 154 064103
     doi.org/10.1063/5.0040021

List of papers to cite with high priority. The work reported in these papers was absolutely
necessary for this run to complete.
Our perspective: the developers of density functionals and basis sets usually get cited in chemistry papers
Good! But without the algorithms to do something with them, the functionals or basis sets would not do anything.
Hence, in our opinion, the algorithm design and method developments papers are equally worthy of getting cited

  1. Neese,F.
     An improvement of the resolution of the identity approximation for the formation of the Coulomb matrix
     J. Comp. Chem., 2003 24(14)1740-1747
     doi.org/10.1002/jcc.10318
  2. Garcia-Rates,M.; Neese,F.
     Effect of the Solute Cavity on the Solvation Energy and its Derivatives within the Framework of the Gaussian Charge Scheme
     J. Comput. Chem., 2020 41 922-939
     doi.org/10.1002/jcc.26139
  3. Neese,F.
     The SHARK Integral Generation and Digestion System
     J. Comp. Chem., 2022  1-16
     doi.org/10.1002/jcc.26942
  4. Lehtola,S.; Steigemann,C.; Oliveira,M.; Marques,M.
     Recent developments in Libxc - A comprehensive library of functionals for density functional theory
     Software X, 2018 7 
     doi.org/10.1016/j.softx.2017.11.002
  5. Caldeweyher,E.; Bannwarth,C.; Grimme,S.
     Extension of the D3 dispersion coefficient model
     J. Chem. Phys., 2017 147 034112
     doi.org/10.1063/1.4993215
  6. Caldeweyher,E.; Ehlert,S.; Hansen,A.; Neugebauer,H.; Spicher,S.; Bannwarth,C.; Grimme,S.
     A generally applicable atomic-charge dependent London dispersion correction
     J. Chem. Phys., 2019 150 154122
     doi.org/10.1063/1.5090222
  7. Caldeweyher,E.; Mewes,J.; Ehlert,S.; Grimme,S.
     Extension and evaluation of the D4 London-dispersion model for periodic systems
     Phys. Chem. Chem. Phys., 2020 22(16)8499-8512
     doi.org/10.1039/D0CP00502A
  8. Wittmann,L.; Gordiy,I.; Friede,M.; Helmich-Paris,B.; Grimme,S.; Hansen,A.; Bursch,M.
     Extension of the D3 and D4 London Dispersion Corrections to the full Actinides Series
     Phys. Chem. Chem. Phys., 2024 26(32)21379-21394
     doi.org/https://doi.org/10.1039/D4CP01514B 

List of suggested additional citations. These are papers that are important in the 'surrounding' of 
of this run, or papers that preceded the highly important papers. If you like your results we are grateful for a citation.

  1. Neese,F.
     The ORCA program system
     WIRES Comput. Molec. Sci., 2012 2(1)73-78
     doi.org/10.1002/wcms.81
  2. Neese,F.
     Software update: the ORCA program system, version 4.0
     WIRES Comput. Molec. Sci., 2018 8(1)1-6
     doi.org/10.1002/wcms.1327
  3. Neese,F.; Wennmohs,F.; Becker,U.; Riplinger,C.
     The ORCA quantum chemistry program package
     J. Chem. Phys., 2020 152 Art. No. L224108
     doi.org/10.1063/5.0004608

List of optional additional citations

  1. Neese,F.
     Approximate second-order SCF convergence for spin unrestricted wavefunctions
     Chem. Phys. Lett., 2000 325(1-3)93-98
     doi.org/10.1016/s0009-2614(00)00662-x

Timings for individual modules:

Sum of individual times          ...       23.681 sec (=   0.395 min)
Startup calculation              ...        1.272 sec (=   0.021 min)   5.4 %
SCF iterations                   ...       11.586 sec (=   0.193 min)  48.9 %
Property calculations            ...        0.632 sec (=   0.011 min)   2.7 %
SCF Gradient evaluation          ...       10.191 sec (=   0.170 min)  43.0 %
                             ****ORCA TERMINATED NORMALLY****
TOTAL RUN TIME: 0 days 0 hours 0 minutes 24 seconds 560 msec
  ------------------------------------------------------------------------
          * successful ORCA run, taking over control again...
av. E:   -276.2811466 ->   -276.2811466
av. G:      0.0254300 ->      0.0254300
 * total energy  :  -276.2811466 Eh     change       -0.8369956E-03 Eh
   gradient norm :     0.0065284 Eh/a0  converged?    E=F G=F D=F
   step length   :     0.1165914 a0

........................................................................
.............................. CYCLE    2 ..............................
........................................................................
                         * ORCA takes the control...
  ------------------------------------------------------------------------

                                 *****************
                                 * O   R   C   A *
                                 *****************

                                            #,                                       
                                            ###                                      
                                            ####                                     
                                            #####                                    
                                            ######                                   
                                           ########,                                 
                                     ,,################,,,,,                         
                               ,,#################################,,                 
                          ,,##########################################,,             
                       ,#########################################, ''#####,          
                    ,#############################################,,   '####,        
                  ,##################################################,,,,####,       
                ,###########''''           ''''###############################       
              ,#####''   ,,,,##########,,,,          '''####'''          '####       
            ,##' ,,,,###########################,,,                        '##       
           ' ,,###''''                  '''############,,,                           
         ,,##''                                '''############,,,,        ,,,,,,###''
      ,#''                                            '''#######################'''  
     '                                                          ''''####''''         
             ,#######,   #######,   ,#######,      ##                                
            ,#'     '#,  ##    ##  ,#'     '#,    #''#        ,####,   ,####,        
            ##       ##  ##   ,#'  ##            #'  '#       #'       #'  '#        
            ##       ##  #######   ##           ,######,      #####,   #    #        
            '#,     ,#'  ##    ##  '#,     ,#' ,#      #,     #,   #   #,  ,#        
             '#######'   ##     ##  '#######'  #'      '#     '####' # '####'        



                #########################################################
                #                        -***-                          #
                #          Department of theory and spectroscopy        #
                #                                                       #
                #                      Frank Neese                      #
                #                                                       #
                #     Directorship, Architecture, Infrastructure        #
                #                    SHARK, DRIVERS                     #
                #        Core code/Algorithms in most modules           #
                #                                                       #
                #        Max Planck Institute fuer Kohlenforschung      #
                #                Kaiser Wilhelm Platz 1                 #
                #                 D-45470 Muelheim/Ruhr                 #
                #                      Germany                          #
                #                                                       #
                #                  All rights reserved                  #
                #                        -***-                          #
                #########################################################


                         Program Version 6.0.1  -  RELEASE   -


 With contributions from (in alphabetic order):
[Max-Planck-Institut fuer Kohlenforschung]                               
  Daniel Aravena         : Magnetic Suceptibility                        
  Michael Atanasov       : Ab Initio Ligand Field Theory (pilot matlab implementation)
  Alexander A. Auer      : GIAO ZORA, VPT2 properties, NMR spectrum      
  Ute Becker             : All parallelization in ORCA, NUMFREQ, NUMCALC 
  Giovanni Bistoni       : ED, misc. LED, open-shell LED, HFLD           
  Martin Brehm           : Molecular dynamics                            
  Dmytro Bykov           : pre 5.0 version of the SCF Hessian            
  Marcos Casanova-Páez   : Triplet and SCS-CIS(D). UHF-(DLPNO)-IP/EA/STEOM-CCSD. UHF-CVS-IP/STEOM-CCSD   
  Vijay G. Chilkuri      : MRCI spin determinant printing, contributions to CSF-ICE 
  Pauline Colinet        : FMM embedding                                 
  Dipayan Datta          : RHF DLPNO-CCSD density                        
  Achintya Kumar Dutta   : EOM-CC, STEOM-CC                              
  Nicolas Foglia         : Exact transition moments, OPA infrastructure, MCD improvements    
  Dmitry Ganyushin       : Spin-Orbit,Spin-Spin,Magnetic field MRCI      
  Miquel Garcia-Rates    : C-PCM and meta-GGA Hessian, CCSD/C-PCM, Gaussian charge scheme 
  Tiago L. C. Gouveia    : GS-ROHF, GS-ROCIS                             
  Yang Guo               : DLPNO-NEVPT2, F12-NEVPT2, CIM, IAO-localization        
  Andreas Hansen         : Spin unrestricted coupled pair/coupled cluster methods 
  Ingolf Harden          : AUTO-CI MPn and infrastructure                
  Benjamin Helmich-Paris : MC-RPA, TRAH-(SCF,CASSCF), AVAS, COSX integrals, SCF dyn. polar. 
  Lee Huntington         : MR-EOM, pCC                                   
  Robert Izsak           : Overlap fitted RIJCOSX, COSX-SCS-MP3, EOM     
  Riya Kayal             : Wick's Theorem for AUTO-CI, AUTO-CI UHF-CCSDT 
  Emily Kempfer          : AUTO-CI, RHF CISDT and CCSDT                  
  Christian Kollmar      : KDIIS, OOCD, Brueckner-CCSD(T), CCSD density, CASPT2, CASPT2-K, improved NEVPT2 
  Axel Koslowski         : Symmetry handling                             
  Simone Kossmann        : meta-GGA functionals, TD-DFT gradient, OOMP2, (MP2 Hessian; deprecated post 5.0) 
  Lucas Lang             : DCDCAS                                        
  Marvin Lechner         : AUTO-CI (C++ implementation), FIC-MRCC        
  Spencer Leger          : CASSCF response                               
  Dagmar Lenk            : GEPOL surface, SMD, ORCA-2-JSON               
  Dimitrios Liakos       : Extrapolation schemes; Compound Job, initial MDCI parallelization 
  Dimitrios Manganas     : Further ROCIS development; embedding schemes. LFT, Crystal Embedding 
  Dimitrios Pantazis     : SARC Basis sets                               
  Anastasios Papadopoulos: AUTO-CI, single reference methods and gradients 
  Taras Petrenko         : pre 6.0 DFT Hessian and TD-DFT gradient, (ASA, deprecated), ECA, 1-Electron XAS/XES, NRVS 
  Peter Pinski           : DLPNO-MP2, DLPNO-MP2 Gradient                 
  Christoph Reimann      : Effective Core Potentials                     
  Marius Retegan         : Local ZFS, SOC                                
  Christoph Riplinger    : Optimizer, TS searches, QM/MM, DLPNO-CCSD(T), (RO)-DLPNO pert. Triples 
  Michael Roemelt        : Original ROCIS implementation                 
  Masaaki Saitow         : Open-shell DLPNO-CCSD energy and density      
  Barbara Sandhoefer     : DKH picture change effects                    
  Kantharuban Sivalingam : CASSCF convergence/infrastructure, NEVPT2 and variants, FIC-MRCI 
  Bernardo de Souza      : ESD, SOC TD-DFT                               
  Georgi L. Stoychev     : AutoAux, RI-MP2 NMR, DLPNO-MP2 response, X2C  
  Van Anh Tran           : RI-MP2 g-tensors                              
  Willem Van den Heuvel  : Paramagnetic NMR                              
  Zikuan Wang            : NOTCH, Electric field optimization            
  Frank Wennmohs         : Technical directorship and infrastructure     
  Hang Xu                : AUTO-CI-Response properties                   
                                                                         
[FACCTs GmbH]                                                            
  Markus Bursch, Miquel Garcia-Rates, Christoph Riplinger, Bernardo de Souza, Georgi L. Stoychev 
                                                                 
  APM, Basis sets (HGBS, AHGBS, def-TZVP (Ac-Lr), def2-XVPD (La-Lu)), CI-OPT, improved COSX, DLPNO-Multilevel,           
  DOCKER, DRACO, updates on ESD, GOAT, IRC, LR-CPCM, MBIS, meta-GGA TD-DFT gradient, ML-optimized integration grids, 
  MM, NACMEs, nearIR, NEB, NEB-TS, NL-DFT gradient (VV10), 2- and 3-layer-ONIOM, interface openCOSMO-RS, QMMM,   
  Crystal-QMMM, SF, symmetry and pop. for TD-DFT, r2SCAN hybrids, SOLVATOR                                   
                                                                         
[Other institutions]                                                     
  V. Asgeirsson          : NEB                                           
  Christoph Bannwarth    : sTDA-DFT, sTD-DFT, PBEh-3c, B97-3c, D3        
  Sebastian Ehlert       : rSCAN, r2SCAN, r2SCAN-3c, D4, dhf basis sets  
  Marvin Friede          : D4 for Fr, Ra, Ac-Lr                          
  Lars Goerigk           : TD-DFT with DH, B97 family of functionals     
  Stefan Grimme          : VdW corrections, initial TS optimization, DFT functionals, gCP, sTDA/sTD-DF 
  Waldemar Hujo          : DFT-NL                                        
  H. Jonsson             : NEB                                           
  Holger Kruse           : gCP                                           
  Marcel Mueller         : wB97X-3c, vDZP basis set                      
  Hagen Neugebauer       : wr2SCAN                                       
  Tobias Risthaus        : range-separated hybrid DFT                    
  Lukas Wittmann         : regularized MP2, r2SCAN double-hybrids, wr2SCAN        
                                                                         
We gratefully acknowledge several colleagues who have allowed us to      
interface, adapt or use parts of their codes:                            
  Ed Valeev, F. Pavosevic, A. Kumar             : LibInt (2-el integral package), F12 methods 
  Garnet Chan, S. Sharma, J. Yang, R. Olivares  : DMRG                   
  Ulf Ekstrom                                   : XCFun DFT Library      
  Mihaly Kallay                                 : mrcc  (arbitrary order and MRCC methods)
  Frank Weinhold                                : gennbo (NPA and NBO analysis)           
  Simon Mueller                                 : openCOSMO-RS                            
  Christopher J. Cramer and Donald G. Truhlar   : smd solvation model                     
  S Lehtola, MJT Oliveira, MAL Marques          : LibXC Library                           
  Liviu Ungur et al                             : ANISO software                          


 Your calculation uses the libint2 library for the computation of 2-el integrals
 For citations please refer to: http://libint.valeyev.net

 Your ORCA version has been built with support for libXC version: 6.2.2
 For citations please refer to: https://libxc.gitlab.io

 This ORCA versions uses:
   CBLAS   interface :  Fast vector & matrix operations
   LAPACKE interface :  Fast linear algebra routines
   SCALAPACK package :  Parallel linear algebra routines
   Shared memory     :  Shared parallel matrices
   BLAS/LAPACK       :  OpenBLAS 0.3.27  USE64BITINT DYNAMIC_ARCH NO_AFFINITY Zen SINGLE_THREADED
        Core in use  :  Zen
   Copyright (c) 2011-2014, The OpenBLAS Project




***************************************
The coordinates will be read from file: xtb_opt.xyz
***************************************


Your calculation utilizes the geometrical counterpoise correction gCP
Please cite in your paper:
H.Kruse, S. Grimme J.Chem.Phys., 136, (2012), 154101 
   

Your calculation utilizes the atom-pairwise dispersion correction
based on EEQ partial charges (D4)


Your calculation utilizes the SMD solvation module
Please cite in your paper:
A.V. Marenich, C.J. Cramer, D.G. Truhlar J. Phys. Chem. B, 113, (2009), 6378 

================================================================================

----- Orbital basis set information -----
Your calculation utilizes the basis: def2-mTZVPP
   Stefan Grimme, Andreas Hansen, Sebastian Ehlert, and Jan-Michael Mewes 
   J. Chem. Phys. 154, 064103 (2021). DOI: 10.1063/5.0040021

----- AuxJ basis set information -----
Your calculation utilizes the auxiliary basis: def2/J
   F. Weigend, Phys. Chem. Chem. Phys. 8, 1057 (2006).

================================================================================
                                        WARNINGS
                       Please study these warnings very carefully!
================================================================================

WARNING: Old DensityContainer found on disk!
         Will remove this file - 
         If you want to keep old densities, please start your calculation with a different basename. 



WARNING: SCAN, rSCAN, or r2SCAN functional requested.
  ===> : libXC variant has now been activated.



================================================================================
                                       INPUT FILE
================================================================================
NAME = xtb_opt.inp
|  1> ! r2scan-3c def2/J RI DEFGRID2 scfconv7 ENGRAD tightSCF miniprint
|  2> %cpcm
|  3>     smd true
|  4>     smdsolvent "water"
|  5> end
|  6> * xyzfile 0 1 xtb_opt.xyz
|  7> 
|  8>                          ****END OF INPUT****
================================================================================

                     *******************************
                     * Energy+Gradient Calculation *
                     *******************************

---------------------------------
CARTESIAN COORDINATES (ANGSTROEM)
---------------------------------
  C      2.319034    0.641222    0.754016
  C      2.260673   -0.468976   -0.293784
  C      0.890437   -1.146771   -0.406444
  C     -0.233368   -0.200473   -0.872826
  C     -1.147203    0.322757    0.247388
  C     -1.940799    1.538290   -0.232208
  C     -2.098754   -0.770900    0.736850
  H      3.328069    1.062023    0.825173
  H      1.636409    1.462953    0.511077
  H      2.044614    0.259685    1.744735
  H      3.016659   -1.227945   -0.055494
  H      2.533166   -0.057226   -1.275235
  H      0.980300   -1.990763   -1.100216
  H      0.628244   -1.580925    0.568363
  H      0.217011    0.653785   -1.397198
  H     -0.871086   -0.705194   -1.611875
  H     -0.517118    0.633394    1.092478
  H     -2.610302    1.911420    0.551038
  H     -1.273692    2.356395   -0.526741
  H     -2.556801    1.276725   -1.102280
  H     -2.777454   -1.070614   -0.072072
  H     -2.709970   -0.418746    1.575450
  H     -1.558350   -1.663999    1.069245

----------------------------
CARTESIAN COORDINATES (A.U.)
----------------------------
  NO LB      ZA    FRAG     MASS         X           Y           Z
   0 C     6.0000    0    12.011    4.382340    1.211734    1.424883
   1 C     6.0000    0    12.011    4.272053   -0.886237   -0.555171
   2 C     6.0000    0    12.011    1.682682   -2.167082   -0.768068
   3 C     6.0000    0    12.011   -0.441001   -0.378840   -1.649403
   4 C     6.0000    0    12.011   -2.167900    0.609922    0.467495
   5 C     6.0000    0    12.011   -3.667578    2.906946   -0.438810
   6 C     6.0000    0    12.011   -3.966069   -1.456789    1.392445
   7 H     1.0000    0     1.008    6.289139    2.006932    1.559350
   8 H     1.0000    0     1.008    3.092365    2.764581    0.965796
   9 H     1.0000    0     1.008    3.863761    0.490733    3.297071
  10 H     1.0000    0     1.008    5.700660   -2.320480   -0.104868
  11 H     1.0000    0     1.008    4.786991   -0.108141   -2.409844
  12 H     1.0000    0     1.008    1.852499   -3.761996   -2.079107
  13 H     1.0000    0     1.008    1.187208   -2.987515    1.074050
  14 H     1.0000    0     1.008    0.410091    1.235475   -2.640322
  15 H     1.0000    0     1.008   -1.646115   -1.332624   -3.046003
  16 H     1.0000    0     1.008   -0.977211    1.196942    2.064485
  17 H     1.0000    0     1.008   -4.932756    3.612060    1.041312
  18 H     1.0000    0     1.008   -2.406929    4.452941   -0.995396
  19 H     1.0000    0     1.008   -4.831654    2.412661   -2.083008
  20 H     1.0000    0     1.008   -5.248627   -2.023167   -0.136197
  21 H     1.0000    0     1.008   -5.121102   -0.791315    2.977169
  22 H     1.0000    0     1.008   -2.944856   -3.144502    2.020581

------------------------------------------------------------------------------
                   ___                                                        
                  /   \      - P O W E R E D   B Y -                         
                 /     \                                                     
                 |  |  |   _    _      __       _____    __    __             
                 |  |  |  | |  | |    /  \     |  _  \  |  |  /  |          
                  \  \/   | |  | |   /    \    | | | |  |  | /  /          
                 / \  \   | |__| |  /  /\  \   | |_| |  |  |/  /          
                |  |  |   |  __  | /  /__\  \  |    /   |      \           
                |  |  |   | |  | | |   __   |  |    \   |  |\   \          
                \     /   | |  | | |  |  |  |  | |\  \  |  | \   \       
                 \___/    |_|  |_| |__|  |__|  |_| \__\ |__|  \__/        
                                                                              
                      - O R C A' S   B I G   F R I E N D -                    
                                      &                                       
                       - I N T E G R A L  F E E D E R -                       
                                                                              
 v1 FN, 2020, v2 2021, v3 2022-2024                                           
------------------------------------------------------------------------------


----------------------
SHARK INTEGRAL PACKAGE
----------------------

Number of atoms                             ...     23
Number of basis functions                   ...    213
Number of shells                            ...    111
Maximum angular momentum                    ...      2
Integral batch strategy                     ... SHARK/LIBINT Hybrid
RI-J (if used) integral strategy            ... SPLIT-RIJ (Revised 2003 algorithm where possible)
Printlevel                                  ...      1
Contraction scheme used                     ... SEGMENTED contraction
Prescreening option                         ... SCHWARTZ
   Thresh                                   ... 3.000e-11
   Tcut                                     ... 1.000e-12
   Tpresel                                  ... 1.000e-12 
Coulomb Range Separation                    ... NOT USED
Exchange Range Separation                   ... NOT USED
Multipole approximations                    ... NOT USED
Finite Nucleus Model                        ... NOT USED
CABS basis                                  ... NOT available
Auxiliary Coulomb fitting basis             ... AVAILABLE
   # of basis functions in Aux-J            ...    519
   # of shells in Aux-J                     ...    185
   Maximum angular momentum in Aux-J        ...      4
Auxiliary J/K fitting basis                 ... NOT available
Auxiliary Correlation fitting basis         ... NOT available
Auxiliary 'external' fitting basis          ... NOT available

Checking pre-screening integrals            ... done (  0.0 sec) Dimension = 111
Check shell pair data                       ... done (  0.0 sec)
Shell pair information
Shell pair cut-off parameter TPreSel        ...   1.0e-12
Total number of shell pairs                 ...      6216
Shell pairs after pre-screening             ...      5688
Total number of primitive shell pairs       ...     21523
Primitive shell pairs kept                  ...     14281
          la=0 lb=0:   2082 shell pairs
          la=1 lb=0:   2266 shell pairs
          la=1 lb=1:    639 shell pairs
          la=2 lb=0:    432 shell pairs
          la=2 lb=1:    241 shell pairs
          la=2 lb=2:     28 shell pairs

Calculating one electron integrals          ... done (  0.0 sec)
Calculating RI/J V-Matrix + Cholesky decomp.... done (  0.0 sec)
Calculating Nuclear repulsion               ... done (  0.0 sec) ENN=    328.311030728828 Eh

Diagonalization of the overlap matrix:
Smallest eigenvalue                        ... 1.870e-04
Time for diagonalization                   ...    0.004 sec
Threshold for overlap eigenvalues          ... 1.000e-07
Number of eigenvalues below threshold      ... 0
Time for construction of square roots      ...    0.004 sec
Total time needed                          ...    0.009 sec

-------------------
DFT GRID GENERATION
-------------------

General Integration Accuracy     IntAcc      ... 4.388
Radial Grid Type                 RadialGrid  ... OptM3 with GC (2021)
Angular Grid (max. ang.)         AngularGrid ... 4 (Lebedev-302)
Angular grid pruning method      GridPruning ... 4 (adaptive)
Weight generation scheme         WeightScheme... mBecke (2022)
Basis function cutoff            BFCut       ... 1.0000e-11
Integration weight cutoff        WCut        ... 1.0000e-14
Partially contracted basis set               ... off
Rotationally invariant grid construction     ... off
Angular grids for H and He will be reduced by one unit

Total number of grid points                  ...    93001
Total number of batches                      ...     1464
Average number of points per batch           ...       63
Average number of grid points per atom       ...     4044
Initializing property integral containers    ... done (  0.0 sec)

SHARK setup successfully completed in   0.9 seconds

Maximum memory used throughout the entire STARTUP-calculation: 39.9 MB
Occupation numbers will be reassigned to an Aufbau configuration
             **** ENERGY FILE WAS UPDATED (xtb_opt.en.tmp) ****
Finished Guess after   0.1 sec
Maximum memory used throughout the entire GUESS-calculation: 15.7 MB
--------------------
CPCM SOLVATION MODEL
--------------------
CPCM parameters:
  Epsilon                                         ...      78.3550
  Refrac                                          ...       1.3328
  Rsolv                                           ...       1.3000
  Surface type                                    ... GAUSSIAN VDW
  Discretization scheme                           ... Constant charge density
    Threshold for H atoms                         ...       5.0000 (charges/Ang^2)
    Threshold for non-H atoms                     ...       5.0000 (charges/Ang^2)
  Epsilon function type                           ...         CPCM
Solvent:                                          ... WATER
SMD-CDS solvent descriptors:
  Soln                                            ...       1.3328
  Soln25                                          ...       1.3323
  Sola                                            ...       0.0000
  Solb                                            ...       0.0000
  Solg                                            ...       0.0000
  Solc                                            ...       0.0000
  Solh                                            ...       0.0000
Radii:
  Scheme                                          ... Element-dependent radii
  Radius for C  used is    3.4960 Bohr (=   1.8500 Ang.)
  Radius for H  used is    2.2677 Bohr (=   1.2000 Ang.)
Calculating surface                               ...        done! (  0.0s)
Cavity surface points                             ...         1692
Cavity Volume                                     ...     920.2134
Cavity Surface-area                               ...     598.9354
Calculating surface distance matrix               ...        done! (  0.0s)
Performing Cholesky decomposition & store         ...        done! (  0.1s)
Overall time for CPCM initialization              ...                 0.1s

----------------------------------------D-I-I-S--------------------------------------------
Iteration    Energy (Eh)           Delta-E    RMSDP     MaxDP     DIISErr   Damp  Time(sec)
-------------------------------------------------------------------------------------------
               ***  Starting incremental Fock matrix formation  ***
                              *** Initializing SOSCF ***
---------------------------------------S-O-S-C-F--------------------------------------
Iteration    Energy (Eh)           Delta-E    RMSDP     MaxDP     MaxGrad    Time(sec)
--------------------------------------------------------------------------------------
    1    -276.2916327849260938     0.00e+00  9.84e-05  2.43e-03  1.15e-04     2.5
               *** Restarting incremental Fock matrix formation ***
    2    -276.2916756933423699    -4.29e-05  4.12e-05  6.96e-04  1.11e-04     2.5
    3    -276.2916771426264972    -1.45e-06  1.47e-05  2.04e-04  1.41e-04     2.0
    4    -276.2916789359995278    -1.79e-06  6.69e-06  1.05e-04  2.15e-05     2.0
                  *** Gradient check signals convergence ***

               *****************************************************
               *                     SUCCESS                       *
               *           SCF CONVERGED AFTER   4 CYCLES          *
               *****************************************************


SMD CDS free energy correction energy :                 3.77107     Kcal/mol
Total Energy after SMD CDS correction =              -276.285669350 Eh
             **** ENERGY FILE WAS UPDATED (xtb_opt.en.tmp) ****

----------------
TOTAL SCF ENERGY
----------------

Total Energy       :       -276.28566934977368 Eh           -7518.11528 eV

Components:
Nuclear Repulsion  :        328.31103072882814 Eh            8933.79733 eV
Electronic Energy  :       -604.60022153782370 Eh          -16452.00843 eV
One Electron Energy:      -1020.86515001750104 Eh          -27779.15300 eV
Two Electron Energy:        416.26492847967728 Eh           11327.14456 eV
CPCM Dielectric    :         -0.00248812700395 Eh              -0.06771 eV
SMD CDS (Gcds)     :          0.00600958622587 Eh               0.16353 eV

Virial components:
Potential Energy   :       -551.05419550289673 Eh          -14994.94699 eV
Kinetic Energy     :        274.76852615312305 Eh            7476.83171 eV
Virial Ratio       :          2.00552153195234

DFT components:
N(Alpha)           :       29.000103451078 electrons
N(Beta)            :       29.000103451078 electrons
N(Total)           :       58.000206902155 electrons
E(X)               :      -42.084739405933 Eh       
E(C)               :       -1.777910434113 Eh       
E(XC)              :      -43.862649840046 Eh       

CPCM Solvation Model Properties:
Surface-charge          :         -0.05287589264814
Corrected charge        :          0.00000000000000
Outlying charge corr.   :          0.00021229433841 Eh               0.00578 eV
Free-energy (cav+disp)  :          0.00600958622587 Eh               0.16353 eV

---------------
SCF CONVERGENCE
---------------

  Last Energy change         ...    1.7934e-06  Tolerance :   1.0000e-07
  Last MAX-Density change    ...    1.0453e-04  Tolerance :   1.0000e-07
  Last RMS-Density change    ...    6.6914e-06  Tolerance :   5.0000e-09
  Last DIIS Error            ...    1.7967e-03  Tolerance :   1.0000e-07
  Last Orbital Gradient      ...    2.1485e-05  Tolerance :   1.0000e-04
  Last Orbital Rotation      ...    3.1870e-05  Tolerance :   1.0000e-04


----------------
ORBITAL ENERGIES
----------------

  NO   OCC          E(Eh)            E(eV) 
   0   2.0000     -10.024239      -272.7734 
   1   2.0000     -10.017172      -272.5811 
   2   2.0000     -10.014532      -272.5093 
   3   2.0000     -10.012994      -272.4674 
   4   2.0000     -10.009558      -272.3739 
   5   2.0000     -10.008406      -272.3426 
   6   2.0000     -10.008013      -272.3319 
   7   2.0000      -0.772054       -21.0087 
   8   2.0000      -0.733943       -19.9716 
   9   2.0000      -0.666550       -18.1377 
  10   2.0000      -0.638747       -17.3812 
  11   2.0000      -0.599905       -16.3243 
  12   2.0000      -0.531820       -14.4715 
  13   2.0000      -0.512554       -13.9473 
  14   2.0000      -0.432598       -11.7716 
  15   2.0000      -0.411741       -11.2040 
  16   2.0000      -0.394542       -10.7360 
  17   2.0000      -0.389720       -10.6048 
  18   2.0000      -0.378987       -10.3128 
  19   2.0000      -0.349775        -9.5179 
  20   2.0000      -0.342375        -9.3165 
  21   2.0000      -0.333783        -9.0827 
  22   2.0000      -0.321553        -8.7499 
  23   2.0000      -0.310783        -8.4568 
  24   2.0000      -0.296382        -8.0650 
  25   2.0000      -0.291291        -7.9264 
  26   2.0000      -0.275138        -7.4869 
  27   2.0000      -0.267987        -7.2923 
  28   2.0000      -0.266801        -7.2600 
  29   0.0000       0.091641         2.4937 
  30   0.0000       0.106254         2.8913 
  31   0.0000       0.115491         3.1427 
  32   0.0000       0.120886         3.2895 
  33   0.0000       0.130467         3.5502 
  34   0.0000       0.139582         3.7982 
  35   0.0000       0.142101         3.8668 
  36   0.0000       0.151884         4.1330 
  37   0.0000       0.155928         4.2430 
  38   0.0000       0.163985         4.4623 
  39   0.0000       0.168427         4.5831 
*Only the first 10 virtual orbitals were printed.
Total SCF time: 0 days 0 hours 0 min 9 sec 
Finished LeanSCF after  10.0 sec

Maximum memory used throughout the entire LEANSCF-calculation: 35.8 MB


-------------------------------------------------------------------------------
                          DFT DISPERSION CORRECTION                            
                                                                               
                                DFTD4 V3.4.0                                   
-------------------------------------------------------------------------------
-------------------------   ----------------
Dispersion correction           -0.006251567
-------------------------   ----------------

------------------   -----------------
gCP correction             0.010690198
------------------   -----------------

-------------------------   --------------------
FINAL SINGLE POINT ENERGY      -276.281230718834
-------------------------   --------------------

------------------------------------------------------------------------------
                         ORCA SCF GRADIENT CALCULATION
------------------------------------------------------------------------------

Nuc. rep. gradient        (SHARK) ... done (  0.0 sec)
HCore & Overlap gradient  (SHARK) ... done (  0.6 sec)
Split-RIJ-J gradient      (SHARK) ... done (  1.6 sec)
XC gradient                       ... done (  6.5 sec)
CPCM gradient                     ... done (  1.8 sec)
SMD gradient                      ... done (  0.0 sec)
Dispersion correction             ... done (  0.0 sec)

-------------------
DISPERSION GRADIENT
-------------------

   1   C   :    0.000102212    0.000037446    0.000044008
   2   C   :    0.000098848   -0.000021132   -0.000016380
   3   C   :    0.000050632   -0.000068098   -0.000024471
   4   C   :   -0.000015104   -0.000012530   -0.000056321
   5   C   :   -0.000068458    0.000016341    0.000011237
   6   C   :   -0.000083839    0.000078994   -0.000015692
   7   C   :   -0.000095040   -0.000043864    0.000040297
   8   H   :    0.000036374    0.000016342    0.000014697
   9   H   :    0.000050688    0.000023454    0.000015562
  10   H   :    0.000047502    0.000010689    0.000030045
  11   H   :    0.000033897   -0.000011974   -0.000000085
  12   H   :    0.000037382   -0.000004046   -0.000012746
  13   H   :    0.000021668   -0.000036885   -0.000024842
  14   H   :    0.000019251   -0.000031180    0.000000047
  15   H   :    0.000002019    0.000006246   -0.000030322
  16   H   :   -0.000014416   -0.000015528   -0.000031196
  17   H   :   -0.000027487    0.000011211    0.000014550
  18   H   :   -0.000028169    0.000030593    0.000004548
  19   H   :   -0.000030524    0.000046763   -0.000010310
  20   H   :   -0.000028344    0.000026376   -0.000011441
  21   H   :   -0.000036973   -0.000016846    0.000008896
  22   H   :   -0.000035015   -0.000011584    0.000025963
  23   H   :   -0.000037103   -0.000030787    0.000023956

Difference to translation invariance:
           :    0.0000000000   -0.0000000000   -0.0000000000

Difference to rotation invariance:
           :   -0.0000000000    0.0000000000    0.0000000000

Norm of the Dispersion gradient    ...    0.0003140849
RMS gradient                       ...    0.0000378114
MAX gradient                       ...    0.0001022119
gCP correction                   ... done

------------------
CARTESIAN GRADIENT
------------------

   1   C   :   -0.000068878    0.000082913    0.000142863
   2   C   :    0.000221592   -0.000354604   -0.000242770
   3   C   :   -0.000057071    0.000056941    0.000032650
   4   C   :   -0.000172749    0.000207008   -0.000097297
   5   C   :    0.000466182   -0.000196712    0.000100512
   6   C   :   -0.000000251    0.000001810   -0.000127426
   7   C   :   -0.000134513    0.000086568    0.000046029
   8   H   :    0.000185675    0.000021534    0.000079781
   9   H   :   -0.000034830    0.000171658    0.000069595
  10   H   :   -0.000062479   -0.000134269    0.000210091
  11   H   :    0.000140389    0.000065789   -0.000215381
  12   H   :   -0.000122045    0.000177880   -0.000167266
  13   H   :   -0.000004420   -0.000079234    0.000188288
  14   H   :    0.000015652    0.000031512    0.000292097
  15   H   :   -0.000028400    0.000021918   -0.000182393
  16   H   :   -0.000138789   -0.000135921   -0.000119656
  17   H   :    0.000082911   -0.000050929    0.000174125
  18   H   :   -0.000046344    0.000021072    0.000132342
  19   H   :    0.000151273    0.000091307   -0.000040377
  20   H   :   -0.000125708    0.000013311   -0.000160915
  21   H   :   -0.000135322   -0.000036305   -0.000224823
  22   H   :   -0.000187695    0.000053401    0.000094034
  23   H   :    0.000055821   -0.000116649    0.000015896

Difference to translation invariance:
           :   -0.0000000000    0.0000000000    0.0000000000

Difference to rotation invariance:
           :    0.0001938226    0.0000229900   -0.0006414294

Norm of the Cartesian gradient     ...    0.0011987731
RMS gradient                       ...    0.0001443153
MAX gradient                       ...    0.0004661816

-------
TIMINGS
-------

Total SCF gradient time     ....       10.510 sec

Densities                   ....       0.001 sec  (  0.0%)
One electron gradient       ....       0.574 sec  (  5.5%)
RI-J Coulomb gradient       ....       1.601 sec  ( 15.2%)
XC gradient                 ....       6.507 sec  ( 61.9%)
CPCM gradient               ....       1.787 sec  ( 17.0%)
   A-Matrix (El+Nuc)        ....       0.110 sec  (  1.0%)
   Potential                ....       1.677 sec  ( 16.0%)
SMD gradient                ....       0.002 sec  (  0.0%)

Maximum memory used throughout the entire SCFGRAD-calculation: 35.9 MB

------------------------------------------------------------------------------
                              ORCA PROPERTY CALCULATIONS
------------------------------------------------------------------------------

GBWName                                 ... xtb_opt.gbw
Number of atoms                         ...     23
Number of basis functions               ...    213
Max core memory                         ...   1024 MB

Electric properties:
Dipole moment                           ... YES
Quadrupole moment                       ...  NO
Static polarizability (Dipole/Dipole)   ...  NO
Static polarizability (Dipole/Quad.)    ...  NO
Static polarizability (Quad./Quad.)     ...  NO
Static polarizability (Velocity)        ...  NO

Atomic electric properties:
Dipole moment                           ...  NO
Quadrupole moment                       ...  NO
Static polarizability                   ...  NO

Choice of electric origin               ... Center of mass
Position of electric origin             ...     0.002010    -0.002093    -0.000038

General magnetic properties:
Magnetizability                         ...  NO

EPR properties:
g-Tensor (aka g-matrix)                 ...  NO
Zero-Field splitting spin-orbit         ...  NO
Zero-field splitting spin-spin          ...  NO
Hyperfine couplings                     ...  NO (   0 nuclei)
Quadrupole couplings                    ...  NO (   0 nuclei)
Contact density                         ...  NO (   0 nuclei)

NMR properties:
Chemical shifts                         ...  NO (   0 nuclei)
Spin-rotation constants                 ...  NO (   0 nuclei)
Spin-spin couplings                     ...  NO (   0 nuclei,    0 pairs)

Choice of magnetic origin               ... GIAO
Position of magnetic origin             ...     0.000000     0.000000     0.000000

Properties with geometric perturbations:
SCF Hessian                             ...  NO
IR spectrum                             ...  NO
VCD spectrum                            ...  NO
X-ray spectroscopy properties:
SCF XES/XAS/RIXS spectra                ...  NO


-------------
DIPOLE MOMENT
-------------

Method             : SCF
Type of density    : Electron Density
Multiplicity       :   1
Irrep              :   0
Energy             :  -276.2856693497736842 Eh
Relativity type    : 
Basis              : AO
                                X                 Y                 Z
Electronic contribution:      0.532616153      -0.880686104      -0.741761619
Nuclear contribution   :     -0.475954954       0.861892236       0.747512461
                        -----------------------------------------
Total Dipole Moment    :      0.056661199      -0.018793868       0.005750842
                        -----------------------------------------
Magnitude (a.u.)       :      0.059973103
Magnitude (Debye)      :      0.152439514



--------------------
Rotational spectrum 
--------------------
 
Rotational constants in cm-1:             0.130339             0.045789             0.041303 
Rotational constants in MHz :          3907.476208          1372.729608          1238.236140 

Dipole components along the rotational axes: 
x,y,z [a.u.] :     0.058538    -0.010052    -0.008311 
x,y,z [Debye]:     0.148791    -0.025550    -0.021125 

 

Dipole moment calculation done in   0.6 sec 

Maximum memory used throughout the entire PROP-calculation: 14.4 MB

--------------------------------
SUGGESTED CITATIONS FOR THIS RUN
--------------------------------

Below you find a list of papers that are relevant to this ORCA run
We neither can nor want to force you to cite these papers, but we appreciate if you do
You receive ORCA, which is the product of decades of hard work by many enthusiastic individuals, for free
The only thing we kindly ask in return is that you cite our papers,
We deeply appreciate it, if you show your appreciation for ORCA by not just citing the generic ORCA reference.

Please note that relegating all ORCA citations to the supporting information does *not* help us.
SI sections are not indexed - citations you put there will not count into any citation statistics
But we need these citations in order to attract the funding resources that allow us to do what we are doing

Therefore, if you are a happy ORCA user, please consider citing a few of the papers listed below in the main body of your paper

In addition to the list printed below, the program has created the file xtb_opt.bibtex that contains the list in bibtex format
You can import this file easily into all common literature databanks and citation aid programs


List of essential papers. We consider these as the minimum necessary citations

  1. Neese,F.
     Software update: the ORCA program system, version 5.0
     WIRES Comput. Molec. Sci., 2022 12(1)e1606
     doi.org/10.1002/wcms.1606
  2. Grimme,S.; Hansen,A.; Ehlert,S.; Mewes,J.
     r2SCAN-3c: A 'Swiss army knife' composite electronic-structure method
     J. Chem. Phys., 2021 154 064103
     doi.org/10.1063/5.0040021

List of papers to cite with high priority. The work reported in these papers was absolutely
necessary for this run to complete.
Our perspective: the developers of density functionals and basis sets usually get cited in chemistry papers
Good! But without the algorithms to do something with them, the functionals or basis sets would not do anything.
Hence, in our opinion, the algorithm design and method developments papers are equally worthy of getting cited

  1. Neese,F.
     An improvement of the resolution of the identity approximation for the formation of the Coulomb matrix
     J. Comp. Chem., 2003 24(14)1740-1747
     doi.org/10.1002/jcc.10318
  2. Garcia-Rates,M.; Neese,F.
     Effect of the Solute Cavity on the Solvation Energy and its Derivatives within the Framework of the Gaussian Charge Scheme
     J. Comput. Chem., 2020 41 922-939
     doi.org/10.1002/jcc.26139
  3. Neese,F.
     The SHARK Integral Generation and Digestion System
     J. Comp. Chem., 2022  1-16
     doi.org/10.1002/jcc.26942
  4. Lehtola,S.; Steigemann,C.; Oliveira,M.; Marques,M.
     Recent developments in Libxc - A comprehensive library of functionals for density functional theory
     Software X, 2018 7 
     doi.org/10.1016/j.softx.2017.11.002
  5. Caldeweyher,E.; Bannwarth,C.; Grimme,S.
     Extension of the D3 dispersion coefficient model
     J. Chem. Phys., 2017 147 034112
     doi.org/10.1063/1.4993215
  6. Caldeweyher,E.; Ehlert,S.; Hansen,A.; Neugebauer,H.; Spicher,S.; Bannwarth,C.; Grimme,S.
     A generally applicable atomic-charge dependent London dispersion correction
     J. Chem. Phys., 2019 150 154122
     doi.org/10.1063/1.5090222
  7. Caldeweyher,E.; Mewes,J.; Ehlert,S.; Grimme,S.
     Extension and evaluation of the D4 London-dispersion model for periodic systems
     Phys. Chem. Chem. Phys., 2020 22(16)8499-8512
     doi.org/10.1039/D0CP00502A
  8. Wittmann,L.; Gordiy,I.; Friede,M.; Helmich-Paris,B.; Grimme,S.; Hansen,A.; Bursch,M.
     Extension of the D3 and D4 London Dispersion Corrections to the full Actinides Series
     Phys. Chem. Chem. Phys., 2024 26(32)21379-21394
     doi.org/https://doi.org/10.1039/D4CP01514B 

List of suggested additional citations. These are papers that are important in the 'surrounding' of 
of this run, or papers that preceded the highly important papers. If you like your results we are grateful for a citation.

  1. Neese,F.
     The ORCA program system
     WIRES Comput. Molec. Sci., 2012 2(1)73-78
     doi.org/10.1002/wcms.81
  2. Neese,F.
     Software update: the ORCA program system, version 4.0
     WIRES Comput. Molec. Sci., 2018 8(1)1-6
     doi.org/10.1002/wcms.1327
  3. Neese,F.; Wennmohs,F.; Becker,U.; Riplinger,C.
     The ORCA quantum chemistry program package
     J. Chem. Phys., 2020 152 Art. No. L224108
     doi.org/10.1063/5.0004608

List of optional additional citations

  1. Neese,F.
     Approximate second-order SCF convergence for spin unrestricted wavefunctions
     Chem. Phys. Lett., 2000 325(1-3)93-98
     doi.org/10.1016/s0009-2614(00)00662-x

Timings for individual modules:

Sum of individual times          ...       22.899 sec (=   0.382 min)
Startup calculation              ...        0.925 sec (=   0.015 min)   4.0 %
SCF iterations                   ...       10.164 sec (=   0.169 min)  44.4 %
Property calculations            ...        0.661 sec (=   0.011 min)   2.9 %
SCF Gradient evaluation          ...       11.149 sec (=   0.186 min)  48.7 %
                             ****ORCA TERMINATED NORMALLY****
TOTAL RUN TIME: 0 days 0 hours 0 minutes 24 seconds 139 msec
  ------------------------------------------------------------------------
          * successful ORCA run, taking over control again...
av. E:   -276.2812307 ->   -276.2812307
av. G:      0.0065284 ->      0.0065284
 * total energy  :  -276.2812307 Eh     change       -0.8415048E-04 Eh
   gradient norm :     0.0011983 Eh/a0  converged?    E=F G=F D=F
   step length   :     0.0572858 a0

........................................................................
.............................. CYCLE    3 ..............................
........................................................................
                         * ORCA takes the control...
  ------------------------------------------------------------------------

                                 *****************
                                 * O   R   C   A *
                                 *****************

                                            #,                                       
                                            ###                                      
                                            ####                                     
                                            #####                                    
                                            ######                                   
                                           ########,                                 
                                     ,,################,,,,,                         
                               ,,#################################,,                 
                          ,,##########################################,,             
                       ,#########################################, ''#####,          
                    ,#############################################,,   '####,        
                  ,##################################################,,,,####,       
                ,###########''''           ''''###############################       
              ,#####''   ,,,,##########,,,,          '''####'''          '####       
            ,##' ,,,,###########################,,,                        '##       
           ' ,,###''''                  '''############,,,                           
         ,,##''                                '''############,,,,        ,,,,,,###''
      ,#''                                            '''#######################'''  
     '                                                          ''''####''''         
             ,#######,   #######,   ,#######,      ##                                
            ,#'     '#,  ##    ##  ,#'     '#,    #''#        ,####,   ,####,        
            ##       ##  ##   ,#'  ##            #'  '#       #'       #'  '#        
            ##       ##  #######   ##           ,######,      #####,   #    #        
            '#,     ,#'  ##    ##  '#,     ,#' ,#      #,     #,   #   #,  ,#        
             '#######'   ##     ##  '#######'  #'      '#     '####' # '####'        



                #########################################################
                #                        -***-                          #
                #          Department of theory and spectroscopy        #
                #                                                       #
                #                      Frank Neese                      #
                #                                                       #
                #     Directorship, Architecture, Infrastructure        #
                #                    SHARK, DRIVERS                     #
                #        Core code/Algorithms in most modules           #
                #                                                       #
                #        Max Planck Institute fuer Kohlenforschung      #
                #                Kaiser Wilhelm Platz 1                 #
                #                 D-45470 Muelheim/Ruhr                 #
                #                      Germany                          #
                #                                                       #
                #                  All rights reserved                  #
                #                        -***-                          #
                #########################################################


                         Program Version 6.0.1  -  RELEASE   -


 With contributions from (in alphabetic order):
[Max-Planck-Institut fuer Kohlenforschung]                               
  Daniel Aravena         : Magnetic Suceptibility                        
  Michael Atanasov       : Ab Initio Ligand Field Theory (pilot matlab implementation)
  Alexander A. Auer      : GIAO ZORA, VPT2 properties, NMR spectrum      
  Ute Becker             : All parallelization in ORCA, NUMFREQ, NUMCALC 
  Giovanni Bistoni       : ED, misc. LED, open-shell LED, HFLD           
  Martin Brehm           : Molecular dynamics                            
  Dmytro Bykov           : pre 5.0 version of the SCF Hessian            
  Marcos Casanova-Páez   : Triplet and SCS-CIS(D). UHF-(DLPNO)-IP/EA/STEOM-CCSD. UHF-CVS-IP/STEOM-CCSD   
  Vijay G. Chilkuri      : MRCI spin determinant printing, contributions to CSF-ICE 
  Pauline Colinet        : FMM embedding                                 
  Dipayan Datta          : RHF DLPNO-CCSD density                        
  Achintya Kumar Dutta   : EOM-CC, STEOM-CC                              
  Nicolas Foglia         : Exact transition moments, OPA infrastructure, MCD improvements    
  Dmitry Ganyushin       : Spin-Orbit,Spin-Spin,Magnetic field MRCI      
  Miquel Garcia-Rates    : C-PCM and meta-GGA Hessian, CCSD/C-PCM, Gaussian charge scheme 
  Tiago L. C. Gouveia    : GS-ROHF, GS-ROCIS                             
  Yang Guo               : DLPNO-NEVPT2, F12-NEVPT2, CIM, IAO-localization        
  Andreas Hansen         : Spin unrestricted coupled pair/coupled cluster methods 
  Ingolf Harden          : AUTO-CI MPn and infrastructure                
  Benjamin Helmich-Paris : MC-RPA, TRAH-(SCF,CASSCF), AVAS, COSX integrals, SCF dyn. polar. 
  Lee Huntington         : MR-EOM, pCC                                   
  Robert Izsak           : Overlap fitted RIJCOSX, COSX-SCS-MP3, EOM     
  Riya Kayal             : Wick's Theorem for AUTO-CI, AUTO-CI UHF-CCSDT 
  Emily Kempfer          : AUTO-CI, RHF CISDT and CCSDT                  
  Christian Kollmar      : KDIIS, OOCD, Brueckner-CCSD(T), CCSD density, CASPT2, CASPT2-K, improved NEVPT2 
  Axel Koslowski         : Symmetry handling                             
  Simone Kossmann        : meta-GGA functionals, TD-DFT gradient, OOMP2, (MP2 Hessian; deprecated post 5.0) 
  Lucas Lang             : DCDCAS                                        
  Marvin Lechner         : AUTO-CI (C++ implementation), FIC-MRCC        
  Spencer Leger          : CASSCF response                               
  Dagmar Lenk            : GEPOL surface, SMD, ORCA-2-JSON               
  Dimitrios Liakos       : Extrapolation schemes; Compound Job, initial MDCI parallelization 
  Dimitrios Manganas     : Further ROCIS development; embedding schemes. LFT, Crystal Embedding 
  Dimitrios Pantazis     : SARC Basis sets                               
  Anastasios Papadopoulos: AUTO-CI, single reference methods and gradients 
  Taras Petrenko         : pre 6.0 DFT Hessian and TD-DFT gradient, (ASA, deprecated), ECA, 1-Electron XAS/XES, NRVS 
  Peter Pinski           : DLPNO-MP2, DLPNO-MP2 Gradient                 
  Christoph Reimann      : Effective Core Potentials                     
  Marius Retegan         : Local ZFS, SOC                                
  Christoph Riplinger    : Optimizer, TS searches, QM/MM, DLPNO-CCSD(T), (RO)-DLPNO pert. Triples 
  Michael Roemelt        : Original ROCIS implementation                 
  Masaaki Saitow         : Open-shell DLPNO-CCSD energy and density      
  Barbara Sandhoefer     : DKH picture change effects                    
  Kantharuban Sivalingam : CASSCF convergence/infrastructure, NEVPT2 and variants, FIC-MRCI 
  Bernardo de Souza      : ESD, SOC TD-DFT                               
  Georgi L. Stoychev     : AutoAux, RI-MP2 NMR, DLPNO-MP2 response, X2C  
  Van Anh Tran           : RI-MP2 g-tensors                              
  Willem Van den Heuvel  : Paramagnetic NMR                              
  Zikuan Wang            : NOTCH, Electric field optimization            
  Frank Wennmohs         : Technical directorship and infrastructure     
  Hang Xu                : AUTO-CI-Response properties                   
                                                                         
[FACCTs GmbH]                                                            
  Markus Bursch, Miquel Garcia-Rates, Christoph Riplinger, Bernardo de Souza, Georgi L. Stoychev 
                                                                 
  APM, Basis sets (HGBS, AHGBS, def-TZVP (Ac-Lr), def2-XVPD (La-Lu)), CI-OPT, improved COSX, DLPNO-Multilevel,           
  DOCKER, DRACO, updates on ESD, GOAT, IRC, LR-CPCM, MBIS, meta-GGA TD-DFT gradient, ML-optimized integration grids, 
  MM, NACMEs, nearIR, NEB, NEB-TS, NL-DFT gradient (VV10), 2- and 3-layer-ONIOM, interface openCOSMO-RS, QMMM,   
  Crystal-QMMM, SF, symmetry and pop. for TD-DFT, r2SCAN hybrids, SOLVATOR                                   
                                                                         
[Other institutions]                                                     
  V. Asgeirsson          : NEB                                           
  Christoph Bannwarth    : sTDA-DFT, sTD-DFT, PBEh-3c, B97-3c, D3        
  Sebastian Ehlert       : rSCAN, r2SCAN, r2SCAN-3c, D4, dhf basis sets  
  Marvin Friede          : D4 for Fr, Ra, Ac-Lr                          
  Lars Goerigk           : TD-DFT with DH, B97 family of functionals     
  Stefan Grimme          : VdW corrections, initial TS optimization, DFT functionals, gCP, sTDA/sTD-DF 
  Waldemar Hujo          : DFT-NL                                        
  H. Jonsson             : NEB                                           
  Holger Kruse           : gCP                                           
  Marcel Mueller         : wB97X-3c, vDZP basis set                      
  Hagen Neugebauer       : wr2SCAN                                       
  Tobias Risthaus        : range-separated hybrid DFT                    
  Lukas Wittmann         : regularized MP2, r2SCAN double-hybrids, wr2SCAN        
                                                                         
We gratefully acknowledge several colleagues who have allowed us to      
interface, adapt or use parts of their codes:                            
  Ed Valeev, F. Pavosevic, A. Kumar             : LibInt (2-el integral package), F12 methods 
  Garnet Chan, S. Sharma, J. Yang, R. Olivares  : DMRG                   
  Ulf Ekstrom                                   : XCFun DFT Library      
  Mihaly Kallay                                 : mrcc  (arbitrary order and MRCC methods)
  Frank Weinhold                                : gennbo (NPA and NBO analysis)           
  Simon Mueller                                 : openCOSMO-RS                            
  Christopher J. Cramer and Donald G. Truhlar   : smd solvation model                     
  S Lehtola, MJT Oliveira, MAL Marques          : LibXC Library                           
  Liviu Ungur et al                             : ANISO software                          


 Your calculation uses the libint2 library for the computation of 2-el integrals
 For citations please refer to: http://libint.valeyev.net

 Your ORCA version has been built with support for libXC version: 6.2.2
 For citations please refer to: https://libxc.gitlab.io

 This ORCA versions uses:
   CBLAS   interface :  Fast vector & matrix operations
   LAPACKE interface :  Fast linear algebra routines
   SCALAPACK package :  Parallel linear algebra routines
   Shared memory     :  Shared parallel matrices
   BLAS/LAPACK       :  OpenBLAS 0.3.27  USE64BITINT DYNAMIC_ARCH NO_AFFINITY Zen SINGLE_THREADED
        Core in use  :  Zen
   Copyright (c) 2011-2014, The OpenBLAS Project




***************************************
The coordinates will be read from file: xtb_opt.xyz
***************************************


Your calculation utilizes the geometrical counterpoise correction gCP
Please cite in your paper:
H.Kruse, S. Grimme J.Chem.Phys., 136, (2012), 154101 
   

Your calculation utilizes the atom-pairwise dispersion correction
based on EEQ partial charges (D4)


Your calculation utilizes the SMD solvation module
Please cite in your paper:
A.V. Marenich, C.J. Cramer, D.G. Truhlar J. Phys. Chem. B, 113, (2009), 6378 

================================================================================

----- Orbital basis set information -----
Your calculation utilizes the basis: def2-mTZVPP
   Stefan Grimme, Andreas Hansen, Sebastian Ehlert, and Jan-Michael Mewes 
   J. Chem. Phys. 154, 064103 (2021). DOI: 10.1063/5.0040021

----- AuxJ basis set information -----
Your calculation utilizes the auxiliary basis: def2/J
   F. Weigend, Phys. Chem. Chem. Phys. 8, 1057 (2006).

================================================================================
                                        WARNINGS
                       Please study these warnings very carefully!
================================================================================

WARNING: Old DensityContainer found on disk!
         Will remove this file - 
         If you want to keep old densities, please start your calculation with a different basename. 



WARNING: SCAN, rSCAN, or r2SCAN functional requested.
  ===> : libXC variant has now been activated.



================================================================================
                                       INPUT FILE
================================================================================
NAME = xtb_opt.inp
|  1> ! r2scan-3c def2/J RI DEFGRID2 scfconv7 ENGRAD tightSCF miniprint
|  2> %cpcm
|  3>     smd true
|  4>     smdsolvent "water"
|  5> end
|  6> * xyzfile 0 1 xtb_opt.xyz
|  7> 
|  8>                          ****END OF INPUT****
================================================================================

                     *******************************
                     * Energy+Gradient Calculation *
                     *******************************

---------------------------------
CARTESIAN COORDINATES (ANGSTROEM)
---------------------------------
  C      2.317548    0.641805    0.752289
  C      2.260470   -0.472077   -0.290609
  C      0.889974   -1.148028   -0.409484
  C     -0.232146   -0.198239   -0.872461
  C     -1.147628    0.324151    0.247303
  C     -1.942681    1.538415   -0.231595
  C     -2.095906   -0.771233    0.738428
  H      3.326235    1.063584    0.823111
  H      1.635003    1.462466    0.505102
  H      2.041960    0.265076    1.744601
  H      3.013399   -1.232291   -0.045695
  H      2.540202   -0.064938   -1.272181
  H      0.980266   -1.988505   -1.107872
  H      0.624750   -1.587909    0.562052
  H      0.220274    0.657337   -1.393267
  H     -0.869371   -0.699064   -1.614708
  H     -0.517374    0.636514    1.091605
  H     -2.613147    1.911507    0.550965
  H     -1.277144    2.357747   -0.526549
  H     -2.558419    1.276332   -1.101812
  H     -2.776297   -1.072611   -0.068528
  H     -2.706060   -0.420191    1.578307
  H     -1.554188   -1.663730    1.070435

----------------------------
CARTESIAN COORDINATES (A.U.)
----------------------------
  NO LB      ZA    FRAG     MASS         X           Y           Z
   0 C     6.0000    0    12.011    4.379531    1.212837    1.421620
   1 C     6.0000    0    12.011    4.271670   -0.892096   -0.549172
   2 C     6.0000    0    12.011    1.681808   -2.169458   -0.773813
   3 C     6.0000    0    12.011   -0.438692   -0.374618   -1.648712
   4 C     6.0000    0    12.011   -2.168703    0.612557    0.467335
   5 C     6.0000    0    12.011   -3.671136    2.907182   -0.437652
   6 C     6.0000    0    12.011   -3.960689   -1.457418    1.395426
   7 H     1.0000    0     1.008    6.285674    2.009883    1.555455
   8 H     1.0000    0     1.008    3.089709    2.763660    0.954504
   9 H     1.0000    0     1.008    3.858744    0.500921    3.296819
  10 H     1.0000    0     1.008    5.694498   -2.328692   -0.086351
  11 H     1.0000    0     1.008    4.800286   -0.122715   -2.404073
  12 H     1.0000    0     1.008    1.852435   -3.757730   -2.093574
  13 H     1.0000    0     1.008    1.180607   -3.000713    1.062125
  14 H     1.0000    0     1.008    0.416257    1.242187   -2.632892
  15 H     1.0000    0     1.008   -1.642873   -1.321039   -3.051356
  16 H     1.0000    0     1.008   -0.977696    1.202837    2.062835
  17 H     1.0000    0     1.008   -4.938131    3.612225    1.041172
  18 H     1.0000    0     1.008   -2.413453    4.455497   -0.995033
  19 H     1.0000    0     1.008   -4.834711    2.411919   -2.082122
  20 H     1.0000    0     1.008   -5.246441   -2.026941   -0.129499
  21 H     1.0000    0     1.008   -5.113712   -0.794046    2.982568
  22 H     1.0000    0     1.008   -2.936990   -3.143995    2.022829

------------------------------------------------------------------------------
                   ___                                                        
                  /   \      - P O W E R E D   B Y -                         
                 /     \                                                     
                 |  |  |   _    _      __       _____    __    __             
                 |  |  |  | |  | |    /  \     |  _  \  |  |  /  |          
                  \  \/   | |  | |   /    \    | | | |  |  | /  /          
                 / \  \   | |__| |  /  /\  \   | |_| |  |  |/  /          
                |  |  |   |  __  | /  /__\  \  |    /   |      \           
                |  |  |   | |  | | |   __   |  |    \   |  |\   \          
                \     /   | |  | | |  |  |  |  | |\  \  |  | \   \       
                 \___/    |_|  |_| |__|  |__|  |_| \__\ |__|  \__/        
                                                                              
                      - O R C A' S   B I G   F R I E N D -                    
                                      &                                       
                       - I N T E G R A L  F E E D E R -                       
                                                                              
 v1 FN, 2020, v2 2021, v3 2022-2024                                           
------------------------------------------------------------------------------


----------------------
SHARK INTEGRAL PACKAGE
----------------------

Number of atoms                             ...     23
Number of basis functions                   ...    213
Number of shells                            ...    111
Maximum angular momentum                    ...      2
Integral batch strategy                     ... SHARK/LIBINT Hybrid
RI-J (if used) integral strategy            ... SPLIT-RIJ (Revised 2003 algorithm where possible)
Printlevel                                  ...      1
Contraction scheme used                     ... SEGMENTED contraction
Prescreening option                         ... SCHWARTZ
   Thresh                                   ... 3.000e-11
   Tcut                                     ... 1.000e-12
   Tpresel                                  ... 1.000e-12 
Coulomb Range Separation                    ... NOT USED
Exchange Range Separation                   ... NOT USED
Multipole approximations                    ... NOT USED
Finite Nucleus Model                        ... NOT USED
CABS basis                                  ... NOT available
Auxiliary Coulomb fitting basis             ... AVAILABLE
   # of basis functions in Aux-J            ...    519
   # of shells in Aux-J                     ...    185
   Maximum angular momentum in Aux-J        ...      4
Auxiliary J/K fitting basis                 ... NOT available
Auxiliary Correlation fitting basis         ... NOT available
Auxiliary 'external' fitting basis          ... NOT available

Checking pre-screening integrals            ... done (  0.0 sec) Dimension = 111
Check shell pair data                       ... done (  0.0 sec)
Shell pair information
Shell pair cut-off parameter TPreSel        ...   1.0e-12
Total number of shell pairs                 ...      6216
Shell pairs after pre-screening             ...      5687
Total number of primitive shell pairs       ...     21523
Primitive shell pairs kept                  ...     14283
          la=0 lb=0:   2082 shell pairs
          la=1 lb=0:   2264 shell pairs
          la=1 lb=1:    639 shell pairs
          la=2 lb=0:    432 shell pairs
          la=2 lb=1:    242 shell pairs
          la=2 lb=2:     28 shell pairs

Calculating one electron integrals          ... done (  0.0 sec)
Calculating RI/J V-Matrix + Cholesky decomp.... done (  0.0 sec)
Calculating Nuclear repulsion               ... done (  0.0 sec) ENN=    328.310923938190 Eh

Diagonalization of the overlap matrix:
Smallest eigenvalue                        ... 1.880e-04
Time for diagonalization                   ...    0.004 sec
Threshold for overlap eigenvalues          ... 1.000e-07
Number of eigenvalues below threshold      ... 0
Time for construction of square roots      ...    0.004 sec
Total time needed                          ...    0.009 sec

-------------------
DFT GRID GENERATION
-------------------

General Integration Accuracy     IntAcc      ... 4.388
Radial Grid Type                 RadialGrid  ... OptM3 with GC (2021)
Angular Grid (max. ang.)         AngularGrid ... 4 (Lebedev-302)
Angular grid pruning method      GridPruning ... 4 (adaptive)
Weight generation scheme         WeightScheme... mBecke (2022)
Basis function cutoff            BFCut       ... 1.0000e-11
Integration weight cutoff        WCut        ... 1.0000e-14
Partially contracted basis set               ... off
Rotationally invariant grid construction     ... off
Angular grids for H and He will be reduced by one unit

Total number of grid points                  ...    93001
Total number of batches                      ...     1466
Average number of points per batch           ...       63
Average number of grid points per atom       ...     4044
Initializing property integral containers    ... done (  0.0 sec)

SHARK setup successfully completed in   0.9 seconds

Maximum memory used throughout the entire STARTUP-calculation: 39.9 MB
Occupation numbers will be reassigned to an Aufbau configuration
             **** ENERGY FILE WAS UPDATED (xtb_opt.en.tmp) ****
Finished Guess after   0.1 sec
Maximum memory used throughout the entire GUESS-calculation: 15.7 MB
--------------------
CPCM SOLVATION MODEL
--------------------
CPCM parameters:
  Epsilon                                         ...      78.3550
  Refrac                                          ...       1.3328
  Rsolv                                           ...       1.3000
  Surface type                                    ... GAUSSIAN VDW
  Discretization scheme                           ... Constant charge density
    Threshold for H atoms                         ...       5.0000 (charges/Ang^2)
    Threshold for non-H atoms                     ...       5.0000 (charges/Ang^2)
  Epsilon function type                           ...         CPCM
Solvent:                                          ... WATER
SMD-CDS solvent descriptors:
  Soln                                            ...       1.3328
  Soln25                                          ...       1.3323
  Sola                                            ...       0.0000
  Solb                                            ...       0.0000
  Solg                                            ...       0.0000
  Solc                                            ...       0.0000
  Solh                                            ...       0.0000
Radii:
  Scheme                                          ... Element-dependent radii
  Radius for C  used is    3.4960 Bohr (=   1.8500 Ang.)
  Radius for H  used is    2.2677 Bohr (=   1.2000 Ang.)
Calculating surface                               ...        done! (  0.0s)
Cavity surface points                             ...         1693
Cavity Volume                                     ...     920.2540
Cavity Surface-area                               ...     598.8856
Calculating surface distance matrix               ...        done! (  0.0s)
Performing Cholesky decomposition & store         ...        done! (  0.1s)
Overall time for CPCM initialization              ...                 0.1s

----------------------------------------D-I-I-S--------------------------------------------
Iteration    Energy (Eh)           Delta-E    RMSDP     MaxDP     DIISErr   Damp  Time(sec)
-------------------------------------------------------------------------------------------
               ***  Starting incremental Fock matrix formation  ***
                              *** Initializing SOSCF ***
---------------------------------------S-O-S-C-F--------------------------------------
Iteration    Energy (Eh)           Delta-E    RMSDP     MaxDP     MaxGrad    Time(sec)
--------------------------------------------------------------------------------------
    1    -276.2916656944447595     0.00e+00  6.45e-05  1.22e-03  8.18e-05     2.5
               *** Restarting incremental Fock matrix formation ***
    2    -276.2916973670443213    -3.17e-05  2.89e-05  5.26e-04  8.40e-05     2.6
    3    -276.2916993144667686    -1.95e-06  4.08e-06  5.60e-05  1.50e-05     2.1
                  *** Gradient check signals convergence ***

               *****************************************************
               *                     SUCCESS                       *
               *           SCF CONVERGED AFTER   3 CYCLES          *
               *****************************************************


SMD CDS free energy correction energy :                 3.76814     Kcal/mol
Total Energy after SMD CDS correction =              -276.285694399 Eh
             **** ENERGY FILE WAS UPDATED (xtb_opt.en.tmp) ****

----------------
TOTAL SCF ENERGY
----------------

Total Energy       :       -276.28569439936552 Eh           -7518.11596 eV

Components:
Nuclear Repulsion  :        328.31092393818994 Eh            8933.79443 eV
Electronic Energy  :       -604.60013740070372 Eh          -16452.00614 eV
One Electron Energy:      -1020.86916278679587 Eh          -27779.26219 eV
Two Electron Energy:        416.26902538609210 Eh           11327.25605 eV
CPCM Dielectric    :         -0.00248585195297 Eh              -0.06764 eV
SMD CDS (Gcds)     :          0.00600491510127 Eh               0.16340 eV

Virial components:
Potential Energy   :       -551.05285861106768 Eh          -14994.91061 eV
Kinetic Energy     :        274.76716421170210 Eh            7476.79465 eV
Virial Ratio       :          2.00552660719857

DFT components:
N(Alpha)           :       29.000100744993 electrons
N(Beta)            :       29.000100744993 electrons
N(Total)           :       58.000201489986 electrons
E(X)               :      -42.084760452253 Eh       
E(C)               :       -1.777933547147 Eh       
E(XC)              :      -43.862693999400 Eh       

CPCM Solvation Model Properties:
Surface-charge          :         -0.05286219772760
Corrected charge        :         -0.00000000000000
Outlying charge corr.   :          0.00021218231338 Eh               0.00577 eV
Free-energy (cav+disp)  :          0.00600491510127 Eh               0.16340 eV

---------------
SCF CONVERGENCE
---------------

  Last Energy change         ...    1.9474e-06  Tolerance :   1.0000e-07
  Last MAX-Density change    ...    5.6046e-05  Tolerance :   1.0000e-07
  Last RMS-Density change    ...    4.0800e-06  Tolerance :   5.0000e-09
  Last DIIS Error            ...    2.1495e-03  Tolerance :   1.0000e-07
  Last Orbital Gradient      ...    1.5020e-05  Tolerance :   1.0000e-04
  Last Orbital Rotation      ...    2.4659e-05  Tolerance :   1.0000e-04


----------------
ORBITAL ENERGIES
----------------

  NO   OCC          E(Eh)            E(eV) 
   0   2.0000     -10.024229      -272.7731 
   1   2.0000     -10.017079      -272.5786 
   2   2.0000     -10.014503      -272.5085 
   3   2.0000     -10.012835      -272.4631 
   4   2.0000     -10.009505      -272.3725 
   5   2.0000     -10.008482      -272.3447 
   6   2.0000     -10.007900      -272.3288 
   7   2.0000      -0.771980       -21.0066 
   8   2.0000      -0.733956       -19.9720 
   9   2.0000      -0.666571       -18.1383 
  10   2.0000      -0.638790       -17.3824 
  11   2.0000      -0.599962       -16.3258 
  12   2.0000      -0.531804       -14.4711 
  13   2.0000      -0.512360       -13.9420 
  14   2.0000      -0.432568       -11.7708 
  15   2.0000      -0.411819       -11.2062 
  16   2.0000      -0.394476       -10.7342 
  17   2.0000      -0.389640       -10.6026 
  18   2.0000      -0.379087       -10.3155 
  19   2.0000      -0.349663        -9.5148 
  20   2.0000      -0.342306        -9.3146 
  21   2.0000      -0.333688        -9.0801 
  22   2.0000      -0.321712        -8.7542 
  23   2.0000      -0.310641        -8.4530 
  24   2.0000      -0.296503        -8.0682 
  25   2.0000      -0.291162        -7.9229 
  26   2.0000      -0.274902        -7.4805 
  27   2.0000      -0.267893        -7.2897 
  28   2.0000      -0.266954        -7.2642 
  29   0.0000       0.091661         2.4942 
  30   0.0000       0.106292         2.8924 
  31   0.0000       0.115677         3.1477 
  32   0.0000       0.121045         3.2938 
  33   0.0000       0.130487         3.5507 
  34   0.0000       0.139723         3.8021 
  35   0.0000       0.142129         3.8675 
  36   0.0000       0.152043         4.1373 
  37   0.0000       0.155806         4.2397 
  38   0.0000       0.164116         4.4658 
  39   0.0000       0.168212         4.5773 
*Only the first 10 virtual orbitals were printed.
Total SCF time: 0 days 0 hours 0 min 7 sec 
Finished LeanSCF after   8.7 sec

Maximum memory used throughout the entire LEANSCF-calculation: 35.8 MB


-------------------------------------------------------------------------------
                          DFT DISPERSION CORRECTION                            
                                                                               
                                DFTD4 V3.4.0                                   
-------------------------------------------------------------------------------
-------------------------   ----------------
Dispersion correction           -0.006251491
-------------------------   ----------------

------------------   -----------------
gCP correction             0.010693263
------------------   -----------------

-------------------------   --------------------
FINAL SINGLE POINT ENERGY      -276.281252627002
-------------------------   --------------------

------------------------------------------------------------------------------
                         ORCA SCF GRADIENT CALCULATION
------------------------------------------------------------------------------

Nuc. rep. gradient        (SHARK) ... done (  0.0 sec)
HCore & Overlap gradient  (SHARK) ... done (  0.3 sec)
Split-RIJ-J gradient      (SHARK) ... done (  1.3 sec)
XC gradient                       ... done (  6.4 sec)
CPCM gradient                     ... done (  1.8 sec)
SMD gradient                      ... done (  0.0 sec)
Dispersion correction             ... done (  0.0 sec)

-------------------
DISPERSION GRADIENT
-------------------

   1   C   :    0.000102227    0.000037603    0.000043905
   2   C   :    0.000098883   -0.000021257   -0.000016270
   3   C   :    0.000050565   -0.000068193   -0.000024712
   4   C   :   -0.000015001   -0.000012356   -0.000056313
   5   C   :   -0.000068448    0.000016448    0.000011226
   6   C   :   -0.000083857    0.000078984   -0.000015678
   7   C   :   -0.000095043   -0.000043974    0.000040444
   8   H   :    0.000036410    0.000016363    0.000014699
   9   H   :    0.000050677    0.000023444    0.000015460
  10   H   :    0.000047544    0.000010775    0.000030077
  11   H   :    0.000033917   -0.000012031    0.000000010
  12   H   :    0.000037309   -0.000004096   -0.000012645
  13   H   :    0.000021646   -0.000036837   -0.000024947
  14   H   :    0.000019140   -0.000031304   -0.000000063
  15   H   :    0.000002091    0.000006290   -0.000030242
  16   H   :   -0.000014402   -0.000015421   -0.000031292
  17   H   :   -0.000027499    0.000011276    0.000014538
  18   H   :   -0.000028171    0.000030564    0.000004541
  19   H   :   -0.000030512    0.000046700   -0.000010294
  20   H   :   -0.000028372    0.000026366   -0.000011438
  21   H   :   -0.000036977   -0.000016891    0.000008954
  22   H   :   -0.000035012   -0.000011623    0.000026029
  23   H   :   -0.000037116   -0.000030829    0.000024013

Difference to translation invariance:
           :    0.0000000000    0.0000000000    0.0000000000

Difference to rotation invariance:
           :    0.0000000000    0.0000000000    0.0000000000

Norm of the Dispersion gradient    ...    0.0003141808
RMS gradient                       ...    0.0000378229
MAX gradient                       ...    0.0001022271
gCP correction                   ... done

------------------
CARTESIAN GRADIENT
------------------

   1   C   :    0.000169966   -0.000179610   -0.000198798
   2   C   :   -0.000208456    0.000009853    0.000170488
   3   C   :    0.000200740    0.000035464   -0.000310878
   4   C   :    0.000009842   -0.000085643    0.000375270
   5   C   :   -0.000162608    0.000132903   -0.000188644
   6   C   :    0.000214524   -0.000152183    0.000229781
   7   C   :    0.000182284    0.000161309   -0.000042264
   8   H   :    0.000187257    0.000105344    0.000116339
   9   H   :   -0.000085734    0.000195868    0.000060092
  10   H   :   -0.000055708   -0.000119714    0.000247725
  11   H   :    0.000188640   -0.000002864   -0.000177229
  12   H   :   -0.000005658    0.000181979   -0.000239222
  13   H   :   -0.000023318   -0.000245411    0.000092752
  14   H   :   -0.000087168   -0.000043601    0.000298881
  15   H   :    0.000009607    0.000079493   -0.000166478
  16   H   :   -0.000102611   -0.000131517   -0.000173779
  17   H   :    0.000086522   -0.000008620    0.000087641
  18   H   :   -0.000138166    0.000148746    0.000088828
  19   H   :    0.000121317    0.000168421   -0.000073229
  20   H   :   -0.000135594    0.000014469   -0.000191709
  21   H   :   -0.000184883   -0.000079543   -0.000183844
  22   H   :   -0.000167113    0.000020996    0.000108271
  23   H   :   -0.000013683   -0.000206141    0.000070007

Difference to translation invariance:
           :    0.0000000000   -0.0000000000   -0.0000000000

Difference to rotation invariance:
           :    0.0002218236    0.0000864615   -0.0006470336

Norm of the Cartesian gradient     ...    0.0012876829
RMS gradient                       ...    0.0001550188
MAX gradient                       ...    0.0003752699

-------
TIMINGS
-------

Total SCF gradient time     ....        9.794 sec

Densities                   ....       0.001 sec  (  0.0%)
One electron gradient       ....       0.287 sec  (  2.9%)
RI-J Coulomb gradient       ....       1.330 sec  ( 13.6%)
XC gradient                 ....       6.360 sec  ( 64.9%)
CPCM gradient               ....       1.775 sec  ( 18.1%)
   A-Matrix (El+Nuc)        ....       0.110 sec  (  1.1%)
   Potential                ....       1.665 sec  ( 17.0%)
SMD gradient                ....       0.002 sec  (  0.0%)

Maximum memory used throughout the entire SCFGRAD-calculation: 35.9 MB

------------------------------------------------------------------------------
                              ORCA PROPERTY CALCULATIONS
------------------------------------------------------------------------------

GBWName                                 ... xtb_opt.gbw
Number of atoms                         ...     23
Number of basis functions               ...    213
Max core memory                         ...   1024 MB

Electric properties:
Dipole moment                           ... YES
Quadrupole moment                       ...  NO
Static polarizability (Dipole/Dipole)   ...  NO
Static polarizability (Dipole/Quad.)    ...  NO
Static polarizability (Quad./Quad.)     ...  NO
Static polarizability (Velocity)        ...  NO

Atomic electric properties:
Dipole moment                           ...  NO
Quadrupole moment                       ...  NO
Static polarizability                   ...  NO

Choice of electric origin               ... Center of mass
Position of electric origin             ...     0.001929    -0.002166     0.000144

General magnetic properties:
Magnetizability                         ...  NO

EPR properties:
g-Tensor (aka g-matrix)                 ...  NO
Zero-Field splitting spin-orbit         ...  NO
Zero-field splitting spin-spin          ...  NO
Hyperfine couplings                     ...  NO (   0 nuclei)
Quadrupole couplings                    ...  NO (   0 nuclei)
Contact density                         ...  NO (   0 nuclei)

NMR properties:
Chemical shifts                         ...  NO (   0 nuclei)
Spin-rotation constants                 ...  NO (   0 nuclei)
Spin-spin couplings                     ...  NO (   0 nuclei,    0 pairs)

Choice of magnetic origin               ... GIAO
Position of magnetic origin             ...     0.000000     0.000000     0.000000

Properties with geometric perturbations:
SCF Hessian                             ...  NO
IR spectrum                             ...  NO
VCD spectrum                            ...  NO
X-ray spectroscopy properties:
SCF XES/XAS/RIXS spectra                ...  NO


-------------
DIPOLE MOMENT
-------------

Method             : SCF
Type of density    : Electron Density
Multiplicity       :   1
Irrep              :   0
Energy             :  -276.2856943993655250 Eh
Relativity type    : 
Basis              : AO
                                X                 Y                 Z
Electronic contribution:      0.531623922      -0.881027438      -0.739271306
Nuclear contribution   :     -0.474945852       0.862808806       0.745238830
                        -----------------------------------------
Total Dipole Moment    :      0.056678070      -0.018218632       0.005967524
                        -----------------------------------------
Magnitude (a.u.)       :      0.059832546
Magnitude (Debye)      :      0.152082245



--------------------
Rotational spectrum 
--------------------
 
Rotational constants in cm-1:             0.130284             0.045805             0.041308 
Rotational constants in MHz :          3905.827866          1373.199903          1238.390536 

Dipole components along the rotational axes: 
x,y,z [a.u.] :     0.058480    -0.009401    -0.008461 
x,y,z [Debye]:     0.148646    -0.023895    -0.021506 

 

Dipole moment calculation done in   0.0 sec 

Maximum memory used throughout the entire PROP-calculation: 14.4 MB

--------------------------------
SUGGESTED CITATIONS FOR THIS RUN
--------------------------------

Below you find a list of papers that are relevant to this ORCA run
We neither can nor want to force you to cite these papers, but we appreciate if you do
You receive ORCA, which is the product of decades of hard work by many enthusiastic individuals, for free
The only thing we kindly ask in return is that you cite our papers,
We deeply appreciate it, if you show your appreciation for ORCA by not just citing the generic ORCA reference.

Please note that relegating all ORCA citations to the supporting information does *not* help us.
SI sections are not indexed - citations you put there will not count into any citation statistics
But we need these citations in order to attract the funding resources that allow us to do what we are doing

Therefore, if you are a happy ORCA user, please consider citing a few of the papers listed below in the main body of your paper

In addition to the list printed below, the program has created the file xtb_opt.bibtex that contains the list in bibtex format
You can import this file easily into all common literature databanks and citation aid programs


List of essential papers. We consider these as the minimum necessary citations

  1. Neese,F.
     Software update: the ORCA program system, version 5.0
     WIRES Comput. Molec. Sci., 2022 12(1)e1606
     doi.org/10.1002/wcms.1606
  2. Grimme,S.; Hansen,A.; Ehlert,S.; Mewes,J.
     r2SCAN-3c: A 'Swiss army knife' composite electronic-structure method
     J. Chem. Phys., 2021 154 064103
     doi.org/10.1063/5.0040021

List of papers to cite with high priority. The work reported in these papers was absolutely
necessary for this run to complete.
Our perspective: the developers of density functionals and basis sets usually get cited in chemistry papers
Good! But without the algorithms to do something with them, the functionals or basis sets would not do anything.
Hence, in our opinion, the algorithm design and method developments papers are equally worthy of getting cited

  1. Neese,F.
     An improvement of the resolution of the identity approximation for the formation of the Coulomb matrix
     J. Comp. Chem., 2003 24(14)1740-1747
     doi.org/10.1002/jcc.10318
  2. Garcia-Rates,M.; Neese,F.
     Effect of the Solute Cavity on the Solvation Energy and its Derivatives within the Framework of the Gaussian Charge Scheme
     J. Comput. Chem., 2020 41 922-939
     doi.org/10.1002/jcc.26139
  3. Neese,F.
     The SHARK Integral Generation and Digestion System
     J. Comp. Chem., 2022  1-16
     doi.org/10.1002/jcc.26942
  4. Lehtola,S.; Steigemann,C.; Oliveira,M.; Marques,M.
     Recent developments in Libxc - A comprehensive library of functionals for density functional theory
     Software X, 2018 7 
     doi.org/10.1016/j.softx.2017.11.002
  5. Caldeweyher,E.; Bannwarth,C.; Grimme,S.
     Extension of the D3 dispersion coefficient model
     J. Chem. Phys., 2017 147 034112
     doi.org/10.1063/1.4993215
  6. Caldeweyher,E.; Ehlert,S.; Hansen,A.; Neugebauer,H.; Spicher,S.; Bannwarth,C.; Grimme,S.
     A generally applicable atomic-charge dependent London dispersion correction
     J. Chem. Phys., 2019 150 154122
     doi.org/10.1063/1.5090222
  7. Caldeweyher,E.; Mewes,J.; Ehlert,S.; Grimme,S.
     Extension and evaluation of the D4 London-dispersion model for periodic systems
     Phys. Chem. Chem. Phys., 2020 22(16)8499-8512
     doi.org/10.1039/D0CP00502A
  8. Wittmann,L.; Gordiy,I.; Friede,M.; Helmich-Paris,B.; Grimme,S.; Hansen,A.; Bursch,M.
     Extension of the D3 and D4 London Dispersion Corrections to the full Actinides Series
     Phys. Chem. Chem. Phys., 2024 26(32)21379-21394
     doi.org/https://doi.org/10.1039/D4CP01514B 

List of suggested additional citations. These are papers that are important in the 'surrounding' of 
of this run, or papers that preceded the highly important papers. If you like your results we are grateful for a citation.

  1. Neese,F.
     The ORCA program system
     WIRES Comput. Molec. Sci., 2012 2(1)73-78
     doi.org/10.1002/wcms.81
  2. Neese,F.
     Software update: the ORCA program system, version 4.0
     WIRES Comput. Molec. Sci., 2018 8(1)1-6
     doi.org/10.1002/wcms.1327
  3. Neese,F.; Wennmohs,F.; Becker,U.; Riplinger,C.
     The ORCA quantum chemistry program package
     J. Chem. Phys., 2020 152 Art. No. L224108
     doi.org/10.1063/5.0004608

List of optional additional citations

  1. Neese,F.
     Approximate second-order SCF convergence for spin unrestricted wavefunctions
     Chem. Phys. Lett., 2000 325(1-3)93-98
     doi.org/10.1016/s0009-2614(00)00662-x

Timings for individual modules:

Sum of individual times          ...       20.128 sec (=   0.335 min)
Startup calculation              ...        0.926 sec (=   0.015 min)   4.6 %
SCF iterations                   ...        8.812 sec (=   0.147 min)  43.8 %
Property calculations            ...        0.066 sec (=   0.001 min)   0.3 %
SCF Gradient evaluation          ...       10.323 sec (=   0.172 min)  51.3 %
                             ****ORCA TERMINATED NORMALLY****
TOTAL RUN TIME: 0 days 0 hours 0 minutes 20 seconds 434 msec
  ------------------------------------------------------------------------
          * successful ORCA run, taking over control again...
av. E:   -276.2812526 ->   -276.2812526
av. G:      0.0011983 ->      0.0011983
 * total energy  :  -276.2812526 Eh     change       -0.2190817E-04 Eh
   gradient norm :     0.0012872 Eh/a0  converged?    E=F G=F D=F
   step length   :     0.0513051 a0

........................................................................
.............................. CYCLE    4 ..............................
........................................................................
                         * ORCA takes the control...
  ------------------------------------------------------------------------

                                 *****************
                                 * O   R   C   A *
                                 *****************

                                            #,                                       
                                            ###                                      
                                            ####                                     
                                            #####                                    
                                            ######                                   
                                           ########,                                 
                                     ,,################,,,,,                         
                               ,,#################################,,                 
                          ,,##########################################,,             
                       ,#########################################, ''#####,          
                    ,#############################################,,   '####,        
                  ,##################################################,,,,####,       
                ,###########''''           ''''###############################       
              ,#####''   ,,,,##########,,,,          '''####'''          '####       
            ,##' ,,,,###########################,,,                        '##       
           ' ,,###''''                  '''############,,,                           
         ,,##''                                '''############,,,,        ,,,,,,###''
      ,#''                                            '''#######################'''  
     '                                                          ''''####''''         
             ,#######,   #######,   ,#######,      ##                                
            ,#'     '#,  ##    ##  ,#'     '#,    #''#        ,####,   ,####,        
            ##       ##  ##   ,#'  ##            #'  '#       #'       #'  '#        
            ##       ##  #######   ##           ,######,      #####,   #    #        
            '#,     ,#'  ##    ##  '#,     ,#' ,#      #,     #,   #   #,  ,#        
             '#######'   ##     ##  '#######'  #'      '#     '####' # '####'        



                #########################################################
                #                        -***-                          #
                #          Department of theory and spectroscopy        #
                #                                                       #
                #                      Frank Neese                      #
                #                                                       #
                #     Directorship, Architecture, Infrastructure        #
                #                    SHARK, DRIVERS                     #
                #        Core code/Algorithms in most modules           #
                #                                                       #
                #        Max Planck Institute fuer Kohlenforschung      #
                #                Kaiser Wilhelm Platz 1                 #
                #                 D-45470 Muelheim/Ruhr                 #
                #                      Germany                          #
                #                                                       #
                #                  All rights reserved                  #
                #                        -***-                          #
                #########################################################


                         Program Version 6.0.1  -  RELEASE   -


 With contributions from (in alphabetic order):
[Max-Planck-Institut fuer Kohlenforschung]                               
  Daniel Aravena         : Magnetic Suceptibility                        
  Michael Atanasov       : Ab Initio Ligand Field Theory (pilot matlab implementation)
  Alexander A. Auer      : GIAO ZORA, VPT2 properties, NMR spectrum      
  Ute Becker             : All parallelization in ORCA, NUMFREQ, NUMCALC 
  Giovanni Bistoni       : ED, misc. LED, open-shell LED, HFLD           
  Martin Brehm           : Molecular dynamics                            
  Dmytro Bykov           : pre 5.0 version of the SCF Hessian            
  Marcos Casanova-Páez   : Triplet and SCS-CIS(D). UHF-(DLPNO)-IP/EA/STEOM-CCSD. UHF-CVS-IP/STEOM-CCSD   
  Vijay G. Chilkuri      : MRCI spin determinant printing, contributions to CSF-ICE 
  Pauline Colinet        : FMM embedding                                 
  Dipayan Datta          : RHF DLPNO-CCSD density                        
  Achintya Kumar Dutta   : EOM-CC, STEOM-CC                              
  Nicolas Foglia         : Exact transition moments, OPA infrastructure, MCD improvements    
  Dmitry Ganyushin       : Spin-Orbit,Spin-Spin,Magnetic field MRCI      
  Miquel Garcia-Rates    : C-PCM and meta-GGA Hessian, CCSD/C-PCM, Gaussian charge scheme 
  Tiago L. C. Gouveia    : GS-ROHF, GS-ROCIS                             
  Yang Guo               : DLPNO-NEVPT2, F12-NEVPT2, CIM, IAO-localization        
  Andreas Hansen         : Spin unrestricted coupled pair/coupled cluster methods 
  Ingolf Harden          : AUTO-CI MPn and infrastructure                
  Benjamin Helmich-Paris : MC-RPA, TRAH-(SCF,CASSCF), AVAS, COSX integrals, SCF dyn. polar. 
  Lee Huntington         : MR-EOM, pCC                                   
  Robert Izsak           : Overlap fitted RIJCOSX, COSX-SCS-MP3, EOM     
  Riya Kayal             : Wick's Theorem for AUTO-CI, AUTO-CI UHF-CCSDT 
  Emily Kempfer          : AUTO-CI, RHF CISDT and CCSDT                  
  Christian Kollmar      : KDIIS, OOCD, Brueckner-CCSD(T), CCSD density, CASPT2, CASPT2-K, improved NEVPT2 
  Axel Koslowski         : Symmetry handling                             
  Simone Kossmann        : meta-GGA functionals, TD-DFT gradient, OOMP2, (MP2 Hessian; deprecated post 5.0) 
  Lucas Lang             : DCDCAS                                        
  Marvin Lechner         : AUTO-CI (C++ implementation), FIC-MRCC        
  Spencer Leger          : CASSCF response                               
  Dagmar Lenk            : GEPOL surface, SMD, ORCA-2-JSON               
  Dimitrios Liakos       : Extrapolation schemes; Compound Job, initial MDCI parallelization 
  Dimitrios Manganas     : Further ROCIS development; embedding schemes. LFT, Crystal Embedding 
  Dimitrios Pantazis     : SARC Basis sets                               
  Anastasios Papadopoulos: AUTO-CI, single reference methods and gradients 
  Taras Petrenko         : pre 6.0 DFT Hessian and TD-DFT gradient, (ASA, deprecated), ECA, 1-Electron XAS/XES, NRVS 
  Peter Pinski           : DLPNO-MP2, DLPNO-MP2 Gradient                 
  Christoph Reimann      : Effective Core Potentials                     
  Marius Retegan         : Local ZFS, SOC                                
  Christoph Riplinger    : Optimizer, TS searches, QM/MM, DLPNO-CCSD(T), (RO)-DLPNO pert. Triples 
  Michael Roemelt        : Original ROCIS implementation                 
  Masaaki Saitow         : Open-shell DLPNO-CCSD energy and density      
  Barbara Sandhoefer     : DKH picture change effects                    
  Kantharuban Sivalingam : CASSCF convergence/infrastructure, NEVPT2 and variants, FIC-MRCI 
  Bernardo de Souza      : ESD, SOC TD-DFT                               
  Georgi L. Stoychev     : AutoAux, RI-MP2 NMR, DLPNO-MP2 response, X2C  
  Van Anh Tran           : RI-MP2 g-tensors                              
  Willem Van den Heuvel  : Paramagnetic NMR                              
  Zikuan Wang            : NOTCH, Electric field optimization            
  Frank Wennmohs         : Technical directorship and infrastructure     
  Hang Xu                : AUTO-CI-Response properties                   
                                                                         
[FACCTs GmbH]                                                            
  Markus Bursch, Miquel Garcia-Rates, Christoph Riplinger, Bernardo de Souza, Georgi L. Stoychev 
                                                                 
  APM, Basis sets (HGBS, AHGBS, def-TZVP (Ac-Lr), def2-XVPD (La-Lu)), CI-OPT, improved COSX, DLPNO-Multilevel,           
  DOCKER, DRACO, updates on ESD, GOAT, IRC, LR-CPCM, MBIS, meta-GGA TD-DFT gradient, ML-optimized integration grids, 
  MM, NACMEs, nearIR, NEB, NEB-TS, NL-DFT gradient (VV10), 2- and 3-layer-ONIOM, interface openCOSMO-RS, QMMM,   
  Crystal-QMMM, SF, symmetry and pop. for TD-DFT, r2SCAN hybrids, SOLVATOR                                   
                                                                         
[Other institutions]                                                     
  V. Asgeirsson          : NEB                                           
  Christoph Bannwarth    : sTDA-DFT, sTD-DFT, PBEh-3c, B97-3c, D3        
  Sebastian Ehlert       : rSCAN, r2SCAN, r2SCAN-3c, D4, dhf basis sets  
  Marvin Friede          : D4 for Fr, Ra, Ac-Lr                          
  Lars Goerigk           : TD-DFT with DH, B97 family of functionals     
  Stefan Grimme          : VdW corrections, initial TS optimization, DFT functionals, gCP, sTDA/sTD-DF 
  Waldemar Hujo          : DFT-NL                                        
  H. Jonsson             : NEB                                           
  Holger Kruse           : gCP                                           
  Marcel Mueller         : wB97X-3c, vDZP basis set                      
  Hagen Neugebauer       : wr2SCAN                                       
  Tobias Risthaus        : range-separated hybrid DFT                    
  Lukas Wittmann         : regularized MP2, r2SCAN double-hybrids, wr2SCAN        
                                                                         
We gratefully acknowledge several colleagues who have allowed us to      
interface, adapt or use parts of their codes:                            
  Ed Valeev, F. Pavosevic, A. Kumar             : LibInt (2-el integral package), F12 methods 
  Garnet Chan, S. Sharma, J. Yang, R. Olivares  : DMRG                   
  Ulf Ekstrom                                   : XCFun DFT Library      
  Mihaly Kallay                                 : mrcc  (arbitrary order and MRCC methods)
  Frank Weinhold                                : gennbo (NPA and NBO analysis)           
  Simon Mueller                                 : openCOSMO-RS                            
  Christopher J. Cramer and Donald G. Truhlar   : smd solvation model                     
  S Lehtola, MJT Oliveira, MAL Marques          : LibXC Library                           
  Liviu Ungur et al                             : ANISO software                          


 Your calculation uses the libint2 library for the computation of 2-el integrals
 For citations please refer to: http://libint.valeyev.net

 Your ORCA version has been built with support for libXC version: 6.2.2
 For citations please refer to: https://libxc.gitlab.io

 This ORCA versions uses:
   CBLAS   interface :  Fast vector & matrix operations
   LAPACKE interface :  Fast linear algebra routines
   SCALAPACK package :  Parallel linear algebra routines
   Shared memory     :  Shared parallel matrices
   BLAS/LAPACK       :  OpenBLAS 0.3.27  USE64BITINT DYNAMIC_ARCH NO_AFFINITY Zen SINGLE_THREADED
        Core in use  :  Zen
   Copyright (c) 2011-2014, The OpenBLAS Project




***************************************
The coordinates will be read from file: xtb_opt.xyz
***************************************


Your calculation utilizes the geometrical counterpoise correction gCP
Please cite in your paper:
H.Kruse, S. Grimme J.Chem.Phys., 136, (2012), 154101 
   

Your calculation utilizes the atom-pairwise dispersion correction
based on EEQ partial charges (D4)


Your calculation utilizes the SMD solvation module
Please cite in your paper:
A.V. Marenich, C.J. Cramer, D.G. Truhlar J. Phys. Chem. B, 113, (2009), 6378 

================================================================================

----- Orbital basis set information -----
Your calculation utilizes the basis: def2-mTZVPP
   Stefan Grimme, Andreas Hansen, Sebastian Ehlert, and Jan-Michael Mewes 
   J. Chem. Phys. 154, 064103 (2021). DOI: 10.1063/5.0040021

----- AuxJ basis set information -----
Your calculation utilizes the auxiliary basis: def2/J
   F. Weigend, Phys. Chem. Chem. Phys. 8, 1057 (2006).

================================================================================
                                        WARNINGS
                       Please study these warnings very carefully!
================================================================================

WARNING: Old DensityContainer found on disk!
         Will remove this file - 
         If you want to keep old densities, please start your calculation with a different basename. 



WARNING: SCAN, rSCAN, or r2SCAN functional requested.
  ===> : libXC variant has now been activated.



================================================================================
                                       INPUT FILE
================================================================================
NAME = xtb_opt.inp
|  1> ! r2scan-3c def2/J RI DEFGRID2 scfconv7 ENGRAD tightSCF miniprint
|  2> %cpcm
|  3>     smd true
|  4>     smdsolvent "water"
|  5> end
|  6> * xyzfile 0 1 xtb_opt.xyz
|  7> 
|  8>                          ****END OF INPUT****
================================================================================

                     *******************************
                     * Energy+Gradient Calculation *
                     *******************************

---------------------------------
CARTESIAN COORDINATES (ANGSTROEM)
---------------------------------
  C      2.310863    0.643344    0.747581
  C      2.260486   -0.482078   -0.281649
  C      0.887093   -1.148385   -0.417125
  C     -0.228880   -0.189078   -0.874153
  C     -1.145770    0.327041    0.248021
  C     -1.947297    1.536408   -0.230521
  C     -2.087048   -0.771719    0.743297
  H      3.319031    1.065458    0.817354
  H      1.630266    1.460860    0.485991
  H      2.030647    0.280368    1.743358
  H      3.002338   -1.246744   -0.015719
  H      2.560313   -0.088899   -1.263144
  H      0.978770   -1.977924   -1.128670
  H      0.614576   -1.603248    0.545122
  H      0.228896    0.669953   -1.384414
  H     -0.866091   -0.679717   -1.622801
  H     -0.515761    0.643947    1.090448
  H     -2.618837    1.906512    0.552067
  H     -1.286752    2.359191   -0.525993
  H     -2.562311    1.271505   -1.099902
  H     -2.770515   -1.076298   -0.059257
  H     -2.693816   -0.422895    1.586185
  H     -1.540481   -1.661478    1.073360

----------------------------
CARTESIAN COORDINATES (A.U.)
----------------------------
  NO LB      ZA    FRAG     MASS         X           Y           Z
   0 C     6.0000    0    12.011    4.366899    1.215743    1.412724
   1 C     6.0000    0    12.011    4.271700   -0.910994   -0.532240
   2 C     6.0000    0    12.011    1.676363   -2.170133   -0.788252
   3 C     6.0000    0    12.011   -0.432520   -0.357306   -1.651909
   4 C     6.0000    0    12.011   -2.165192    0.618018    0.468692
   5 C     6.0000    0    12.011   -3.679859    2.903391   -0.435622
   6 C     6.0000    0    12.011   -3.943948   -1.458337    1.404627
   7 H     1.0000    0     1.008    6.272060    2.013423    1.544576
   8 H     1.0000    0     1.008    3.080756    2.760625    0.918390
   9 H     1.0000    0     1.008    3.837367    0.529819    3.294470
  10 H     1.0000    0     1.008    5.673596   -2.356005   -0.029705
  11 H     1.0000    0     1.008    4.838291   -0.167994   -2.386997
  12 H     1.0000    0     1.008    1.849606   -3.737735   -2.132878
  13 H     1.0000    0     1.008    1.161380   -3.029699    1.030131
  14 H     1.0000    0     1.008    0.432551    1.266028   -2.616164
  15 H     1.0000    0     1.008   -1.636675   -1.284480   -3.066649
  16 H     1.0000    0     1.008   -0.974647    1.216883    2.060648
  17 H     1.0000    0     1.008   -4.948886    3.602786    1.043255
  18 H     1.0000    0     1.008   -2.431609    4.458225   -0.993983
  19 H     1.0000    0     1.008   -4.842066    2.402797   -2.078513
  20 H     1.0000    0     1.008   -5.235515   -2.033909   -0.111979
  21 H     1.0000    0     1.008   -5.090575   -0.799156    2.997456
  22 H     1.0000    0     1.008   -2.911088   -3.139738    2.028357

------------------------------------------------------------------------------
                   ___                                                        
                  /   \      - P O W E R E D   B Y -                         
                 /     \                                                     
                 |  |  |   _    _      __       _____    __    __             
                 |  |  |  | |  | |    /  \     |  _  \  |  |  /  |          
                  \  \/   | |  | |   /    \    | | | |  |  | /  /          
                 / \  \   | |__| |  /  /\  \   | |_| |  |  |/  /          
                |  |  |   |  __  | /  /__\  \  |    /   |      \           
                |  |  |   | |  | | |   __   |  |    \   |  |\   \          
                \     /   | |  | | |  |  |  |  | |\  \  |  | \   \       
                 \___/    |_|  |_| |__|  |__|  |_| \__\ |__|  \__/        
                                                                              
                      - O R C A' S   B I G   F R I E N D -                    
                                      &                                       
                       - I N T E G R A L  F E E D E R -                       
                                                                              
 v1 FN, 2020, v2 2021, v3 2022-2024                                           
------------------------------------------------------------------------------


----------------------
SHARK INTEGRAL PACKAGE
----------------------

Number of atoms                             ...     23
Number of basis functions                   ...    213
Number of shells                            ...    111
Maximum angular momentum                    ...      2
Integral batch strategy                     ... SHARK/LIBINT Hybrid
RI-J (if used) integral strategy            ... SPLIT-RIJ (Revised 2003 algorithm where possible)
Printlevel                                  ...      1
Contraction scheme used                     ... SEGMENTED contraction
Prescreening option                         ... SCHWARTZ
   Thresh                                   ... 3.000e-11
   Tcut                                     ... 1.000e-12
   Tpresel                                  ... 1.000e-12 
Coulomb Range Separation                    ... NOT USED
Exchange Range Separation                   ... NOT USED
Multipole approximations                    ... NOT USED
Finite Nucleus Model                        ... NOT USED
CABS basis                                  ... NOT available
Auxiliary Coulomb fitting basis             ... AVAILABLE
   # of basis functions in Aux-J            ...    519
   # of shells in Aux-J                     ...    185
   Maximum angular momentum in Aux-J        ...      4
Auxiliary J/K fitting basis                 ... NOT available
Auxiliary Correlation fitting basis         ... NOT available
Auxiliary 'external' fitting basis          ... NOT available

Checking pre-screening integrals            ... done (  0.0 sec) Dimension = 111
Check shell pair data                       ... done (  0.0 sec)
Shell pair information
Shell pair cut-off parameter TPreSel        ...   1.0e-12
Total number of shell pairs                 ...      6216
Shell pairs after pre-screening             ...      5688
Total number of primitive shell pairs       ...     21523
Primitive shell pairs kept                  ...     14296
          la=0 lb=0:   2082 shell pairs
          la=1 lb=0:   2266 shell pairs
          la=1 lb=1:    639 shell pairs
          la=2 lb=0:    431 shell pairs
          la=2 lb=1:    242 shell pairs
          la=2 lb=2:     28 shell pairs

Calculating one electron integrals          ... done (  0.0 sec)
Calculating RI/J V-Matrix + Cholesky decomp.... done (  0.0 sec)
Calculating Nuclear repulsion               ... done (  0.0 sec) ENN=    328.452296052924 Eh

Diagonalization of the overlap matrix:
Smallest eigenvalue                        ... 1.892e-04
Time for diagonalization                   ...    0.004 sec
Threshold for overlap eigenvalues          ... 1.000e-07
Number of eigenvalues below threshold      ... 0
Time for construction of square roots      ...    0.004 sec
Total time needed                          ...    0.009 sec

-------------------
DFT GRID GENERATION
-------------------

General Integration Accuracy     IntAcc      ... 4.388
Radial Grid Type                 RadialGrid  ... OptM3 with GC (2021)
Angular Grid (max. ang.)         AngularGrid ... 4 (Lebedev-302)
Angular grid pruning method      GridPruning ... 4 (adaptive)
Weight generation scheme         WeightScheme... mBecke (2022)
Basis function cutoff            BFCut       ... 1.0000e-11
Integration weight cutoff        WCut        ... 1.0000e-14
Partially contracted basis set               ... off
Rotationally invariant grid construction     ... off
Angular grids for H and He will be reduced by one unit

Total number of grid points                  ...    93002
Total number of batches                      ...     1466
Average number of points per batch           ...       63
Average number of grid points per atom       ...     4044
Initializing property integral containers    ... done (  0.0 sec)

SHARK setup successfully completed in   0.9 seconds

Maximum memory used throughout the entire STARTUP-calculation: 39.9 MB
Occupation numbers will be reassigned to an Aufbau configuration
             **** ENERGY FILE WAS UPDATED (xtb_opt.en.tmp) ****
Finished Guess after   0.1 sec
Maximum memory used throughout the entire GUESS-calculation: 15.7 MB
--------------------
CPCM SOLVATION MODEL
--------------------
CPCM parameters:
  Epsilon                                         ...      78.3550
  Refrac                                          ...       1.3328
  Rsolv                                           ...       1.3000
  Surface type                                    ... GAUSSIAN VDW
  Discretization scheme                           ... Constant charge density
    Threshold for H atoms                         ...       5.0000 (charges/Ang^2)
    Threshold for non-H atoms                     ...       5.0000 (charges/Ang^2)
  Epsilon function type                           ...         CPCM
Solvent:                                          ... WATER
SMD-CDS solvent descriptors:
  Soln                                            ...       1.3328
  Soln25                                          ...       1.3323
  Sola                                            ...       0.0000
  Solb                                            ...       0.0000
  Solg                                            ...       0.0000
  Solc                                            ...       0.0000
  Solh                                            ...       0.0000
Radii:
  Scheme                                          ... Element-dependent radii
  Radius for C  used is    3.4960 Bohr (=   1.8500 Ang.)
  Radius for H  used is    2.2677 Bohr (=   1.2000 Ang.)
Calculating surface                               ...        done! (  0.0s)
Cavity surface points                             ...         1696
Cavity Volume                                     ...     920.1870
Cavity Surface-area                               ...     598.4087
Calculating surface distance matrix               ...        done! (  0.0s)
Performing Cholesky decomposition & store         ...        done! (  0.1s)
Overall time for CPCM initialization              ...                 0.1s

----------------------------------------D-I-I-S--------------------------------------------
Iteration    Energy (Eh)           Delta-E    RMSDP     MaxDP     DIISErr   Damp  Time(sec)
-------------------------------------------------------------------------------------------
               ***  Starting incremental Fock matrix formation  ***
    1    -276.2914536443422548     0.00e+00  5.19e-05  9.75e-04  6.30e-03  0.700   2.5
    2    -276.2915319872797681    -7.83e-05  4.98e-05  9.83e-04  4.82e-03  0.700   2.0
                               ***Turning on AO-DIIS***
    3    -276.2915912044401239    -5.92e-05  3.97e-05  8.03e-04  3.48e-03  0.700   2.0
                              *** Initializing SOSCF ***
---------------------------------------S-O-S-C-F--------------------------------------
Iteration    Energy (Eh)           Delta-E    RMSDP     MaxDP     MaxGrad    Time(sec)
--------------------------------------------------------------------------------------
    4    -276.2916330362388635    -4.18e-05  9.91e-05  2.06e-03  2.46e-03     2.0
               *** Restarting incremental Fock matrix formation ***
    5    -276.2917309678223319    -9.79e-05  7.12e-06  1.46e-04  1.39e-05     2.5
                  *** Gradient check signals convergence ***

               *****************************************************
               *                     SUCCESS                       *
               *           SCF CONVERGED AFTER   5 CYCLES          *
               *****************************************************


SMD CDS free energy correction energy :                 3.76222     Kcal/mol
Total Energy after SMD CDS correction =              -276.285735486 Eh
             **** ENERGY FILE WAS UPDATED (xtb_opt.en.tmp) ****

----------------
TOTAL SCF ENERGY
----------------

Total Energy       :       -276.28573548638212 Eh           -7518.11708 eV

Components:
Nuclear Repulsion  :        328.45229605292354 Eh            8937.64136 eV
Electronic Energy  :       -604.74153808965480 Eh          -16455.85385 eV
One Electron Energy:      -1021.14923484062001 Eh          -27786.88334 eV
Two Electron Energy:        416.40769675096521 Eh           11331.02949 eV
CPCM Dielectric    :         -0.00248893109109 Eh              -0.06773 eV
SMD CDS (Gcds)     :          0.00599548144018 Eh               0.16315 eV

Virial components:
Potential Energy   :       -551.06124324170821 Eh          -14995.13877 eV
Kinetic Energy     :        274.77550775532609 Eh            7477.02169 eV
Virial Ratio       :          2.00549622396622

DFT components:
N(Alpha)           :       29.000091368051 electrons
N(Beta)            :       29.000091368051 electrons
N(Total)           :       58.000182736102 electrons
E(X)               :      -42.086750453738 Eh       
E(C)               :       -1.778091526887 Eh       
E(XC)              :      -43.864841980625 Eh       

CPCM Solvation Model Properties:
Surface-charge          :         -0.05281756665215
Corrected charge        :          0.00000000000000
Outlying charge corr.   :          0.00021188134485 Eh               0.00577 eV
Free-energy (cav+disp)  :          0.00599548144018 Eh               0.16315 eV

---------------
SCF CONVERGENCE
---------------

  Last Energy change         ...    9.7932e-05  Tolerance :   1.0000e-07
  Last MAX-Density change    ...    1.4586e-04  Tolerance :   1.0000e-07
  Last RMS-Density change    ...    7.1198e-06  Tolerance :   5.0000e-09
  Last DIIS Error            ...    2.4617e-03  Tolerance :   1.0000e-07
  Last Orbital Gradient      ...    1.3938e-05  Tolerance :   1.0000e-04
  Last Orbital Rotation      ...    3.5413e-05  Tolerance :   1.0000e-04


----------------
ORBITAL ENERGIES
----------------

  NO   OCC          E(Eh)            E(eV) 
   0   2.0000     -10.024168      -272.7715 
   1   2.0000     -10.017118      -272.5796 
   2   2.0000     -10.014485      -272.5080 
   3   2.0000     -10.013012      -272.4679 
   4   2.0000     -10.009280      -272.3663 
   5   2.0000     -10.008232      -272.3378 
   6   2.0000     -10.007791      -272.3258 
   7   2.0000      -0.772095       -21.0098 
   8   2.0000      -0.734092       -19.9756 
   9   2.0000      -0.666695       -18.1417 
  10   2.0000      -0.638948       -17.3867 
  11   2.0000      -0.600297       -16.3349 
  12   2.0000      -0.531699       -14.4683 
  13   2.0000      -0.512094       -13.9348 
  14   2.0000      -0.432744       -11.7756 
  15   2.0000      -0.412220       -11.2171 
  16   2.0000      -0.394393       -10.7320 
  17   2.0000      -0.389701       -10.6043 
  18   2.0000      -0.379340       -10.3224 
  19   2.0000      -0.349539        -9.5115 
  20   2.0000      -0.342276        -9.3138 
  21   2.0000      -0.333561        -9.0767 
  22   2.0000      -0.322325        -8.7709 
  23   2.0000      -0.310594        -8.4517 
  24   2.0000      -0.296548        -8.0695 
  25   2.0000      -0.291129        -7.9220 
  26   2.0000      -0.274661        -7.4739 
  27   2.0000      -0.267780        -7.2867 
  28   2.0000      -0.267162        -7.2699 
  29   0.0000       0.091781         2.4975 
  30   0.0000       0.106193         2.8896 
  31   0.0000       0.116225         3.1627 
  32   0.0000       0.121553         3.3076 
  33   0.0000       0.130377         3.5477 
  34   0.0000       0.140175         3.8144 
  35   0.0000       0.142200         3.8695 
  36   0.0000       0.152498         4.1497 
  37   0.0000       0.155620         4.2346 
  38   0.0000       0.164485         4.4759 
  39   0.0000       0.167689         4.5630 
*Only the first 10 virtual orbitals were printed.
Total SCF time: 0 days 0 hours 0 min 11 sec 
Finished LeanSCF after  11.6 sec

Maximum memory used throughout the entire LEANSCF-calculation: 35.9 MB


-------------------------------------------------------------------------------
                          DFT DISPERSION CORRECTION                            
                                                                               
                                DFTD4 V3.4.0                                   
-------------------------------------------------------------------------------
-------------------------   ----------------
Dispersion correction           -0.006255775
-------------------------   ----------------

------------------   -----------------
gCP correction             0.010711008
------------------   -----------------

-------------------------   --------------------
FINAL SINGLE POINT ENERGY      -276.281280253745
-------------------------   --------------------

------------------------------------------------------------------------------
                         ORCA SCF GRADIENT CALCULATION
------------------------------------------------------------------------------

Nuc. rep. gradient        (SHARK) ... done (  0.0 sec)
HCore & Overlap gradient  (SHARK) ... done (  0.3 sec)
Split-RIJ-J gradient      (SHARK) ... done (  1.3 sec)
XC gradient                       ... done (  6.8 sec)
CPCM gradient                     ... done (  1.8 sec)
SMD gradient                      ... done (  0.0 sec)
Dispersion correction             ... done (  0.0 sec)

-------------------
DISPERSION GRADIENT
-------------------

   1   C   :    0.000102268    0.000037952    0.000043588
   2   C   :    0.000099040   -0.000021689   -0.000015902
   3   C   :    0.000050388   -0.000068286   -0.000025283
   4   C   :   -0.000014791   -0.000011657   -0.000056388
   5   C   :   -0.000068289    0.000016663    0.000011232
   6   C   :   -0.000083964    0.000078736   -0.000015643
   7   C   :   -0.000095086   -0.000044199    0.000040847
   8   H   :    0.000036595    0.000016414    0.000014716
   9   H   :    0.000050611    0.000023412    0.000015129
  10   H   :    0.000047692    0.000010996    0.000030198
  11   H   :    0.000034038   -0.000012254    0.000000281
  12   H   :    0.000037135   -0.000004280   -0.000012369
  13   H   :    0.000021623   -0.000036693   -0.000025273
  14   H   :    0.000018858   -0.000031578   -0.000000321
  15   H   :    0.000002268    0.000006523   -0.000030101
  16   H   :   -0.000014426   -0.000015043   -0.000031589
  17   H   :   -0.000027427    0.000011416    0.000014537
  18   H   :   -0.000028286    0.000030437    0.000004567
  19   H   :   -0.000030495    0.000046530   -0.000010286
  20   H   :   -0.000028510    0.000026272   -0.000011461
  21   H   :   -0.000037018   -0.000016977    0.000009101
  22   H   :   -0.000035055   -0.000011704    0.000026237
  23   H   :   -0.000037168   -0.000030991    0.000024183

Difference to translation invariance:
           :   -0.0000000000    0.0000000000   -0.0000000000

Difference to rotation invariance:
           :    0.0000000000    0.0000000000   -0.0000000000

Norm of the Dispersion gradient    ...    0.0003144072
RMS gradient                       ...    0.0000378502
MAX gradient                       ...    0.0001022682
gCP correction                   ... done

------------------
CARTESIAN GRADIENT
------------------

   1   C   :    0.000043985   -0.000361099   -0.000399927
   2   C   :   -0.000325762    0.000267976    0.000615451
   3   C   :    0.000117565    0.000438277    0.000023788
   4   C   :    0.000113906   -0.000094441   -0.000047718
   5   C   :   -0.000553839    0.000033067    0.000034650
   6   C   :    0.000280520   -0.000380807    0.000186905
   7   C   :    0.000165414    0.000246681   -0.000010940
   8   H   :   -0.000066455   -0.000024230   -0.000043876
   9   H   :   -0.000039587    0.000095142    0.000077615
  10   H   :    0.000072885    0.000010747    0.000094208
  11   H   :    0.000302367   -0.000243433    0.000000173
  12   H   :    0.000092038    0.000098177   -0.000316989
  13   H   :    0.000013928   -0.000156116   -0.000156776
  14   H   :   -0.000021982   -0.000188882    0.000151423
  15   H   :    0.000078660    0.000114647   -0.000062496
  16   H   :   -0.000024261   -0.000021167   -0.000098302
  17   H   :   -0.000056008    0.000015227   -0.000047458
  18   H   :    0.000006760    0.000095056   -0.000098233
  19   H   :   -0.000036760    0.000032298    0.000004900
  20   H   :    0.000000792    0.000129005   -0.000000887
  21   H   :   -0.000055644   -0.000016056    0.000066664
  22   H   :   -0.000047113   -0.000084845    0.000029420
  23   H   :   -0.000061408   -0.000005223   -0.000001597

Difference to translation invariance:
           :    0.0000000000   -0.0000000000    0.0000000000

Difference to rotation invariance:
           :    0.0003411224    0.0000943969   -0.0007408662

Norm of the Cartesian gradient     ...    0.0015000827
RMS gradient                       ...    0.0001805887
MAX gradient                       ...    0.0006154508

-------
TIMINGS
-------

Total SCF gradient time     ....       10.235 sec

Densities                   ....       0.001 sec  (  0.0%)
One electron gradient       ....       0.287 sec  (  2.8%)
RI-J Coulomb gradient       ....       1.321 sec  ( 12.9%)
XC gradient                 ....       6.807 sec  ( 66.5%)
CPCM gradient               ....       1.778 sec  ( 17.4%)
   A-Matrix (El+Nuc)        ....       0.110 sec  (  1.1%)
   Potential                ....       1.668 sec  ( 16.3%)
SMD gradient                ....       0.002 sec  (  0.0%)

Maximum memory used throughout the entire SCFGRAD-calculation: 35.9 MB

------------------------------------------------------------------------------
                              ORCA PROPERTY CALCULATIONS
------------------------------------------------------------------------------

GBWName                                 ... xtb_opt.gbw
Number of atoms                         ...     23
Number of basis functions               ...    213
Max core memory                         ...   1024 MB

Electric properties:
Dipole moment                           ... YES
Quadrupole moment                       ...  NO
Static polarizability (Dipole/Dipole)   ...  NO
Static polarizability (Dipole/Quad.)    ...  NO
Static polarizability (Quad./Quad.)     ...  NO
Static polarizability (Velocity)        ...  NO

Atomic electric properties:
Dipole moment                           ...  NO
Quadrupole moment                       ...  NO
Static polarizability                   ...  NO

Choice of electric origin               ... Center of mass
Position of electric origin             ...     0.001891    -0.002013     0.000472

General magnetic properties:
Magnetizability                         ...  NO

EPR properties:
g-Tensor (aka g-matrix)                 ...  NO
Zero-Field splitting spin-orbit         ...  NO
Zero-field splitting spin-spin          ...  NO
Hyperfine couplings                     ...  NO (   0 nuclei)
Quadrupole couplings                    ...  NO (   0 nuclei)
Contact density                         ...  NO (   0 nuclei)

NMR properties:
Chemical shifts                         ...  NO (   0 nuclei)
Spin-rotation constants                 ...  NO (   0 nuclei)
Spin-spin couplings                     ...  NO (   0 nuclei,    0 pairs)

Choice of magnetic origin               ... GIAO
Position of magnetic origin             ...     0.000000     0.000000     0.000000

Properties with geometric perturbations:
SCF Hessian                             ...  NO
IR spectrum                             ...  NO
VCD spectrum                            ...  NO
X-ray spectroscopy properties:
SCF XES/XAS/RIXS spectra                ...  NO


-------------
DIPOLE MOMENT
-------------

Method             : SCF
Type of density    : Electron Density
Multiplicity       :   1
Irrep              :   0
Energy             :  -276.2857354863821229 Eh
Relativity type    : 
Basis              : AO
                                X                 Y                 Z
Electronic contribution:      0.530961539      -0.877984050      -0.734994981
Nuclear contribution   :     -0.474472870       0.860900092       0.741146658
                        -----------------------------------------
Total Dipole Moment    :      0.056488669      -0.017083958       0.006151678
                        -----------------------------------------
Magnitude (a.u.)       :      0.059335271
Magnitude (Debye)      :      0.150818274



--------------------
Rotational spectrum 
--------------------
 
Rotational constants in cm-1:             0.130312             0.045888             0.041390 
Rotational constants in MHz :          3906.657790          1375.691764          1240.840183 

Dipole components along the rotational axes: 
x,y,z [a.u.] :     0.058154    -0.008145    -0.008513 
x,y,z [Debye]:     0.147815    -0.020703    -0.021638 

 

Dipole moment calculation done in   0.2 sec 

Maximum memory used throughout the entire PROP-calculation: 14.4 MB

--------------------------------
SUGGESTED CITATIONS FOR THIS RUN
--------------------------------

Below you find a list of papers that are relevant to this ORCA run
We neither can nor want to force you to cite these papers, but we appreciate if you do
You receive ORCA, which is the product of decades of hard work by many enthusiastic individuals, for free
The only thing we kindly ask in return is that you cite our papers,
We deeply appreciate it, if you show your appreciation for ORCA by not just citing the generic ORCA reference.

Please note that relegating all ORCA citations to the supporting information does *not* help us.
SI sections are not indexed - citations you put there will not count into any citation statistics
But we need these citations in order to attract the funding resources that allow us to do what we are doing

Therefore, if you are a happy ORCA user, please consider citing a few of the papers listed below in the main body of your paper

In addition to the list printed below, the program has created the file xtb_opt.bibtex that contains the list in bibtex format
You can import this file easily into all common literature databanks and citation aid programs


List of essential papers. We consider these as the minimum necessary citations

  1. Neese,F.
     Software update: the ORCA program system, version 5.0
     WIRES Comput. Molec. Sci., 2022 12(1)e1606
     doi.org/10.1002/wcms.1606
  2. Grimme,S.; Hansen,A.; Ehlert,S.; Mewes,J.
     r2SCAN-3c: A 'Swiss army knife' composite electronic-structure method
     J. Chem. Phys., 2021 154 064103
     doi.org/10.1063/5.0040021

List of papers to cite with high priority. The work reported in these papers was absolutely
necessary for this run to complete.
Our perspective: the developers of density functionals and basis sets usually get cited in chemistry papers
Good! But without the algorithms to do something with them, the functionals or basis sets would not do anything.
Hence, in our opinion, the algorithm design and method developments papers are equally worthy of getting cited

  1. Neese,F.
     An improvement of the resolution of the identity approximation for the formation of the Coulomb matrix
     J. Comp. Chem., 2003 24(14)1740-1747
     doi.org/10.1002/jcc.10318
  2. Garcia-Rates,M.; Neese,F.
     Effect of the Solute Cavity on the Solvation Energy and its Derivatives within the Framework of the Gaussian Charge Scheme
     J. Comput. Chem., 2020 41 922-939
     doi.org/10.1002/jcc.26139
  3. Neese,F.
     The SHARK Integral Generation and Digestion System
     J. Comp. Chem., 2022  1-16
     doi.org/10.1002/jcc.26942
  4. Lehtola,S.; Steigemann,C.; Oliveira,M.; Marques,M.
     Recent developments in Libxc - A comprehensive library of functionals for density functional theory
     Software X, 2018 7 
     doi.org/10.1016/j.softx.2017.11.002
  5. Caldeweyher,E.; Bannwarth,C.; Grimme,S.
     Extension of the D3 dispersion coefficient model
     J. Chem. Phys., 2017 147 034112
     doi.org/10.1063/1.4993215
  6. Caldeweyher,E.; Ehlert,S.; Hansen,A.; Neugebauer,H.; Spicher,S.; Bannwarth,C.; Grimme,S.
     A generally applicable atomic-charge dependent London dispersion correction
     J. Chem. Phys., 2019 150 154122
     doi.org/10.1063/1.5090222
  7. Caldeweyher,E.; Mewes,J.; Ehlert,S.; Grimme,S.
     Extension and evaluation of the D4 London-dispersion model for periodic systems
     Phys. Chem. Chem. Phys., 2020 22(16)8499-8512
     doi.org/10.1039/D0CP00502A
  8. Wittmann,L.; Gordiy,I.; Friede,M.; Helmich-Paris,B.; Grimme,S.; Hansen,A.; Bursch,M.
     Extension of the D3 and D4 London Dispersion Corrections to the full Actinides Series
     Phys. Chem. Chem. Phys., 2024 26(32)21379-21394
     doi.org/https://doi.org/10.1039/D4CP01514B 

List of suggested additional citations. These are papers that are important in the 'surrounding' of 
of this run, or papers that preceded the highly important papers. If you like your results we are grateful for a citation.

  1. Neese,F.
     The ORCA program system
     WIRES Comput. Molec. Sci., 2012 2(1)73-78
     doi.org/10.1002/wcms.81
  2. Neese,F.
     Software update: the ORCA program system, version 4.0
     WIRES Comput. Molec. Sci., 2018 8(1)1-6
     doi.org/10.1002/wcms.1327
  3. Neese,F.; Wennmohs,F.; Becker,U.; Riplinger,C.
     The ORCA quantum chemistry program package
     J. Chem. Phys., 2020 152 Art. No. L224108
     doi.org/10.1063/5.0004608

List of optional additional citations

  1. Neese,F.
     Approximate second-order SCF convergence for spin unrestricted wavefunctions
     Chem. Phys. Lett., 2000 325(1-3)93-98
     doi.org/10.1016/s0009-2614(00)00662-x

Timings for individual modules:

Sum of individual times          ...       23.549 sec (=   0.392 min)
Startup calculation              ...        0.930 sec (=   0.015 min)   3.9 %
SCF iterations                   ...       11.704 sec (=   0.195 min)  49.7 %
Property calculations            ...        0.276 sec (=   0.005 min)   1.2 %
SCF Gradient evaluation          ...       10.639 sec (=   0.177 min)  45.2 %
                             ****ORCA TERMINATED NORMALLY****
TOTAL RUN TIME: 0 days 0 hours 0 minutes 29 seconds 134 msec
  ------------------------------------------------------------------------
          * successful ORCA run, taking over control again...
av. E:   -276.2812803 ->   -276.2812803
av. G:      0.0012872 ->      0.0012872
 * total energy  :  -276.2812803 Eh     change       -0.2762674E-04 Eh
   gradient norm :     0.0014994 Eh/a0  converged?    E=F G=F D=F
   step length   :     0.1515335 a0

........................................................................
.............................. CYCLE    5 ..............................
........................................................................
                         * ORCA takes the control...
  ------------------------------------------------------------------------

                                 *****************
                                 * O   R   C   A *
                                 *****************

                                            #,                                       
                                            ###                                      
                                            ####                                     
                                            #####                                    
                                            ######                                   
                                           ########,                                 
                                     ,,################,,,,,                         
                               ,,#################################,,                 
                          ,,##########################################,,             
                       ,#########################################, ''#####,          
                    ,#############################################,,   '####,        
                  ,##################################################,,,,####,       
                ,###########''''           ''''###############################       
              ,#####''   ,,,,##########,,,,          '''####'''          '####       
            ,##' ,,,,###########################,,,                        '##       
           ' ,,###''''                  '''############,,,                           
         ,,##''                                '''############,,,,        ,,,,,,###''
      ,#''                                            '''#######################'''  
     '                                                          ''''####''''         
             ,#######,   #######,   ,#######,      ##                                
            ,#'     '#,  ##    ##  ,#'     '#,    #''#        ,####,   ,####,        
            ##       ##  ##   ,#'  ##            #'  '#       #'       #'  '#        
            ##       ##  #######   ##           ,######,      #####,   #    #        
            '#,     ,#'  ##    ##  '#,     ,#' ,#      #,     #,   #   #,  ,#        
             '#######'   ##     ##  '#######'  #'      '#     '####' # '####'        



                #########################################################
                #                        -***-                          #
                #          Department of theory and spectroscopy        #
                #                                                       #
                #                      Frank Neese                      #
                #                                                       #
                #     Directorship, Architecture, Infrastructure        #
                #                    SHARK, DRIVERS                     #
                #        Core code/Algorithms in most modules           #
                #                                                       #
                #        Max Planck Institute fuer Kohlenforschung      #
                #                Kaiser Wilhelm Platz 1                 #
                #                 D-45470 Muelheim/Ruhr                 #
                #                      Germany                          #
                #                                                       #
                #                  All rights reserved                  #
                #                        -***-                          #
                #########################################################


                         Program Version 6.0.1  -  RELEASE   -


 With contributions from (in alphabetic order):
[Max-Planck-Institut fuer Kohlenforschung]                               
  Daniel Aravena         : Magnetic Suceptibility                        
  Michael Atanasov       : Ab Initio Ligand Field Theory (pilot matlab implementation)
  Alexander A. Auer      : GIAO ZORA, VPT2 properties, NMR spectrum      
  Ute Becker             : All parallelization in ORCA, NUMFREQ, NUMCALC 
  Giovanni Bistoni       : ED, misc. LED, open-shell LED, HFLD           
  Martin Brehm           : Molecular dynamics                            
  Dmytro Bykov           : pre 5.0 version of the SCF Hessian            
  Marcos Casanova-Páez   : Triplet and SCS-CIS(D). UHF-(DLPNO)-IP/EA/STEOM-CCSD. UHF-CVS-IP/STEOM-CCSD   
  Vijay G. Chilkuri      : MRCI spin determinant printing, contributions to CSF-ICE 
  Pauline Colinet        : FMM embedding                                 
  Dipayan Datta          : RHF DLPNO-CCSD density                        
  Achintya Kumar Dutta   : EOM-CC, STEOM-CC                              
  Nicolas Foglia         : Exact transition moments, OPA infrastructure, MCD improvements    
  Dmitry Ganyushin       : Spin-Orbit,Spin-Spin,Magnetic field MRCI      
  Miquel Garcia-Rates    : C-PCM and meta-GGA Hessian, CCSD/C-PCM, Gaussian charge scheme 
  Tiago L. C. Gouveia    : GS-ROHF, GS-ROCIS                             
  Yang Guo               : DLPNO-NEVPT2, F12-NEVPT2, CIM, IAO-localization        
  Andreas Hansen         : Spin unrestricted coupled pair/coupled cluster methods 
  Ingolf Harden          : AUTO-CI MPn and infrastructure                
  Benjamin Helmich-Paris : MC-RPA, TRAH-(SCF,CASSCF), AVAS, COSX integrals, SCF dyn. polar. 
  Lee Huntington         : MR-EOM, pCC                                   
  Robert Izsak           : Overlap fitted RIJCOSX, COSX-SCS-MP3, EOM     
  Riya Kayal             : Wick's Theorem for AUTO-CI, AUTO-CI UHF-CCSDT 
  Emily Kempfer          : AUTO-CI, RHF CISDT and CCSDT                  
  Christian Kollmar      : KDIIS, OOCD, Brueckner-CCSD(T), CCSD density, CASPT2, CASPT2-K, improved NEVPT2 
  Axel Koslowski         : Symmetry handling                             
  Simone Kossmann        : meta-GGA functionals, TD-DFT gradient, OOMP2, (MP2 Hessian; deprecated post 5.0) 
  Lucas Lang             : DCDCAS                                        
  Marvin Lechner         : AUTO-CI (C++ implementation), FIC-MRCC        
  Spencer Leger          : CASSCF response                               
  Dagmar Lenk            : GEPOL surface, SMD, ORCA-2-JSON               
  Dimitrios Liakos       : Extrapolation schemes; Compound Job, initial MDCI parallelization 
  Dimitrios Manganas     : Further ROCIS development; embedding schemes. LFT, Crystal Embedding 
  Dimitrios Pantazis     : SARC Basis sets                               
  Anastasios Papadopoulos: AUTO-CI, single reference methods and gradients 
  Taras Petrenko         : pre 6.0 DFT Hessian and TD-DFT gradient, (ASA, deprecated), ECA, 1-Electron XAS/XES, NRVS 
  Peter Pinski           : DLPNO-MP2, DLPNO-MP2 Gradient                 
  Christoph Reimann      : Effective Core Potentials                     
  Marius Retegan         : Local ZFS, SOC                                
  Christoph Riplinger    : Optimizer, TS searches, QM/MM, DLPNO-CCSD(T), (RO)-DLPNO pert. Triples 
  Michael Roemelt        : Original ROCIS implementation                 
  Masaaki Saitow         : Open-shell DLPNO-CCSD energy and density      
  Barbara Sandhoefer     : DKH picture change effects                    
  Kantharuban Sivalingam : CASSCF convergence/infrastructure, NEVPT2 and variants, FIC-MRCI 
  Bernardo de Souza      : ESD, SOC TD-DFT                               
  Georgi L. Stoychev     : AutoAux, RI-MP2 NMR, DLPNO-MP2 response, X2C  
  Van Anh Tran           : RI-MP2 g-tensors                              
  Willem Van den Heuvel  : Paramagnetic NMR                              
  Zikuan Wang            : NOTCH, Electric field optimization            
  Frank Wennmohs         : Technical directorship and infrastructure     
  Hang Xu                : AUTO-CI-Response properties                   
                                                                         
[FACCTs GmbH]                                                            
  Markus Bursch, Miquel Garcia-Rates, Christoph Riplinger, Bernardo de Souza, Georgi L. Stoychev 
                                                                 
  APM, Basis sets (HGBS, AHGBS, def-TZVP (Ac-Lr), def2-XVPD (La-Lu)), CI-OPT, improved COSX, DLPNO-Multilevel,           
  DOCKER, DRACO, updates on ESD, GOAT, IRC, LR-CPCM, MBIS, meta-GGA TD-DFT gradient, ML-optimized integration grids, 
  MM, NACMEs, nearIR, NEB, NEB-TS, NL-DFT gradient (VV10), 2- and 3-layer-ONIOM, interface openCOSMO-RS, QMMM,   
  Crystal-QMMM, SF, symmetry and pop. for TD-DFT, r2SCAN hybrids, SOLVATOR                                   
                                                                         
[Other institutions]                                                     
  V. Asgeirsson          : NEB                                           
  Christoph Bannwarth    : sTDA-DFT, sTD-DFT, PBEh-3c, B97-3c, D3        
  Sebastian Ehlert       : rSCAN, r2SCAN, r2SCAN-3c, D4, dhf basis sets  
  Marvin Friede          : D4 for Fr, Ra, Ac-Lr                          
  Lars Goerigk           : TD-DFT with DH, B97 family of functionals     
  Stefan Grimme          : VdW corrections, initial TS optimization, DFT functionals, gCP, sTDA/sTD-DF 
  Waldemar Hujo          : DFT-NL                                        
  H. Jonsson             : NEB                                           
  Holger Kruse           : gCP                                           
  Marcel Mueller         : wB97X-3c, vDZP basis set                      
  Hagen Neugebauer       : wr2SCAN                                       
  Tobias Risthaus        : range-separated hybrid DFT                    
  Lukas Wittmann         : regularized MP2, r2SCAN double-hybrids, wr2SCAN        
                                                                         
We gratefully acknowledge several colleagues who have allowed us to      
interface, adapt or use parts of their codes:                            
  Ed Valeev, F. Pavosevic, A. Kumar             : LibInt (2-el integral package), F12 methods 
  Garnet Chan, S. Sharma, J. Yang, R. Olivares  : DMRG                   
  Ulf Ekstrom                                   : XCFun DFT Library      
  Mihaly Kallay                                 : mrcc  (arbitrary order and MRCC methods)
  Frank Weinhold                                : gennbo (NPA and NBO analysis)           
  Simon Mueller                                 : openCOSMO-RS                            
  Christopher J. Cramer and Donald G. Truhlar   : smd solvation model                     
  S Lehtola, MJT Oliveira, MAL Marques          : LibXC Library                           
  Liviu Ungur et al                             : ANISO software                          


 Your calculation uses the libint2 library for the computation of 2-el integrals
 For citations please refer to: http://libint.valeyev.net

 Your ORCA version has been built with support for libXC version: 6.2.2
 For citations please refer to: https://libxc.gitlab.io

 This ORCA versions uses:
   CBLAS   interface :  Fast vector & matrix operations
   LAPACKE interface :  Fast linear algebra routines
   SCALAPACK package :  Parallel linear algebra routines
   Shared memory     :  Shared parallel matrices
   BLAS/LAPACK       :  OpenBLAS 0.3.27  USE64BITINT DYNAMIC_ARCH NO_AFFINITY Zen SINGLE_THREADED
        Core in use  :  Zen
   Copyright (c) 2011-2014, The OpenBLAS Project




***************************************
The coordinates will be read from file: xtb_opt.xyz
***************************************


Your calculation utilizes the geometrical counterpoise correction gCP
Please cite in your paper:
H.Kruse, S. Grimme J.Chem.Phys., 136, (2012), 154101 
   

Your calculation utilizes the atom-pairwise dispersion correction
based on EEQ partial charges (D4)


Your calculation utilizes the SMD solvation module
Please cite in your paper:
A.V. Marenich, C.J. Cramer, D.G. Truhlar J. Phys. Chem. B, 113, (2009), 6378 

================================================================================

----- Orbital basis set information -----
Your calculation utilizes the basis: def2-mTZVPP
   Stefan Grimme, Andreas Hansen, Sebastian Ehlert, and Jan-Michael Mewes 
   J. Chem. Phys. 154, 064103 (2021). DOI: 10.1063/5.0040021

----- AuxJ basis set information -----
Your calculation utilizes the auxiliary basis: def2/J
   F. Weigend, Phys. Chem. Chem. Phys. 8, 1057 (2006).

================================================================================
                                        WARNINGS
                       Please study these warnings very carefully!
================================================================================

WARNING: Old DensityContainer found on disk!
         Will remove this file - 
         If you want to keep old densities, please start your calculation with a different basename. 



WARNING: SCAN, rSCAN, or r2SCAN functional requested.
  ===> : libXC variant has now been activated.



================================================================================
                                       INPUT FILE
================================================================================
NAME = xtb_opt.inp
|  1> ! r2scan-3c def2/J RI DEFGRID2 scfconv7 ENGRAD tightSCF miniprint
|  2> %cpcm
|  3>     smd true
|  4>     smdsolvent "water"
|  5> end
|  6> * xyzfile 0 1 xtb_opt.xyz
|  7> 
|  8>                          ****END OF INPUT****
================================================================================

                     *******************************
                     * Energy+Gradient Calculation *
                     *******************************

---------------------------------
CARTESIAN COORDINATES (ANGSTROEM)
---------------------------------
  C      2.309696    0.643645    0.747406
  C      2.259931   -0.482744   -0.281666
  C      0.886513   -1.149017   -0.418175
  C     -0.228605   -0.188534   -0.874239
  C     -1.143990    0.328086    0.248325
  C     -1.947820    1.536675   -0.229971
  C     -2.084952   -0.771639    0.742941
  H      3.318146    1.064910    0.819098
  H      1.630189    1.460889    0.482985
  H      2.026587    0.281227    1.742372
  H      2.999864   -1.247527   -0.013113
  H      2.561719   -0.090747   -1.262363
  H      0.977929   -1.978151   -1.129608
  H      0.613371   -1.602879    0.543794
  H      0.229279    0.670135   -1.384328
  H     -0.866673   -0.678570   -1.622203
  H     -0.513777    0.644952    1.090616
  H     -2.619101    1.905097    0.553620
  H     -1.288215    2.359950   -0.526019
  H     -2.562809    1.269681   -1.098675
  H     -2.767821   -1.076080   -0.060073
  H     -2.691705   -0.422207    1.585465
  H     -1.538035   -1.661027    1.073246

----------------------------
CARTESIAN COORDINATES (A.U.)
----------------------------
  NO LB      ZA    FRAG     MASS         X           Y           Z
   0 C     6.0000    0    12.011    4.364692    1.216313    1.412393
   1 C     6.0000    0    12.011    4.270651   -0.912253   -0.532271
   2 C     6.0000    0    12.011    1.675267   -2.171328   -0.790236
   3 C     6.0000    0    12.011   -0.432000   -0.356278   -1.652072
   4 C     6.0000    0    12.011   -2.161828    0.619992    0.469266
   5 C     6.0000    0    12.011   -3.680846    2.903895   -0.434582
   6 C     6.0000    0    12.011   -3.939989   -1.458186    1.403955
   7 H     1.0000    0     1.008    6.270387    2.012388    1.547871
   8 H     1.0000    0     1.008    3.080610    2.760681    0.912710
   9 H     1.0000    0     1.008    3.829694    0.531441    3.292605
  10 H     1.0000    0     1.008    5.668922   -2.357484   -0.024781
  11 H     1.0000    0     1.008    4.840947   -0.171487   -2.385520
  12 H     1.0000    0     1.008    1.848018   -3.738164   -2.134650
  13 H     1.0000    0     1.008    1.159103   -3.029003    1.027621
  14 H     1.0000    0     1.008    0.433275    1.266372   -2.616001
  15 H     1.0000    0     1.008   -1.637776   -1.282311   -3.065519
  16 H     1.0000    0     1.008   -0.970898    1.218784    2.060966
  17 H     1.0000    0     1.008   -4.949383    3.600111    1.046190
  18 H     1.0000    0     1.008   -2.434374    4.459659   -0.994033
  19 H     1.0000    0     1.008   -4.843007    2.399350   -2.076194
  20 H     1.0000    0     1.008   -5.230424   -2.033497   -0.113522
  21 H     1.0000    0     1.008   -5.086585   -0.797855    2.996095
  22 H     1.0000    0     1.008   -2.906465   -3.138886    2.028141

------------------------------------------------------------------------------
                   ___                                                        
                  /   \      - P O W E R E D   B Y -                         
                 /     \                                                     
                 |  |  |   _    _      __       _____    __    __             
                 |  |  |  | |  | |    /  \     |  _  \  |  |  /  |          
                  \  \/   | |  | |   /    \    | | | |  |  | /  /          
                 / \  \   | |__| |  /  /\  \   | |_| |  |  |/  /          
                |  |  |   |  __  | /  /__\  \  |    /   |      \           
                |  |  |   | |  | | |   __   |  |    \   |  |\   \          
                \     /   | |  | | |  |  |  |  | |\  \  |  | \   \       
                 \___/    |_|  |_| |__|  |__|  |_| \__\ |__|  \__/        
                                                                              
                      - O R C A' S   B I G   F R I E N D -                    
                                      &                                       
                       - I N T E G R A L  F E E D E R -                       
                                                                              
 v1 FN, 2020, v2 2021, v3 2022-2024                                           
------------------------------------------------------------------------------


----------------------
SHARK INTEGRAL PACKAGE
----------------------

Number of atoms                             ...     23
Number of basis functions                   ...    213
Number of shells                            ...    111
Maximum angular momentum                    ...      2
Integral batch strategy                     ... SHARK/LIBINT Hybrid
RI-J (if used) integral strategy            ... SPLIT-RIJ (Revised 2003 algorithm where possible)
Printlevel                                  ...      1
Contraction scheme used                     ... SEGMENTED contraction
Prescreening option                         ... SCHWARTZ
   Thresh                                   ... 3.000e-11
   Tcut                                     ... 1.000e-12
   Tpresel                                  ... 1.000e-12 
Coulomb Range Separation                    ... NOT USED
Exchange Range Separation                   ... NOT USED
Multipole approximations                    ... NOT USED
Finite Nucleus Model                        ... NOT USED
CABS basis                                  ... NOT available
Auxiliary Coulomb fitting basis             ... AVAILABLE
   # of basis functions in Aux-J            ...    519
   # of shells in Aux-J                     ...    185
   Maximum angular momentum in Aux-J        ...      4
Auxiliary J/K fitting basis                 ... NOT available
Auxiliary Correlation fitting basis         ... NOT available
Auxiliary 'external' fitting basis          ... NOT available

Checking pre-screening integrals            ... done (  0.0 sec) Dimension = 111
Check shell pair data                       ... done (  0.0 sec)
Shell pair information
Shell pair cut-off parameter TPreSel        ...   1.0e-12
Total number of shell pairs                 ...      6216
Shell pairs after pre-screening             ...      5689
Total number of primitive shell pairs       ...     21523
Primitive shell pairs kept                  ...     14295
          la=0 lb=0:   2082 shell pairs
          la=1 lb=0:   2266 shell pairs
          la=1 lb=1:    640 shell pairs
          la=2 lb=0:    431 shell pairs
          la=2 lb=1:    242 shell pairs
          la=2 lb=2:     28 shell pairs

Calculating one electron integrals          ... done (  0.0 sec)
Calculating RI/J V-Matrix + Cholesky decomp.... done (  0.0 sec)
Calculating Nuclear repulsion               ... done (  0.0 sec) ENN=    328.507696862749 Eh

Diagonalization of the overlap matrix:
Smallest eigenvalue                        ... 1.890e-04
Time for diagonalization                   ...    0.004 sec
Threshold for overlap eigenvalues          ... 1.000e-07
Number of eigenvalues below threshold      ... 0
Time for construction of square roots      ...    0.004 sec
Total time needed                          ...    0.009 sec

-------------------
DFT GRID GENERATION
-------------------

General Integration Accuracy     IntAcc      ... 4.388
Radial Grid Type                 RadialGrid  ... OptM3 with GC (2021)
Angular Grid (max. ang.)         AngularGrid ... 4 (Lebedev-302)
Angular grid pruning method      GridPruning ... 4 (adaptive)
Weight generation scheme         WeightScheme... mBecke (2022)
Basis function cutoff            BFCut       ... 1.0000e-11
Integration weight cutoff        WCut        ... 1.0000e-14
Partially contracted basis set               ... off
Rotationally invariant grid construction     ... off
Angular grids for H and He will be reduced by one unit

Total number of grid points                  ...    93000
Total number of batches                      ...     1465
Average number of points per batch           ...       63
Average number of grid points per atom       ...     4043
Initializing property integral containers    ... done (  0.0 sec)

SHARK setup successfully completed in   0.9 seconds

Maximum memory used throughout the entire STARTUP-calculation: 39.9 MB
Occupation numbers will be reassigned to an Aufbau configuration
             **** ENERGY FILE WAS UPDATED (xtb_opt.en.tmp) ****
Finished Guess after   0.1 sec
Maximum memory used throughout the entire GUESS-calculation: 15.7 MB
--------------------
CPCM SOLVATION MODEL
--------------------
CPCM parameters:
  Epsilon                                         ...      78.3550
  Refrac                                          ...       1.3328
  Rsolv                                           ...       1.3000
  Surface type                                    ... GAUSSIAN VDW
  Discretization scheme                           ... Constant charge density
    Threshold for H atoms                         ...       5.0000 (charges/Ang^2)
    Threshold for non-H atoms                     ...       5.0000 (charges/Ang^2)
  Epsilon function type                           ...         CPCM
Solvent:                                          ... WATER
SMD-CDS solvent descriptors:
  Soln                                            ...       1.3328
  Soln25                                          ...       1.3323
  Sola                                            ...       0.0000
  Solb                                            ...       0.0000
  Solg                                            ...       0.0000
  Solc                                            ...       0.0000
  Solh                                            ...       0.0000
Radii:
  Scheme                                          ... Element-dependent radii
  Radius for C  used is    3.4960 Bohr (=   1.8500 Ang.)
  Radius for H  used is    2.2677 Bohr (=   1.2000 Ang.)
Calculating surface                               ...        done! (  0.0s)
Cavity surface points                             ...         1693
Cavity Volume                                     ...     920.0530
Cavity Surface-area                               ...     598.1918
Calculating surface distance matrix               ...        done! (  0.0s)
Performing Cholesky decomposition & store         ...        done! (  0.1s)
Overall time for CPCM initialization              ...                 0.1s

----------------------------------------D-I-I-S--------------------------------------------
Iteration    Energy (Eh)           Delta-E    RMSDP     MaxDP     DIISErr   Damp  Time(sec)
-------------------------------------------------------------------------------------------
               ***  Starting incremental Fock matrix formation  ***
                              *** Initializing SOSCF ***
---------------------------------------S-O-S-C-F--------------------------------------
Iteration    Energy (Eh)           Delta-E    RMSDP     MaxDP     MaxGrad    Time(sec)
--------------------------------------------------------------------------------------
    1    -276.2917346177508193     0.00e+00  2.56e-05  4.31e-04  3.26e-05     2.5
               *** Restarting incremental Fock matrix formation ***
    2    -276.2917391525959943    -4.53e-06  1.15e-05  2.18e-04  3.45e-05     2.5
    3    -276.2917394062032486    -2.54e-07  3.80e-06  7.69e-05  1.53e-05     1.9
                  *** Gradient check signals convergence ***

               *****************************************************
               *                     SUCCESS                       *
               *           SCF CONVERGED AFTER   3 CYCLES          *
               *****************************************************


SMD CDS free energy correction energy :                 3.76415     Kcal/mol
Total Energy after SMD CDS correction =              -276.285740851 Eh
             **** ENERGY FILE WAS UPDATED (xtb_opt.en.tmp) ****

----------------
TOTAL SCF ENERGY
----------------

Total Energy       :       -276.28574085094493 Eh           -7518.11722 eV

Components:
Nuclear Repulsion  :        328.50769686274856 Eh            8939.14889 eV
Electronic Energy  :       -604.79694190740020 Eh          -16457.36147 eV
One Electron Energy:      -1021.25885551442707 Eh          -27789.86627 eV
Two Electron Energy:        416.46191360702682 Eh           11332.50480 eV
CPCM Dielectric    :         -0.00249436155160 Eh              -0.06788 eV
SMD CDS (Gcds)     :          0.00599855525833 Eh               0.16323 eV

Virial components:
Potential Energy   :       -551.06440703996839 Eh          -14995.22486 eV
Kinetic Energy     :        274.77866618902345 Eh            7477.10764 eV
Virial Ratio       :          2.00548468584852

DFT components:
N(Alpha)           :       29.000090160977 electrons
N(Beta)            :       29.000090160977 electrons
N(Total)           :       58.000180321954 electrons
E(X)               :      -42.087703044478 Eh       
E(C)               :       -1.778137193009 Eh       
E(XC)              :      -43.865840237487 Eh       

CPCM Solvation Model Properties:
Surface-charge          :         -0.05279707454055
Corrected charge        :          0.00000000000000
Outlying charge corr.   :          0.00021174226440 Eh               0.00576 eV
Free-energy (cav+disp)  :          0.00599855525833 Eh               0.16323 eV

---------------
SCF CONVERGENCE
---------------

  Last Energy change         ...    2.5361e-07  Tolerance :   1.0000e-07
  Last MAX-Density change    ...    7.6888e-05  Tolerance :   1.0000e-07
  Last RMS-Density change    ...    3.7993e-06  Tolerance :   5.0000e-09
  Last DIIS Error            ...    7.9460e-04  Tolerance :   1.0000e-07
  Last Orbital Gradient      ...    1.5328e-05  Tolerance :   1.0000e-04
  Last Orbital Rotation      ...    2.1378e-05  Tolerance :   1.0000e-04


----------------
ORBITAL ENERGIES
----------------

  NO   OCC          E(Eh)            E(eV) 
   0   2.0000     -10.024049      -272.7682 
   1   2.0000     -10.017083      -272.5787 
   2   2.0000     -10.014472      -272.5076 
   3   2.0000     -10.012936      -272.4658 
   4   2.0000     -10.009210      -272.3645 
   5   2.0000     -10.008204      -272.3371 
   6   2.0000     -10.007665      -272.3224 
   7   2.0000      -0.772137       -21.0109 
   8   2.0000      -0.734040       -19.9742 
   9   2.0000      -0.666685       -18.1414 
  10   2.0000      -0.638840       -17.3837 
  11   2.0000      -0.600363       -16.3367 
  12   2.0000      -0.531755       -14.4698 
  13   2.0000      -0.512088       -13.9346 
  14   2.0000      -0.432786       -11.7767 
  15   2.0000      -0.412290       -11.2190 
  16   2.0000      -0.394333       -10.7303 
  17   2.0000      -0.389737       -10.6053 
  18   2.0000      -0.379362       -10.3230 
  19   2.0000      -0.349475        -9.5097 
  20   2.0000      -0.342288        -9.3141 
  21   2.0000      -0.333551        -9.0764 
  22   2.0000      -0.322403        -8.7730 
  23   2.0000      -0.310501        -8.4492 
  24   2.0000      -0.296568        -8.0700 
  25   2.0000      -0.291200        -7.9240 
  26   2.0000      -0.274576        -7.4716 
  27   2.0000      -0.267885        -7.2895 
  28   2.0000      -0.267143        -7.2693 
  29   0.0000       0.091816         2.4984 
  30   0.0000       0.106233         2.8907 
  31   0.0000       0.116297         3.1646 
  32   0.0000       0.121627         3.3096 
  33   0.0000       0.130416         3.5488 
  34   0.0000       0.140271         3.8170 
  35   0.0000       0.142242         3.8706 
  36   0.0000       0.152552         4.1511 
  37   0.0000       0.155612         4.2344 
  38   0.0000       0.164519         4.4768 
  39   0.0000       0.167756         4.5649 
*Only the first 10 virtual orbitals were printed.
Total SCF time: 0 days 0 hours 0 min 7 sec 
Finished LeanSCF after   7.2 sec

Maximum memory used throughout the entire LEANSCF-calculation: 35.8 MB


-------------------------------------------------------------------------------
                          DFT DISPERSION CORRECTION                            
                                                                               
                                DFTD4 V3.4.0                                   
-------------------------------------------------------------------------------
-------------------------   ----------------
Dispersion correction           -0.006257833
-------------------------   ----------------

------------------   -----------------
gCP correction             0.010714482
------------------   -----------------

-------------------------   --------------------
FINAL SINGLE POINT ENERGY      -276.281284201751
-------------------------   --------------------

------------------------------------------------------------------------------
                         ORCA SCF GRADIENT CALCULATION
------------------------------------------------------------------------------

Nuc. rep. gradient        (SHARK) ... done (  0.0 sec)
HCore & Overlap gradient  (SHARK) ... done (  0.3 sec)
Split-RIJ-J gradient      (SHARK) ... done (  1.3 sec)
XC gradient                       ... done (  6.4 sec)
CPCM gradient                     ... done (  1.8 sec)
SMD gradient                      ... done (  0.0 sec)
Dispersion correction             ... done (  0.0 sec)

-------------------
DISPERSION GRADIENT
-------------------

   1   C   :    0.000102271    0.000037969    0.000043565
   2   C   :    0.000099038   -0.000021700   -0.000015868
   3   C   :    0.000050344   -0.000068298   -0.000025322
   4   C   :   -0.000014793   -0.000011657   -0.000056348
   5   C   :   -0.000068228    0.000016712    0.000011255
   6   C   :   -0.000084033    0.000078694   -0.000015604
   7   C   :   -0.000095080   -0.000044197    0.000040796
   8   H   :    0.000036618    0.000016421    0.000014736
   9   H   :    0.000050610    0.000023411    0.000015075
  10   H   :    0.000047741    0.000011012    0.000030213
  11   H   :    0.000034087   -0.000012286    0.000000298
  12   H   :    0.000037139   -0.000004283   -0.000012383
  13   H   :    0.000021620   -0.000036717   -0.000025310
  14   H   :    0.000018823   -0.000031568   -0.000000343
  15   H   :    0.000002303    0.000006542   -0.000030106
  16   H   :   -0.000014458   -0.000015030   -0.000031579
  17   H   :   -0.000027358    0.000011441    0.000014550
  18   H   :   -0.000028315    0.000030422    0.000004584
  19   H   :   -0.000030502    0.000046530   -0.000010280
  20   H   :   -0.000028543    0.000026256   -0.000011437
  21   H   :   -0.000037026   -0.000016971    0.000009086
  22   H   :   -0.000035083   -0.000011688    0.000026239
  23   H   :   -0.000037173   -0.000031017    0.000024182

Difference to translation invariance:
           :   -0.0000000000    0.0000000000   -0.0000000000

Difference to rotation invariance:
           :    0.0000000000    0.0000000000    0.0000000000

Norm of the Dispersion gradient    ...    0.0003144097
RMS gradient                       ...    0.0000378505
MAX gradient                       ...    0.0001022708
gCP correction                   ... done

------------------
CARTESIAN GRADIENT
------------------

   1   C   :    0.000103056   -0.000108792   -0.000055042
   2   C   :   -0.000175119    0.000214909    0.000106468
   3   C   :    0.000044596   -0.000145621   -0.000033742
   4   C   :    0.000054790   -0.000118067    0.000017420
   5   C   :   -0.000134902    0.000199762    0.000075900
   6   C   :   -0.000029535   -0.000059691    0.000036698
   7   C   :    0.000033082   -0.000011069   -0.000137635
   8   H   :   -0.000021523    0.000017402   -0.000022520
   9   H   :   -0.000003420   -0.000065023    0.000020073
  10   H   :    0.000080597    0.000004623   -0.000015556
  11   H   :   -0.000019659   -0.000024955    0.000002637
  12   H   :    0.000020205   -0.000000545   -0.000013769
  13   H   :   -0.000007415   -0.000003389   -0.000010645
  14   H   :   -0.000010771    0.000023134   -0.000078689
  15   H   :   -0.000046458    0.000001511    0.000096300
  16   H   :    0.000070429    0.000003285    0.000019637
  17   H   :   -0.000014669   -0.000003812   -0.000019790
  18   H   :    0.000008578    0.000020457   -0.000031838
  19   H   :    0.000027568   -0.000035378    0.000025366
  20   H   :    0.000029011    0.000043550    0.000007705
  21   H   :   -0.000025777    0.000003578    0.000067647
  22   H   :    0.000055713    0.000016589   -0.000034708
  23   H   :   -0.000038377    0.000027541   -0.000021915

Difference to translation invariance:
           :   -0.0000000000    0.0000000000   -0.0000000000

Difference to rotation invariance:
           :    0.0003705986    0.0001180381   -0.0007550161

Norm of the Cartesian gradient     ...    0.0005507183
RMS gradient                       ...    0.0000662987
MAX gradient                       ...    0.0002149094

-------
TIMINGS
-------

Total SCF gradient time     ....        9.835 sec

Densities                   ....       0.001 sec  (  0.0%)
One electron gradient       ....       0.291 sec  (  3.0%)
RI-J Coulomb gradient       ....       1.323 sec  ( 13.5%)
XC gradient                 ....       6.400 sec  ( 65.1%)
CPCM gradient               ....       1.779 sec  ( 18.1%)
   A-Matrix (El+Nuc)        ....       0.110 sec  (  1.1%)
   Potential                ....       1.669 sec  ( 17.0%)
SMD gradient                ....       0.002 sec  (  0.0%)

Maximum memory used throughout the entire SCFGRAD-calculation: 35.9 MB

------------------------------------------------------------------------------
                              ORCA PROPERTY CALCULATIONS
------------------------------------------------------------------------------

GBWName                                 ... xtb_opt.gbw
Number of atoms                         ...     23
Number of basis functions               ...    213
Max core memory                         ...   1024 MB

Electric properties:
Dipole moment                           ... YES
Quadrupole moment                       ...  NO
Static polarizability (Dipole/Dipole)   ...  NO
Static polarizability (Dipole/Quad.)    ...  NO
Static polarizability (Quad./Quad.)     ...  NO
Static polarizability (Velocity)        ...  NO

Atomic electric properties:
Dipole moment                           ...  NO
Quadrupole moment                       ...  NO
Static polarizability                   ...  NO

Choice of electric origin               ... Center of mass
Position of electric origin             ...     0.002166    -0.001818     0.000300

General magnetic properties:
Magnetizability                         ...  NO

EPR properties:
g-Tensor (aka g-matrix)                 ...  NO
Zero-Field splitting spin-orbit         ...  NO
Zero-field splitting spin-spin          ...  NO
Hyperfine couplings                     ...  NO (   0 nuclei)
Quadrupole couplings                    ...  NO (   0 nuclei)
Contact density                         ...  NO (   0 nuclei)

NMR properties:
Chemical shifts                         ...  NO (   0 nuclei)
Spin-rotation constants                 ...  NO (   0 nuclei)
Spin-spin couplings                     ...  NO (   0 nuclei,    0 pairs)

Choice of magnetic origin               ... GIAO
Position of magnetic origin             ...     0.000000     0.000000     0.000000

Properties with geometric perturbations:
SCF Hessian                             ...  NO
IR spectrum                             ...  NO
VCD spectrum                            ...  NO
X-ray spectroscopy properties:
SCF XES/XAS/RIXS spectra                ...  NO


-------------
DIPOLE MOMENT
-------------

Method             : SCF
Type of density    : Electron Density
Multiplicity       :   1
Irrep              :   0
Energy             :  -276.2857408509449328 Eh
Relativity type    : 
Basis              : AO
                                X                 Y                 Z
Electronic contribution:      0.534298024      -0.875986414      -0.736989803
Nuclear contribution   :     -0.477900326       0.858474760       0.743290941
                        -----------------------------------------
Total Dipole Moment    :      0.056397698      -0.017511654       0.006301138
                        -----------------------------------------
Magnitude (a.u.)       :      0.059389079
Magnitude (Debye)      :      0.150955043



--------------------
Rotational spectrum 
--------------------
 
Rotational constants in cm-1:             0.130311             0.045924             0.041416 
Rotational constants in MHz :          3906.625837          1376.778781          1241.613433 

Dipole components along the rotational axes: 
x,y,z [a.u.] :     0.058124    -0.008525    -0.008719 
x,y,z [Debye]:     0.147739    -0.021668    -0.022162 

 

Dipole moment calculation done in   0.5 sec 

Maximum memory used throughout the entire PROP-calculation: 14.4 MB

--------------------------------
SUGGESTED CITATIONS FOR THIS RUN
--------------------------------

Below you find a list of papers that are relevant to this ORCA run
We neither can nor want to force you to cite these papers, but we appreciate if you do
You receive ORCA, which is the product of decades of hard work by many enthusiastic individuals, for free
The only thing we kindly ask in return is that you cite our papers,
We deeply appreciate it, if you show your appreciation for ORCA by not just citing the generic ORCA reference.

Please note that relegating all ORCA citations to the supporting information does *not* help us.
SI sections are not indexed - citations you put there will not count into any citation statistics
But we need these citations in order to attract the funding resources that allow us to do what we are doing

Therefore, if you are a happy ORCA user, please consider citing a few of the papers listed below in the main body of your paper

In addition to the list printed below, the program has created the file xtb_opt.bibtex that contains the list in bibtex format
You can import this file easily into all common literature databanks and citation aid programs


List of essential papers. We consider these as the minimum necessary citations

  1. Neese,F.
     Software update: the ORCA program system, version 5.0
     WIRES Comput. Molec. Sci., 2022 12(1)e1606
     doi.org/10.1002/wcms.1606
  2. Grimme,S.; Hansen,A.; Ehlert,S.; Mewes,J.
     r2SCAN-3c: A 'Swiss army knife' composite electronic-structure method
     J. Chem. Phys., 2021 154 064103
     doi.org/10.1063/5.0040021

List of papers to cite with high priority. The work reported in these papers was absolutely
necessary for this run to complete.
Our perspective: the developers of density functionals and basis sets usually get cited in chemistry papers
Good! But without the algorithms to do something with them, the functionals or basis sets would not do anything.
Hence, in our opinion, the algorithm design and method developments papers are equally worthy of getting cited

  1. Neese,F.
     An improvement of the resolution of the identity approximation for the formation of the Coulomb matrix
     J. Comp. Chem., 2003 24(14)1740-1747
     doi.org/10.1002/jcc.10318
  2. Garcia-Rates,M.; Neese,F.
     Effect of the Solute Cavity on the Solvation Energy and its Derivatives within the Framework of the Gaussian Charge Scheme
     J. Comput. Chem., 2020 41 922-939
     doi.org/10.1002/jcc.26139
  3. Neese,F.
     The SHARK Integral Generation and Digestion System
     J. Comp. Chem., 2022  1-16
     doi.org/10.1002/jcc.26942
  4. Lehtola,S.; Steigemann,C.; Oliveira,M.; Marques,M.
     Recent developments in Libxc - A comprehensive library of functionals for density functional theory
     Software X, 2018 7 
     doi.org/10.1016/j.softx.2017.11.002
  5. Caldeweyher,E.; Bannwarth,C.; Grimme,S.
     Extension of the D3 dispersion coefficient model
     J. Chem. Phys., 2017 147 034112
     doi.org/10.1063/1.4993215
  6. Caldeweyher,E.; Ehlert,S.; Hansen,A.; Neugebauer,H.; Spicher,S.; Bannwarth,C.; Grimme,S.
     A generally applicable atomic-charge dependent London dispersion correction
     J. Chem. Phys., 2019 150 154122
     doi.org/10.1063/1.5090222
  7. Caldeweyher,E.; Mewes,J.; Ehlert,S.; Grimme,S.
     Extension and evaluation of the D4 London-dispersion model for periodic systems
     Phys. Chem. Chem. Phys., 2020 22(16)8499-8512
     doi.org/10.1039/D0CP00502A
  8. Wittmann,L.; Gordiy,I.; Friede,M.; Helmich-Paris,B.; Grimme,S.; Hansen,A.; Bursch,M.
     Extension of the D3 and D4 London Dispersion Corrections to the full Actinides Series
     Phys. Chem. Chem. Phys., 2024 26(32)21379-21394
     doi.org/https://doi.org/10.1039/D4CP01514B 

List of suggested additional citations. These are papers that are important in the 'surrounding' of 
of this run, or papers that preceded the highly important papers. If you like your results we are grateful for a citation.

  1. Neese,F.
     The ORCA program system
     WIRES Comput. Molec. Sci., 2012 2(1)73-78
     doi.org/10.1002/wcms.81
  2. Neese,F.
     Software update: the ORCA program system, version 4.0
     WIRES Comput. Molec. Sci., 2018 8(1)1-6
     doi.org/10.1002/wcms.1327
  3. Neese,F.; Wennmohs,F.; Becker,U.; Riplinger,C.
     The ORCA quantum chemistry program package
     J. Chem. Phys., 2020 152 Art. No. L224108
     doi.org/10.1063/5.0004608

List of optional additional citations

  1. Neese,F.
     Approximate second-order SCF convergence for spin unrestricted wavefunctions
     Chem. Phys. Lett., 2000 325(1-3)93-98
     doi.org/10.1016/s0009-2614(00)00662-x

Timings for individual modules:

Sum of individual times          ...       18.851 sec (=   0.314 min)
Startup calculation              ...        0.929 sec (=   0.015 min)   4.9 %
SCF iterations                   ...        7.358 sec (=   0.123 min)  39.0 %
Property calculations            ...        0.553 sec (=   0.009 min)   2.9 %
SCF Gradient evaluation          ...       10.011 sec (=   0.167 min)  53.1 %
                             ****ORCA TERMINATED NORMALLY****
TOTAL RUN TIME: 0 days 0 hours 0 minutes 19 seconds 257 msec
  ------------------------------------------------------------------------
          * successful ORCA run, taking over control again...
av. E:   -276.2812842 ->   -276.2812842
av. G:      0.0014994 ->      0.0014994
 * total energy  :  -276.2812842 Eh     change       -0.3948006E-05 Eh
   gradient norm :     0.0005488 Eh/a0  converged?    E=T G=T D=F
   step length   :     0.0197230 a0

   *** GEOMETRY OPTIMIZATION CONVERGED AFTER 5 CYCLES ***

------------------------------------------------------------------------
 total energy gain   :        -0.0009746 Eh       -0.6116 kcal/mol
 total RMSD          :         0.0688959 a0        0.0365 Å
 total power (kW/mol):        -0.5117776 (step)   -0.0217 (real)
------------------------------------------------------------------------

 L-ANCopt (total)              0 d,  0 h,  1 min, 58.128 sec
 setup                          ...        0 min,  0.001 sec (  0.001%)
 model hessian                  ...        0 min,  0.335 sec (  0.284%)
 ANC generation                 ...        0 min,  0.058 sec (  0.049%)
 coordinate transformation      ...        0 min,  0.000 sec (  0.000%)
 Rational function              ...        0 min,  0.000 sec (  0.000%)
 singlepoint calculation        ...        1 min, 57.733 sec ( 99.665%)
 optimization log               ...        0 min,  0.001 sec (  0.001%)
 hessian update                 ...        0 min,  0.000 sec (  0.000%)

================
 final structure:
================
$coord
        4.36469231126972        1.21631284373660        1.41239319953744      C
        4.27065074891563       -0.91225324677573       -0.53227105094480      C
        1.67526748797254       -2.17132754096738       -0.79023601211168      C
       -0.43199996612589       -0.35627770813756       -1.65207194629149      C
       -2.16182840279023        0.61999191934559        0.46926599952890      C
       -3.68084614644566        2.90389456339704       -0.43458159973807      C
       -3.93998859142150       -1.45818601562222        1.40395492193381      C
        6.27038666642643        2.01238776826793        1.54787122338807      H
        3.08061036065846        2.76068096403783        0.91271028391345      H
        3.82969403588858        0.53144117477845        3.29260515002520      H
        5.66892231534213       -2.35748391829354       -0.02478076677186      H
        4.84094709084244       -0.17148747361973       -2.38552022539562      H
        1.84801801565842       -3.73816447607167       -2.13464959448036      H
        1.15910250523880       -3.02900261661339        1.02762089779965      H
        0.43327463399198        1.26637186298923       -2.61600112103691      H
       -1.63777553446483       -1.28231143829049       -3.06551860601621      H
       -0.97089784451191        1.21878350292847        2.06096561916512      H
       -4.94938306116109        3.60011107071277        1.04618956304263      H
       -2.43437410780440        4.45965886313307       -0.99403260511423      H
       -4.84300727614541        2.39934978889844       -2.07619438384751      H
       -5.23042441232641       -2.03349726601442       -0.11352186977627      H
       -5.08658509884402       -0.79785480345815        2.99609523097558      H
       -2.90646517557679       -3.13888550999216        2.02814115187169      H
$end
 
 Bond Distances (Angstroems)
 ---------------------------
C1-C2=1.5265         C1-H8=1.0953         C1-H9=1.0952         C1-H10=1.0961        C2-C1=1.5265         C2-C3=1.5326         
C2-H11=1.0975        C2-H12=1.0984        C3-C2=1.5326         C3-C4=1.5408         C3-H13=1.0963        C3-H14=1.0982        
C4-C3=1.5408         C4-C5=1.5378         C4-H15=1.0987        C4-H16=1.0985        C5-C4=1.5378         C5-C6=1.5283         
C5-C7=1.5295         C5-H17=1.0986        C6-C5=1.5283         C6-H18=1.0956        C6-H19=1.0957        C6-H20=1.0973        
C7-C5=1.5295         C7-H21=1.0972        C7-H22=1.0955        C7-H23=1.0951        H8-C1=1.0953         H9-C1=1.0952         
H10-C1=1.0961        H11-C2=1.0975        H12-C2=1.0984        H13-C3=1.0963        H14-C3=1.0982        H15-C4=1.0987        
H16-C4=1.0985        H17-C5=1.0986        H18-C6=1.0956        H19-C6=1.0957        H20-C6=1.0973        H21-C7=1.0972        
H22-C7=1.0955        H23-C7=1.0951        
 C  H  Rav=1.0968 sigma=0.0013  Rmin=1.0951  Rmax=1.0987    16
 C  C  Rav=1.5326 sigma=0.0052  Rmin=1.5265  Rmax=1.5408     6
 
 selected bond angles (degree)
 --------------------
H8-C1-C2=110.97                H9-C1-C2=111.57                H9-C1-H8=107.46                H10-C1-C2=111.07               
H10-C1-H8=107.79               H10-C1-H9=107.80               C3-C2-C1=114.21                H11-C2-C1=109.10               
H11-C2-C3=108.85               H12-C2-C1=109.24               H12-C2-C3=108.77               H12-C2-H11=106.37              
C4-C3-C2=113.82                H13-C3-C2=108.17               H13-C3-C4=109.86               H14-C3-C2=108.94               
H14-C3-C4=109.69               H14-C3-H13=106.06              C5-C4-C3=115.10                H15-C4-C3=108.84               
H15-C4-C5=108.93               H16-C4-C3=110.11               H16-C4-C5=107.53               H16-C4-H15=105.94              
C6-C5-C4=110.51                C7-C5-C4=111.14                C7-C5-C6=110.26                H17-C5-C4=108.37               
H17-C5-C6=108.27               H17-C5-C7=108.20               H18-C6-C5=111.37               H19-C6-C5=111.23               
H19-C6-H18=108.02              H20-C6-C5=110.49               H20-C6-H18=107.74              H20-C6-H19=107.84              
H21-C7-C5=110.23               H22-C7-C5=111.11               H22-C7-H21=107.86              H23-C7-C5=111.98               
H23-C7-H21=107.83              H23-C7-H22=107.68              
 
 selected dihedral angles (degree)
 ---------------------------------
C3-C2-C1-H8=178.62            C3-C2-C1-H9=298.43            C3-C2-C1-H10= 58.73           H11-C2-C1-H8= 56.58           
H11-C2-C1-H9=176.39           H11-C2-C1-H10=296.69          H12-C2-C1-H8=300.68           H12-C2-C1-H9= 60.48           
H12-C2-C1-H10=180.78          C4-C3-C2-C1= 61.16            C4-C3-C2-H11=183.34           C4-C3-C2-H12=298.85           
H13-C3-C2-C1=183.56           H13-C3-C2-H11=305.74          H13-C3-C2-H12= 61.25          H14-C3-C2-C1=298.42           
H14-C3-C2-H11= 60.60          H14-C3-C2-H12=176.11          C5-C4-C3-C2=259.50            C5-C4-C3-H13=138.03           
C5-C4-C3-H14= 21.83           H15-C4-C3-C2= 22.07           H15-C4-C3-H13=260.60          H15-C4-C3-H14=144.40          
H16-C4-C3-C2=137.79           H16-C4-C3-H13= 16.32          H16-C4-C3-H14=260.12          C6-C5-C4-C3=164.59            
C6-C5-C4-H15= 42.06           C6-C5-C4-H16=287.68           C7-C5-C4-C3=287.34            C7-C5-C4-H15=164.81           
C7-C5-C4-H16= 50.43           H17-C5-C4-C3= 46.10           H17-C5-C4-H15=283.58          H17-C5-C4-H16=169.20          
H18-C6-C5-C4=178.94           H18-C6-C5-C7= 55.68           H18-C6-C5-H17=297.48          H19-C6-C5-C4=299.51           
H19-C6-C5-C7=176.24           H19-C6-C5-H17= 58.05          H20-C6-C5-C4= 59.24           H20-C6-C5-C7=295.98           
H20-C6-C5-H17=177.78          H21-C7-C5-C4=295.86           H21-C7-C5-C6= 58.75           H21-C7-C5-H17=176.99          
H22-C7-C5-C4=176.35           H22-C7-C5-C6=299.24           H22-C7-C5-H17= 57.48          H23-C7-C5-C4= 55.90           
H23-C7-C5-C6=178.79           H23-C7-C5-H17=297.03          
           -------------------------------------------------
          |                Final Singlepoint                |
           -------------------------------------------------
                         * ORCA takes the control...
  ------------------------------------------------------------------------

                                 *****************
                                 * O   R   C   A *
                                 *****************

                                            #,                                       
                                            ###                                      
                                            ####                                     
                                            #####                                    
                                            ######                                   
                                           ########,                                 
                                     ,,################,,,,,                         
                               ,,#################################,,                 
                          ,,##########################################,,             
                       ,#########################################, ''#####,          
                    ,#############################################,,   '####,        
                  ,##################################################,,,,####,       
                ,###########''''           ''''###############################       
              ,#####''   ,,,,##########,,,,          '''####'''          '####       
            ,##' ,,,,###########################,,,                        '##       
           ' ,,###''''                  '''############,,,                           
         ,,##''                                '''############,,,,        ,,,,,,###''
      ,#''                                            '''#######################'''  
     '                                                          ''''####''''         
             ,#######,   #######,   ,#######,      ##                                
            ,#'     '#,  ##    ##  ,#'     '#,    #''#        ,####,   ,####,        
            ##       ##  ##   ,#'  ##            #'  '#       #'       #'  '#        
            ##       ##  #######   ##           ,######,      #####,   #    #        
            '#,     ,#'  ##    ##  '#,     ,#' ,#      #,     #,   #   #,  ,#        
             '#######'   ##     ##  '#######'  #'      '#     '####' # '####'        



                #########################################################
                #                        -***-                          #
                #          Department of theory and spectroscopy        #
                #                                                       #
                #                      Frank Neese                      #
                #                                                       #
                #     Directorship, Architecture, Infrastructure        #
                #                    SHARK, DRIVERS                     #
                #        Core code/Algorithms in most modules           #
                #                                                       #
                #        Max Planck Institute fuer Kohlenforschung      #
                #                Kaiser Wilhelm Platz 1                 #
                #                 D-45470 Muelheim/Ruhr                 #
                #                      Germany                          #
                #                                                       #
                #                  All rights reserved                  #
                #                        -***-                          #
                #########################################################


                         Program Version 6.0.1  -  RELEASE   -


 With contributions from (in alphabetic order):
[Max-Planck-Institut fuer Kohlenforschung]                               
  Daniel Aravena         : Magnetic Suceptibility                        
  Michael Atanasov       : Ab Initio Ligand Field Theory (pilot matlab implementation)
  Alexander A. Auer      : GIAO ZORA, VPT2 properties, NMR spectrum      
  Ute Becker             : All parallelization in ORCA, NUMFREQ, NUMCALC 
  Giovanni Bistoni       : ED, misc. LED, open-shell LED, HFLD           
  Martin Brehm           : Molecular dynamics                            
  Dmytro Bykov           : pre 5.0 version of the SCF Hessian            
  Marcos Casanova-Páez   : Triplet and SCS-CIS(D). UHF-(DLPNO)-IP/EA/STEOM-CCSD. UHF-CVS-IP/STEOM-CCSD   
  Vijay G. Chilkuri      : MRCI spin determinant printing, contributions to CSF-ICE 
  Pauline Colinet        : FMM embedding                                 
  Dipayan Datta          : RHF DLPNO-CCSD density                        
  Achintya Kumar Dutta   : EOM-CC, STEOM-CC                              
  Nicolas Foglia         : Exact transition moments, OPA infrastructure, MCD improvements    
  Dmitry Ganyushin       : Spin-Orbit,Spin-Spin,Magnetic field MRCI      
  Miquel Garcia-Rates    : C-PCM and meta-GGA Hessian, CCSD/C-PCM, Gaussian charge scheme 
  Tiago L. C. Gouveia    : GS-ROHF, GS-ROCIS                             
  Yang Guo               : DLPNO-NEVPT2, F12-NEVPT2, CIM, IAO-localization        
  Andreas Hansen         : Spin unrestricted coupled pair/coupled cluster methods 
  Ingolf Harden          : AUTO-CI MPn and infrastructure                
  Benjamin Helmich-Paris : MC-RPA, TRAH-(SCF,CASSCF), AVAS, COSX integrals, SCF dyn. polar. 
  Lee Huntington         : MR-EOM, pCC                                   
  Robert Izsak           : Overlap fitted RIJCOSX, COSX-SCS-MP3, EOM     
  Riya Kayal             : Wick's Theorem for AUTO-CI, AUTO-CI UHF-CCSDT 
  Emily Kempfer          : AUTO-CI, RHF CISDT and CCSDT                  
  Christian Kollmar      : KDIIS, OOCD, Brueckner-CCSD(T), CCSD density, CASPT2, CASPT2-K, improved NEVPT2 
  Axel Koslowski         : Symmetry handling                             
  Simone Kossmann        : meta-GGA functionals, TD-DFT gradient, OOMP2, (MP2 Hessian; deprecated post 5.0) 
  Lucas Lang             : DCDCAS                                        
  Marvin Lechner         : AUTO-CI (C++ implementation), FIC-MRCC        
  Spencer Leger          : CASSCF response                               
  Dagmar Lenk            : GEPOL surface, SMD, ORCA-2-JSON               
  Dimitrios Liakos       : Extrapolation schemes; Compound Job, initial MDCI parallelization 
  Dimitrios Manganas     : Further ROCIS development; embedding schemes. LFT, Crystal Embedding 
  Dimitrios Pantazis     : SARC Basis sets                               
  Anastasios Papadopoulos: AUTO-CI, single reference methods and gradients 
  Taras Petrenko         : pre 6.0 DFT Hessian and TD-DFT gradient, (ASA, deprecated), ECA, 1-Electron XAS/XES, NRVS 
  Peter Pinski           : DLPNO-MP2, DLPNO-MP2 Gradient                 
  Christoph Reimann      : Effective Core Potentials                     
  Marius Retegan         : Local ZFS, SOC                                
  Christoph Riplinger    : Optimizer, TS searches, QM/MM, DLPNO-CCSD(T), (RO)-DLPNO pert. Triples 
  Michael Roemelt        : Original ROCIS implementation                 
  Masaaki Saitow         : Open-shell DLPNO-CCSD energy and density      
  Barbara Sandhoefer     : DKH picture change effects                    
  Kantharuban Sivalingam : CASSCF convergence/infrastructure, NEVPT2 and variants, FIC-MRCI 
  Bernardo de Souza      : ESD, SOC TD-DFT                               
  Georgi L. Stoychev     : AutoAux, RI-MP2 NMR, DLPNO-MP2 response, X2C  
  Van Anh Tran           : RI-MP2 g-tensors                              
  Willem Van den Heuvel  : Paramagnetic NMR                              
  Zikuan Wang            : NOTCH, Electric field optimization            
  Frank Wennmohs         : Technical directorship and infrastructure     
  Hang Xu                : AUTO-CI-Response properties                   
                                                                         
[FACCTs GmbH]                                                            
  Markus Bursch, Miquel Garcia-Rates, Christoph Riplinger, Bernardo de Souza, Georgi L. Stoychev 
                                                                 
  APM, Basis sets (HGBS, AHGBS, def-TZVP (Ac-Lr), def2-XVPD (La-Lu)), CI-OPT, improved COSX, DLPNO-Multilevel,           
  DOCKER, DRACO, updates on ESD, GOAT, IRC, LR-CPCM, MBIS, meta-GGA TD-DFT gradient, ML-optimized integration grids, 
  MM, NACMEs, nearIR, NEB, NEB-TS, NL-DFT gradient (VV10), 2- and 3-layer-ONIOM, interface openCOSMO-RS, QMMM,   
  Crystal-QMMM, SF, symmetry and pop. for TD-DFT, r2SCAN hybrids, SOLVATOR                                   
                                                                         
[Other institutions]                                                     
  V. Asgeirsson          : NEB                                           
  Christoph Bannwarth    : sTDA-DFT, sTD-DFT, PBEh-3c, B97-3c, D3        
  Sebastian Ehlert       : rSCAN, r2SCAN, r2SCAN-3c, D4, dhf basis sets  
  Marvin Friede          : D4 for Fr, Ra, Ac-Lr                          
  Lars Goerigk           : TD-DFT with DH, B97 family of functionals     
  Stefan Grimme          : VdW corrections, initial TS optimization, DFT functionals, gCP, sTDA/sTD-DF 
  Waldemar Hujo          : DFT-NL                                        
  H. Jonsson             : NEB                                           
  Holger Kruse           : gCP                                           
  Marcel Mueller         : wB97X-3c, vDZP basis set                      
  Hagen Neugebauer       : wr2SCAN                                       
  Tobias Risthaus        : range-separated hybrid DFT                    
  Lukas Wittmann         : regularized MP2, r2SCAN double-hybrids, wr2SCAN        
                                                                         
We gratefully acknowledge several colleagues who have allowed us to      
interface, adapt or use parts of their codes:                            
  Ed Valeev, F. Pavosevic, A. Kumar             : LibInt (2-el integral package), F12 methods 
  Garnet Chan, S. Sharma, J. Yang, R. Olivares  : DMRG                   
  Ulf Ekstrom                                   : XCFun DFT Library      
  Mihaly Kallay                                 : mrcc  (arbitrary order and MRCC methods)
  Frank Weinhold                                : gennbo (NPA and NBO analysis)           
  Simon Mueller                                 : openCOSMO-RS                            
  Christopher J. Cramer and Donald G. Truhlar   : smd solvation model                     
  S Lehtola, MJT Oliveira, MAL Marques          : LibXC Library                           
  Liviu Ungur et al                             : ANISO software                          


 Your calculation uses the libint2 library for the computation of 2-el integrals
 For citations please refer to: http://libint.valeyev.net

 Your ORCA version has been built with support for libXC version: 6.2.2
 For citations please refer to: https://libxc.gitlab.io

 This ORCA versions uses:
   CBLAS   interface :  Fast vector & matrix operations
   LAPACKE interface :  Fast linear algebra routines
   SCALAPACK package :  Parallel linear algebra routines
   Shared memory     :  Shared parallel matrices
   BLAS/LAPACK       :  OpenBLAS 0.3.27  USE64BITINT DYNAMIC_ARCH NO_AFFINITY Zen SINGLE_THREADED
        Core in use  :  Zen
   Copyright (c) 2011-2014, The OpenBLAS Project




***************************************
The coordinates will be read from file: xtb_opt.xyz
***************************************


Your calculation utilizes the geometrical counterpoise correction gCP
Please cite in your paper:
H.Kruse, S. Grimme J.Chem.Phys., 136, (2012), 154101 
   

Your calculation utilizes the atom-pairwise dispersion correction
based on EEQ partial charges (D4)


Your calculation utilizes the SMD solvation module
Please cite in your paper:
A.V. Marenich, C.J. Cramer, D.G. Truhlar J. Phys. Chem. B, 113, (2009), 6378 

================================================================================

----- Orbital basis set information -----
Your calculation utilizes the basis: def2-mTZVPP
   Stefan Grimme, Andreas Hansen, Sebastian Ehlert, and Jan-Michael Mewes 
   J. Chem. Phys. 154, 064103 (2021). DOI: 10.1063/5.0040021

----- AuxJ basis set information -----
Your calculation utilizes the auxiliary basis: def2/J
   F. Weigend, Phys. Chem. Chem. Phys. 8, 1057 (2006).

================================================================================
                                        WARNINGS
                       Please study these warnings very carefully!
================================================================================

WARNING: Old DensityContainer found on disk!
         Will remove this file - 
         If you want to keep old densities, please start your calculation with a different basename. 



WARNING: SCAN, rSCAN, or r2SCAN functional requested.
  ===> : libXC variant has now been activated.



================================================================================
                                       INPUT FILE
================================================================================
NAME = xtb_opt.inp
|  1> ! r2scan-3c def2/J RI DEFGRID2 scfconv7 ENGRAD tightSCF miniprint
|  2> %cpcm
|  3>     smd true
|  4>     smdsolvent "water"
|  5> end
|  6> * xyzfile 0 1 xtb_opt.xyz
|  7> 
|  8>                          ****END OF INPUT****
================================================================================

                     *******************************
                     * Energy+Gradient Calculation *
                     *******************************

---------------------------------
CARTESIAN COORDINATES (ANGSTROEM)
---------------------------------
  C      2.309696    0.643645    0.747406
  C      2.259931   -0.482744   -0.281666
  C      0.886513   -1.149017   -0.418175
  C     -0.228605   -0.188534   -0.874239
  C     -1.143990    0.328086    0.248325
  C     -1.947820    1.536675   -0.229971
  C     -2.084952   -0.771639    0.742941
  H      3.318146    1.064910    0.819098
  H      1.630189    1.460889    0.482985
  H      2.026587    0.281227    1.742372
  H      2.999864   -1.247527   -0.013113
  H      2.561719   -0.090747   -1.262363
  H      0.977929   -1.978151   -1.129608
  H      0.613371   -1.602879    0.543794
  H      0.229279    0.670135   -1.384328
  H     -0.866673   -0.678570   -1.622203
  H     -0.513777    0.644952    1.090616
  H     -2.619101    1.905097    0.553620
  H     -1.288215    2.359950   -0.526019
  H     -2.562809    1.269681   -1.098675
  H     -2.767821   -1.076080   -0.060073
  H     -2.691705   -0.422207    1.585465
  H     -1.538035   -1.661027    1.073246

----------------------------
CARTESIAN COORDINATES (A.U.)
----------------------------
  NO LB      ZA    FRAG     MASS         X           Y           Z
   0 C     6.0000    0    12.011    4.364692    1.216313    1.412393
   1 C     6.0000    0    12.011    4.270651   -0.912253   -0.532271
   2 C     6.0000    0    12.011    1.675267   -2.171328   -0.790236
   3 C     6.0000    0    12.011   -0.432000   -0.356278   -1.652072
   4 C     6.0000    0    12.011   -2.161828    0.619992    0.469266
   5 C     6.0000    0    12.011   -3.680846    2.903895   -0.434582
   6 C     6.0000    0    12.011   -3.939989   -1.458186    1.403955
   7 H     1.0000    0     1.008    6.270387    2.012388    1.547871
   8 H     1.0000    0     1.008    3.080610    2.760681    0.912710
   9 H     1.0000    0     1.008    3.829694    0.531441    3.292605
  10 H     1.0000    0     1.008    5.668922   -2.357484   -0.024781
  11 H     1.0000    0     1.008    4.840947   -0.171487   -2.385520
  12 H     1.0000    0     1.008    1.848018   -3.738164   -2.134650
  13 H     1.0000    0     1.008    1.159103   -3.029003    1.027621
  14 H     1.0000    0     1.008    0.433275    1.266372   -2.616001
  15 H     1.0000    0     1.008   -1.637776   -1.282311   -3.065519
  16 H     1.0000    0     1.008   -0.970898    1.218784    2.060966
  17 H     1.0000    0     1.008   -4.949383    3.600111    1.046190
  18 H     1.0000    0     1.008   -2.434374    4.459659   -0.994033
  19 H     1.0000    0     1.008   -4.843007    2.399350   -2.076194
  20 H     1.0000    0     1.008   -5.230424   -2.033497   -0.113522
  21 H     1.0000    0     1.008   -5.086585   -0.797855    2.996095
  22 H     1.0000    0     1.008   -2.906465   -3.138886    2.028141

------------------------------------------------------------------------------
                   ___                                                        
                  /   \      - P O W E R E D   B Y -                         
                 /     \                                                     
                 |  |  |   _    _      __       _____    __    __             
                 |  |  |  | |  | |    /  \     |  _  \  |  |  /  |          
                  \  \/   | |  | |   /    \    | | | |  |  | /  /          
                 / \  \   | |__| |  /  /\  \   | |_| |  |  |/  /          
                |  |  |   |  __  | /  /__\  \  |    /   |      \           
                |  |  |   | |  | | |   __   |  |    \   |  |\   \          
                \     /   | |  | | |  |  |  |  | |\  \  |  | \   \       
                 \___/    |_|  |_| |__|  |__|  |_| \__\ |__|  \__/        
                                                                              
                      - O R C A' S   B I G   F R I E N D -                    
                                      &                                       
                       - I N T E G R A L  F E E D E R -                       
                                                                              
 v1 FN, 2020, v2 2021, v3 2022-2024                                           
------------------------------------------------------------------------------


----------------------
SHARK INTEGRAL PACKAGE
----------------------

Number of atoms                             ...     23
Number of basis functions                   ...    213
Number of shells                            ...    111
Maximum angular momentum                    ...      2
Integral batch strategy                     ... SHARK/LIBINT Hybrid
RI-J (if used) integral strategy            ... SPLIT-RIJ (Revised 2003 algorithm where possible)
Printlevel                                  ...      1
Contraction scheme used                     ... SEGMENTED contraction
Prescreening option                         ... SCHWARTZ
   Thresh                                   ... 3.000e-11
   Tcut                                     ... 1.000e-12
   Tpresel                                  ... 1.000e-12 
Coulomb Range Separation                    ... NOT USED
Exchange Range Separation                   ... NOT USED
Multipole approximations                    ... NOT USED
Finite Nucleus Model                        ... NOT USED
CABS basis                                  ... NOT available
Auxiliary Coulomb fitting basis             ... AVAILABLE
   # of basis functions in Aux-J            ...    519
   # of shells in Aux-J                     ...    185
   Maximum angular momentum in Aux-J        ...      4
Auxiliary J/K fitting basis                 ... NOT available
Auxiliary Correlation fitting basis         ... NOT available
Auxiliary 'external' fitting basis          ... NOT available

Checking pre-screening integrals            ... done (  0.0 sec) Dimension = 111
Check shell pair data                       ... done (  0.0 sec)
Shell pair information
Shell pair cut-off parameter TPreSel        ...   1.0e-12
Total number of shell pairs                 ...      6216
Shell pairs after pre-screening             ...      5689
Total number of primitive shell pairs       ...     21523
Primitive shell pairs kept                  ...     14295
          la=0 lb=0:   2082 shell pairs
          la=1 lb=0:   2266 shell pairs
          la=1 lb=1:    640 shell pairs
          la=2 lb=0:    431 shell pairs
          la=2 lb=1:    242 shell pairs
          la=2 lb=2:     28 shell pairs

Calculating one electron integrals          ... done (  0.0 sec)
Calculating RI/J V-Matrix + Cholesky decomp.... done (  0.0 sec)
Calculating Nuclear repulsion               ... done (  0.0 sec) ENN=    328.507696862749 Eh

Diagonalization of the overlap matrix:
Smallest eigenvalue                        ... 1.890e-04
Time for diagonalization                   ...    0.006 sec
Threshold for overlap eigenvalues          ... 1.000e-07
Number of eigenvalues below threshold      ... 0
Time for construction of square roots      ...    0.004 sec
Total time needed                          ...    0.012 sec

-------------------
DFT GRID GENERATION
-------------------

General Integration Accuracy     IntAcc      ... 4.388
Radial Grid Type                 RadialGrid  ... OptM3 with GC (2021)
Angular Grid (max. ang.)         AngularGrid ... 4 (Lebedev-302)
Angular grid pruning method      GridPruning ... 4 (adaptive)
Weight generation scheme         WeightScheme... mBecke (2022)
Basis function cutoff            BFCut       ... 1.0000e-11
Integration weight cutoff        WCut        ... 1.0000e-14
Partially contracted basis set               ... off
Rotationally invariant grid construction     ... off
Angular grids for H and He will be reduced by one unit

Total number of grid points                  ...    93000
Total number of batches                      ...     1465
Average number of points per batch           ...       63
Average number of grid points per atom       ...     4043
Initializing property integral containers    ... done (  0.0 sec)

SHARK setup successfully completed in   0.9 seconds

Maximum memory used throughout the entire STARTUP-calculation: 39.9 MB
Occupation numbers will be reassigned to an Aufbau configuration
             **** ENERGY FILE WAS UPDATED (xtb_opt.en.tmp) ****
Finished Guess after   0.1 sec
Maximum memory used throughout the entire GUESS-calculation: 15.7 MB
--------------------
CPCM SOLVATION MODEL
--------------------
CPCM parameters:
  Epsilon                                         ...      78.3550
  Refrac                                          ...       1.3328
  Rsolv                                           ...       1.3000
  Surface type                                    ... GAUSSIAN VDW
  Discretization scheme                           ... Constant charge density
    Threshold for H atoms                         ...       5.0000 (charges/Ang^2)
    Threshold for non-H atoms                     ...       5.0000 (charges/Ang^2)
  Epsilon function type                           ...         CPCM
Solvent:                                          ... WATER
SMD-CDS solvent descriptors:
  Soln                                            ...       1.3328
  Soln25                                          ...       1.3323
  Sola                                            ...       0.0000
  Solb                                            ...       0.0000
  Solg                                            ...       0.0000
  Solc                                            ...       0.0000
  Solh                                            ...       0.0000
Radii:
  Scheme                                          ... Element-dependent radii
  Radius for C  used is    3.4960 Bohr (=   1.8500 Ang.)
  Radius for H  used is    2.2677 Bohr (=   1.2000 Ang.)
Calculating surface                               ...        done! (  0.0s)
Cavity surface points                             ...         1693
Cavity Volume                                     ...     920.0530
Cavity Surface-area                               ...     598.1918
Calculating surface distance matrix               ...        done! (  0.0s)
Performing Cholesky decomposition & store         ...        done! (  0.1s)
Overall time for CPCM initialization              ...                 0.1s

----------------------------------------D-I-I-S--------------------------------------------
Iteration    Energy (Eh)           Delta-E    RMSDP     MaxDP     DIISErr   Damp  Time(sec)
-------------------------------------------------------------------------------------------
               ***  Starting incremental Fock matrix formation  ***
                              *** Initializing SOSCF ***
---------------------------------------S-O-S-C-F--------------------------------------
Iteration    Energy (Eh)           Delta-E    RMSDP     MaxDP     MaxGrad    Time(sec)
--------------------------------------------------------------------------------------
    1    -276.2917394031013032     0.00e+00  2.74e-06  4.45e-05  4.29e-06     2.5
               *** Restarting incremental Fock matrix formation ***
    2    -276.2917394143847218    -1.13e-08  2.49e-06  4.07e-05  1.21e-05     2.5
                  *** Gradient check signals convergence ***

               *****************************************************
               *                     SUCCESS                       *
               *           SCF CONVERGED AFTER   2 CYCLES          *
               *****************************************************


SMD CDS free energy correction energy :                 3.76415     Kcal/mol
Total Energy after SMD CDS correction =              -276.285740859 Eh
             **** ENERGY FILE WAS UPDATED (xtb_opt.en.tmp) ****

----------------
TOTAL SCF ENERGY
----------------

Total Energy       :       -276.28574085912641 Eh           -7518.11722 eV

Components:
Nuclear Repulsion  :        328.50769686274856 Eh            8939.14889 eV
Electronic Energy  :       -604.79694181140451 Eh          -16457.36146 eV
One Electron Energy:      -1021.25904585777710 Eh          -27789.87145 eV
Two Electron Energy:        416.46210404637259 Eh           11332.50998 eV
CPCM Dielectric    :         -0.00249446572879 Eh              -0.06788 eV
SMD CDS (Gcds)     :          0.00599855525833 Eh               0.16323 eV

Virial components:
Potential Energy   :       -551.06441244374571 Eh          -14995.22501 eV
Kinetic Energy     :        274.77867158461930 Eh            7477.10778 eV
Virial Ratio       :          2.00548466613444

DFT components:
N(Alpha)           :       29.000090163444 electrons
N(Beta)            :       29.000090163444 electrons
N(Total)           :       58.000180326888 electrons
E(X)               :      -42.087709511056 Eh       
E(C)               :       -1.778138101959 Eh       
E(XC)              :      -43.865847613014 Eh       

CPCM Solvation Model Properties:
Surface-charge          :         -0.05279685321974
Corrected charge        :          0.00000000000000
Outlying charge corr.   :          0.00021174048920 Eh               0.00576 eV
Free-energy (cav+disp)  :          0.00599855525833 Eh               0.16323 eV

---------------
SCF CONVERGENCE
---------------

  Last Energy change         ...    1.1283e-08  Tolerance :   1.0000e-07
  Last MAX-Density change    ...    4.0697e-05  Tolerance :   1.0000e-07
  Last RMS-Density change    ...    2.4921e-06  Tolerance :   5.0000e-09
  Last DIIS Error            ...    5.8351e-05  Tolerance :   1.0000e-07
  Last Orbital Gradient      ...    1.2133e-05  Tolerance :   1.0000e-04
  Last Orbital Rotation      ...    1.8881e-05  Tolerance :   1.0000e-04


----------------
ORBITAL ENERGIES
----------------

  NO   OCC          E(Eh)            E(eV) 
   0   2.0000     -10.024062      -272.7686 
   1   2.0000     -10.017058      -272.5780 
   2   2.0000     -10.014448      -272.5070 
   3   2.0000     -10.012907      -272.4651 
   4   2.0000     -10.009222      -272.3648 
   5   2.0000     -10.008208      -272.3372 
   6   2.0000     -10.007679      -272.3228 
   7   2.0000      -0.772132       -21.0108 
   8   2.0000      -0.734036       -19.9741 
   9   2.0000      -0.666681       -18.1413 
  10   2.0000      -0.638844       -17.3838 
  11   2.0000      -0.600358       -16.3366 
  12   2.0000      -0.531751       -14.4697 
  13   2.0000      -0.512086       -13.9346 
  14   2.0000      -0.432782       -11.7766 
  15   2.0000      -0.412286       -11.2189 
  16   2.0000      -0.394332       -10.7303 
  17   2.0000      -0.389735       -10.6052 
  18   2.0000      -0.379361       -10.3229 
  19   2.0000      -0.349474        -9.5097 
  20   2.0000      -0.342291        -9.3142 
  21   2.0000      -0.333548        -9.0763 
  22   2.0000      -0.322401        -8.7730 
  23   2.0000      -0.310501        -8.4492 
  24   2.0000      -0.296568        -8.0700 
  25   2.0000      -0.291198        -7.9239 
  26   2.0000      -0.274572        -7.4715 
  27   2.0000      -0.267881        -7.2894 
  28   2.0000      -0.267137        -7.2692 
  29   0.0000       0.091816         2.4984 
  30   0.0000       0.106236         2.8908 
  31   0.0000       0.116300         3.1647 
  32   0.0000       0.121627         3.3096 
  33   0.0000       0.130417         3.5488 
  34   0.0000       0.140273         3.8170 
  35   0.0000       0.142242         3.8706 
  36   0.0000       0.152552         4.1512 
  37   0.0000       0.155613         4.2345 
  38   0.0000       0.164521         4.4768 
  39   0.0000       0.167757         4.5649 
*Only the first 10 virtual orbitals were printed.
Total SCF time: 0 days 0 hours 0 min 5 sec 
Finished LeanSCF after   5.7 sec

Maximum memory used throughout the entire LEANSCF-calculation: 35.8 MB


-------------------------------------------------------------------------------
                          DFT DISPERSION CORRECTION                            
                                                                               
                                DFTD4 V3.4.0                                   
-------------------------------------------------------------------------------
-------------------------   ----------------
Dispersion correction           -0.006257833
-------------------------   ----------------

------------------   -----------------
gCP correction             0.010714482
------------------   -----------------

-------------------------   --------------------
FINAL SINGLE POINT ENERGY      -276.281284209932
-------------------------   --------------------

------------------------------------------------------------------------------
                         ORCA SCF GRADIENT CALCULATION
------------------------------------------------------------------------------

Nuc. rep. gradient        (SHARK) ... done (  0.0 sec)
HCore & Overlap gradient  (SHARK) ... done (  0.3 sec)
Split-RIJ-J gradient      (SHARK) ... done (  1.3 sec)
XC gradient                       ... done (  6.4 sec)
CPCM gradient                     ... done (  1.8 sec)
SMD gradient                      ... done (  0.0 sec)
Dispersion correction             ... done (  0.0 sec)

-------------------
DISPERSION GRADIENT
-------------------

   1   C   :    0.000102271    0.000037969    0.000043565
   2   C   :    0.000099038   -0.000021700   -0.000015868
   3   C   :    0.000050344   -0.000068298   -0.000025322
   4   C   :   -0.000014793   -0.000011657   -0.000056348
   5   C   :   -0.000068228    0.000016712    0.000011255
   6   C   :   -0.000084033    0.000078694   -0.000015604
   7   C   :   -0.000095080   -0.000044197    0.000040796
   8   H   :    0.000036618    0.000016421    0.000014736
   9   H   :    0.000050610    0.000023411    0.000015075
  10   H   :    0.000047741    0.000011012    0.000030213
  11   H   :    0.000034087   -0.000012286    0.000000298
  12   H   :    0.000037139   -0.000004283   -0.000012383
  13   H   :    0.000021620   -0.000036717   -0.000025310
  14   H   :    0.000018823   -0.000031568   -0.000000343
  15   H   :    0.000002303    0.000006542   -0.000030106
  16   H   :   -0.000014458   -0.000015030   -0.000031579
  17   H   :   -0.000027358    0.000011441    0.000014550
  18   H   :   -0.000028315    0.000030422    0.000004584
  19   H   :   -0.000030502    0.000046530   -0.000010280
  20   H   :   -0.000028543    0.000026256   -0.000011437
  21   H   :   -0.000037026   -0.000016971    0.000009086
  22   H   :   -0.000035083   -0.000011688    0.000026239
  23   H   :   -0.000037173   -0.000031017    0.000024182

Difference to translation invariance:
           :   -0.0000000000    0.0000000000   -0.0000000000

Difference to rotation invariance:
           :    0.0000000000    0.0000000000    0.0000000000

Norm of the Dispersion gradient    ...    0.0003144097
RMS gradient                       ...    0.0000378505
MAX gradient                       ...    0.0001022708
gCP correction                   ... done

------------------
CARTESIAN GRADIENT
------------------

   1   C   :    0.000102603   -0.000102759   -0.000050888
   2   C   :   -0.000170283    0.000214501    0.000100061
   3   C   :    0.000042996   -0.000152077   -0.000040637
   4   C   :    0.000052785   -0.000116363    0.000020868
   5   C   :   -0.000122670    0.000206051    0.000079756
   6   C   :   -0.000034682   -0.000056060    0.000035595
   7   C   :    0.000033496   -0.000014760   -0.000139406
   8   H   :   -0.000021621    0.000014471   -0.000018394
   9   H   :   -0.000000234   -0.000064160    0.000014758
  10   H   :    0.000074350    0.000006412   -0.000017853
  11   H   :   -0.000023126   -0.000025805    0.000007581
  12   H   :    0.000023902   -0.000005118   -0.000009285
  13   H   :   -0.000007714   -0.000001964   -0.000010197
  14   H   :   -0.000011787    0.000024168   -0.000078890
  15   H   :   -0.000045099    0.000001375    0.000094706
  16   H   :    0.000067014    0.000004953    0.000020404
  17   H   :   -0.000014980   -0.000004244   -0.000021476
  18   H   :    0.000010115    0.000016989   -0.000031709
  19   H   :    0.000023221   -0.000034267    0.000024008
  20   H   :    0.000029519    0.000040141    0.000010117
  21   H   :   -0.000024227    0.000003928    0.000066844
  22   H   :    0.000054402    0.000016708   -0.000034879
  23   H   :   -0.000037983    0.000027881   -0.000021083

Difference to translation invariance:
           :   -0.0000000000    0.0000000000    0.0000000000

Difference to rotation invariance:
           :    0.0003542076    0.0000840604   -0.0007592242

Norm of the Cartesian gradient     ...    0.0005456483
RMS gradient                       ...    0.0000656883
MAX gradient                       ...    0.0002145007

-------
TIMINGS
-------

Total SCF gradient time     ....        9.802 sec

Densities                   ....       0.001 sec  (  0.0%)
One electron gradient       ....       0.291 sec  (  3.0%)
RI-J Coulomb gradient       ....       1.323 sec  ( 13.5%)
XC gradient                 ....       6.367 sec  ( 65.0%)
CPCM gradient               ....       1.779 sec  ( 18.1%)
   A-Matrix (El+Nuc)        ....       0.110 sec  (  1.1%)
   Potential                ....       1.668 sec  ( 17.0%)
SMD gradient                ....       0.002 sec  (  0.0%)

Maximum memory used throughout the entire SCFGRAD-calculation: 35.9 MB

------------------------------------------------------------------------------
                              ORCA PROPERTY CALCULATIONS
------------------------------------------------------------------------------

GBWName                                 ... xtb_opt.gbw
Number of atoms                         ...     23
Number of basis functions               ...    213
Max core memory                         ...   1024 MB

Electric properties:
Dipole moment                           ... YES
Quadrupole moment                       ...  NO
Static polarizability (Dipole/Dipole)   ...  NO
Static polarizability (Dipole/Quad.)    ...  NO
Static polarizability (Quad./Quad.)     ...  NO
Static polarizability (Velocity)        ...  NO

Atomic electric properties:
Dipole moment                           ...  NO
Quadrupole moment                       ...  NO
Static polarizability                   ...  NO

Choice of electric origin               ... Center of mass
Position of electric origin             ...     0.002166    -0.001818     0.000300

General magnetic properties:
Magnetizability                         ...  NO

EPR properties:
g-Tensor (aka g-matrix)                 ...  NO
Zero-Field splitting spin-orbit         ...  NO
Zero-field splitting spin-spin          ...  NO
Hyperfine couplings                     ...  NO (   0 nuclei)
Quadrupole couplings                    ...  NO (   0 nuclei)
Contact density                         ...  NO (   0 nuclei)

NMR properties:
Chemical shifts                         ...  NO (   0 nuclei)
Spin-rotation constants                 ...  NO (   0 nuclei)
Spin-spin couplings                     ...  NO (   0 nuclei,    0 pairs)

Choice of magnetic origin               ... GIAO
Position of magnetic origin             ...     0.000000     0.000000     0.000000

Properties with geometric perturbations:
SCF Hessian                             ...  NO
IR spectrum                             ...  NO
VCD spectrum                            ...  NO
X-ray spectroscopy properties:
SCF XES/XAS/RIXS spectra                ...  NO


-------------
DIPOLE MOMENT
-------------

Method             : SCF
Type of density    : Electron Density
Multiplicity       :   1
Irrep              :   0
Energy             :  -276.2857408591264061 Eh
Relativity type    : 
Basis              : AO
                                X                 Y                 Z
Electronic contribution:      0.534269764      -0.875967512      -0.736969515
Nuclear contribution   :     -0.477900326       0.858474760       0.743290941
                        -----------------------------------------
Total Dipole Moment    :      0.056369438      -0.017492752       0.006321425
                        -----------------------------------------
Magnitude (a.u.)       :      0.059358827
Magnitude (Debye)      :      0.150878147



--------------------
Rotational spectrum 
--------------------
 
Rotational constants in cm-1:             0.130311             0.045924             0.041416 
Rotational constants in MHz :          3906.625837          1376.778781          1241.613433 

Dipole components along the rotational axes: 
x,y,z [a.u.] :     0.058093    -0.008508    -0.008737 
x,y,z [Debye]:     0.147660    -0.021625    -0.022207 

 

Dipole moment calculation done in   0.1 sec 

Maximum memory used throughout the entire PROP-calculation: 14.4 MB

--------------------------------
SUGGESTED CITATIONS FOR THIS RUN
--------------------------------

Below you find a list of papers that are relevant to this ORCA run
We neither can nor want to force you to cite these papers, but we appreciate if you do
You receive ORCA, which is the product of decades of hard work by many enthusiastic individuals, for free
The only thing we kindly ask in return is that you cite our papers,
We deeply appreciate it, if you show your appreciation for ORCA by not just citing the generic ORCA reference.

Please note that relegating all ORCA citations to the supporting information does *not* help us.
SI sections are not indexed - citations you put there will not count into any citation statistics
But we need these citations in order to attract the funding resources that allow us to do what we are doing

Therefore, if you are a happy ORCA user, please consider citing a few of the papers listed below in the main body of your paper

In addition to the list printed below, the program has created the file xtb_opt.bibtex that contains the list in bibtex format
You can import this file easily into all common literature databanks and citation aid programs


List of essential papers. We consider these as the minimum necessary citations

  1. Neese,F.
     Software update: the ORCA program system, version 5.0
     WIRES Comput. Molec. Sci., 2022 12(1)e1606
     doi.org/10.1002/wcms.1606
  2. Grimme,S.; Hansen,A.; Ehlert,S.; Mewes,J.
     r2SCAN-3c: A 'Swiss army knife' composite electronic-structure method
     J. Chem. Phys., 2021 154 064103
     doi.org/10.1063/5.0040021

List of papers to cite with high priority. The work reported in these papers was absolutely
necessary for this run to complete.
Our perspective: the developers of density functionals and basis sets usually get cited in chemistry papers
Good! But without the algorithms to do something with them, the functionals or basis sets would not do anything.
Hence, in our opinion, the algorithm design and method developments papers are equally worthy of getting cited

  1. Neese,F.
     An improvement of the resolution of the identity approximation for the formation of the Coulomb matrix
     J. Comp. Chem., 2003 24(14)1740-1747
     doi.org/10.1002/jcc.10318
  2. Garcia-Rates,M.; Neese,F.
     Effect of the Solute Cavity on the Solvation Energy and its Derivatives within the Framework of the Gaussian Charge Scheme
     J. Comput. Chem., 2020 41 922-939
     doi.org/10.1002/jcc.26139
  3. Neese,F.
     The SHARK Integral Generation and Digestion System
     J. Comp. Chem., 2022  1-16
     doi.org/10.1002/jcc.26942
  4. Lehtola,S.; Steigemann,C.; Oliveira,M.; Marques,M.
     Recent developments in Libxc - A comprehensive library of functionals for density functional theory
     Software X, 2018 7 
     doi.org/10.1016/j.softx.2017.11.002
  5. Caldeweyher,E.; Bannwarth,C.; Grimme,S.
     Extension of the D3 dispersion coefficient model
     J. Chem. Phys., 2017 147 034112
     doi.org/10.1063/1.4993215
  6. Caldeweyher,E.; Ehlert,S.; Hansen,A.; Neugebauer,H.; Spicher,S.; Bannwarth,C.; Grimme,S.
     A generally applicable atomic-charge dependent London dispersion correction
     J. Chem. Phys., 2019 150 154122
     doi.org/10.1063/1.5090222
  7. Caldeweyher,E.; Mewes,J.; Ehlert,S.; Grimme,S.
     Extension and evaluation of the D4 London-dispersion model for periodic systems
     Phys. Chem. Chem. Phys., 2020 22(16)8499-8512
     doi.org/10.1039/D0CP00502A
  8. Wittmann,L.; Gordiy,I.; Friede,M.; Helmich-Paris,B.; Grimme,S.; Hansen,A.; Bursch,M.
     Extension of the D3 and D4 London Dispersion Corrections to the full Actinides Series
     Phys. Chem. Chem. Phys., 2024 26(32)21379-21394
     doi.org/https://doi.org/10.1039/D4CP01514B 

List of suggested additional citations. These are papers that are important in the 'surrounding' of 
of this run, or papers that preceded the highly important papers. If you like your results we are grateful for a citation.

  1. Neese,F.
     The ORCA program system
     WIRES Comput. Molec. Sci., 2012 2(1)73-78
     doi.org/10.1002/wcms.81
  2. Neese,F.
     Software update: the ORCA program system, version 4.0
     WIRES Comput. Molec. Sci., 2018 8(1)1-6
     doi.org/10.1002/wcms.1327
  3. Neese,F.; Wennmohs,F.; Becker,U.; Riplinger,C.
     The ORCA quantum chemistry program package
     J. Chem. Phys., 2020 152 Art. No. L224108
     doi.org/10.1063/5.0004608

List of optional additional citations

  1. Neese,F.
     Approximate second-order SCF convergence for spin unrestricted wavefunctions
     Chem. Phys. Lett., 2000 325(1-3)93-98
     doi.org/10.1016/s0009-2614(00)00662-x

Timings for individual modules:

Sum of individual times          ...       16.957 sec (=   0.283 min)
Startup calculation              ...        0.951 sec (=   0.016 min)   5.6 %
SCF iterations                   ...        5.855 sec (=   0.098 min)  34.5 %
Property calculations            ...        0.137 sec (=   0.002 min)   0.8 %
SCF Gradient evaluation          ...       10.014 sec (=   0.167 min)  59.1 %
                             ****ORCA TERMINATED NORMALLY****
TOTAL RUN TIME: 0 days 0 hours 0 minutes 17 seconds 224 msec
  ------------------------------------------------------------------------
          * successful ORCA run, taking over control again...

         :::::::::::::::::::::::::::::::::::::::::::::::::::::
         ::                  ORCA SUMMARY                   ::
         :::::::::::::::::::::::::::::::::::::::::::::::::::::
         :: total energy            -276.281284209932 Eh    ::
         :: gradient norm              0.000545648343 Eh/a0 ::
         :: HOMO-LUMO gap              0.000000000000 eV    ::
         :::::::::::::::::::::::::::::::::::::::::::::::::::::

           -------------------------------------------------
          |                Property Printout                |
           -------------------------------------------------
           -------------------------------------------------
          |                Geometry Summary                 |
           -------------------------------------------------

      molecular mass/u    :      100.2022033
   center of mass at/Å    :        0.0011464      -0.0009624       0.0001586
  moments of inertia/u·Å² :        0.1293602E+03   0.3670626E+03   0.4070221E+03
rotational constants/cm⁻¹ :        0.1303155E+00   0.4592577E-01   0.4141700E-01

 * 21 selected distances

     #   Z          #   Z                                           value/Å
     1   6 C        2   6 C                                       1.5265050
     2   6 C        3   6 C                                       1.5325898
     4   6 C        5   6 C                                       1.5378481 (max)
     5   6 C        6   6 C                                       1.5282660
     5   6 C        7   6 C                                       1.5295256
     1   6 C        8   1 H                                       1.0952513
     1   6 C        9   1 H                                       1.0952336
     1   6 C       10   1 H                                       1.0961086
     2   6 C       11   1 H                                       1.0975041
     2   6 C       12   1 H                                       1.0984099
     3   6 C       13   1 H                                       1.0963384
     3   6 C       14   1 H                                       1.0981718
     4   6 C       15   1 H                                       1.0987090
     4   6 C       16   1 H                                       1.0985068
     5   6 C       17   1 H                                       1.0986483
     6   6 C       18   1 H                                       1.0956125
     6   6 C       19   1 H                                       1.0956756
     6   6 C       20   1 H                                       1.0973351
     7   6 C       21   1 H                                       1.0971905
     7   6 C       22   1 H                                       1.0954904
     7   6 C       23   1 H                                       1.0950939 (min)

 * 2 distinct bonds (by element types)

   Z      Z             #   av. dist./Å        max./Å        min./Å
   1 H    6 C          16     1.0968300     1.0987090     1.0950939
   6 C    6 C           5     1.5309469     1.5378481     1.5265050


optimized geometry written to: xtbopt.coord


           -------------------------------------------------
          | TOTAL ENERGY             -276.281284209932 Eh   |
          | GRADIENT NORM               0.000545648343 Eh/α |
           -------------------------------------------------

------------------------------------------------------------------------
 * finished run on 2025/04/11 at 14:17:18.123     
------------------------------------------------------------------------
 total:
 * wall-time:     0 d,  0 h,  2 min, 36.473 sec
 *  cpu-time:     0 d,  0 h,  0 min, 14.207 sec
 * ratio c/w:     0.091 speedup
 SCF:
 * wall-time:     0 d,  0 h,  0 min, 19.924 sec
 *  cpu-time:     0 d,  0 h,  0 min,  4.723 sec
 * ratio c/w:     0.237 speedup
 ANC optimizer:
 * wall-time:     0 d,  0 h,  2 min, 15.382 sec
 *  cpu-time:     0 d,  0 h,  0 min,  5.198 sec
 * ratio c/w:     0.038 speedup

