      -----------------------------------------------------------      
     |                   =====================                   |     
     |                           x T B                           |     
     |                   =====================                   |     
     |                         S. Grimme                         |     
     |          Mulliken Center for Theoretical Chemistry        |     
     |                    University of Bonn                     |     
      -----------------------------------------------------------      

   * xtb version 6.7.1 (edcfbbe) compiled by 'albert@albert-system' on 2024-07-22

   xtb is free software: you can redistribute it and/or modify it under
   the terms of the GNU Lesser General Public License as published by
   the Free Software Foundation, either version 3 of the License, or
   (at your option) any later version.
   
   xtb is distributed in the hope that it will be useful,
   but WITHOUT ANY WARRANTY; without even the implied warranty of
   MERCHANTABILITY or FITNESS FOR A PARTICULAR PURPOSE.  See the
   GNU Lesser General Public License for more details.
   
   Cite this work as:
   * C. Bannwarth, E. Caldeweyher, S. Ehlert, A. Hansen, P. Pracht,
     J. Seibert, S. Spicher, S. Grimme, WIREs Comput. Mol. Sci., 2020, 11,
     e01493. DOI: 10.1002/wcms.1493
   
   for GFN2-xTB:
   * C. Bannwarth, S. Ehlert and S. Grimme., J. Chem. Theory Comput., 2019,
     15, 1652-1671. DOI: 10.1021/acs.jctc.8b01176
   for GFN1-xTB:
   * S. Grimme, C. Bannwarth, P. Shushkov, J. Chem. Theory Comput., 2017,
     13, 1989-2009. DOI: 10.1021/acs.jctc.7b00118
   for GFN0-xTB:
   * P. Pracht, E. Caldeweyher, S. Ehlert, S. Grimme, ChemRxiv, 2019, preprint.
     DOI: 10.26434/chemrxiv.8326202.v1
   for GFN-FF:
   * S. Spicher and S. Grimme, Angew. Chem. Int. Ed., 2020, 59, 15665-15673.
     DOI: 10.1002/anie.202004239
   
   for ALPB and GBSA implicit solvation:
   * S. Ehlert, M. Stahn, S. Spicher, S. Grimme, J. Chem. Theory Comput.,
     2021, 17, 4250-4261. DOI: 10.1021/acs.jctc.1c00471
   
   for ddCOSMO and CPCM-X implicit solvation:
   * M. Stahn, S. Ehlert, S. Grimme, J. Phys. Chem. A,
     2023, XX, XXXX-XXXX. DOI: 10.1021/acs.jpca.3c04382
   
   for DFT-D4:
   * E. Caldeweyher, C. Bannwarth and S. Grimme, J. Chem. Phys., 2017,
     147, 034112. DOI: 10.1063/1.4993215
   * E. Caldeweyher, S. Ehlert, A. Hansen, H. Neugebauer, S. Spicher,
     C. Bannwarth and S. Grimme, J. Chem. Phys., 2019, 150, 154122.
     DOI: 10.1063/1.5090222
   * E. Caldeweyher, J.-M. Mewes, S. Ehlert and S. Grimme, Phys. Chem. Chem. Phys.
     2020, 22, 8499-8512. DOI: 10.1039/D0CP00502A
   
   for sTDA-xTB:
   * S. Grimme and C. Bannwarth, J. Chem. Phys., 2016, 145, 054103.
     DOI: 10.1063/1.4959605
   
   in the mass-spec context:
   * V. Asgeirsson, C. Bauer and S. Grimme, Chem. Sci., 2017, 8, 4879.
     DOI: 10.1039/c7sc00601b
   * J. Koopman and S. Grimme, ACS Omega 2019, 4, 12, 15120-15133.
     DOI: 10.1021/acsomega.9b02011
   
   for metadynamics refer to:
   * S. Grimme, J. Chem. Theory Comput., 2019, 155, 2847-2862
     DOI: 10.1021/acs.jctc.9b00143
   
   for SPH calculations refer to:
   * S. Spicher and S. Grimme, J. Chem. Theory Comput., 2021, 17, 1701-1714
     DOI: 10.1021/acs.jctc.0c01306
   
   for ONIOM refer to:
   * C. Plett, A. Katbashev, S. Ehlert, S. Grimme, M. Bursch,
     Phys. Chem. Chem. Phys., 2023, 25, 17860-17868. DOI: 10.1039/D3CP02178E
   
   for DIPRO refer to:
   * J. Kohn, N. Gildemeister, S. Grimme, D. Fazzi, A. Hansen,
     J. Chem. Phys., 2023, just accepted.
   
   for PTB refer to:
   * S. Grimme, M. Mueller, A. Hansen, J. Chem. Phys., 2023, 158, 124111.
     DOI: 10.1063/5.0137838
   
   with help from (in alphabetical order)
   P. Atkinson, C. Bannwarth, F. Bohle, G. Brandenburg, E. Caldeweyher
   M. Checinski, S. Dohm, S. Ehlert, S. Ehrlich, I. Gerasimov, C. Hölzer
   A. Katbashev, J. Kohn, J. Koopman, C. Lavigne, S. Lehtola, F. März, M. Müller,
   F. Musil, H. Neugebauer, J. Pisarek, C. Plett, P. Pracht, F. Pultar,
   J. Seibert, P. Shushkov, S. Spicher, M. Stahn, M. Steiner, T. Strunk,
   J. Stückrath, T. Rose, and J. Unsleber
   
 * started run on 2025/04/11 at 16:13:46.887     
   ID    Z sym.   atoms
    1    6 C      1, 2, 4
    2    8 O      3, 5, 7, 8
    3    7 N      6
    4    1 H      9-13

           -------------------------------------------------
          |                Calculation Setup                |
           -------------------------------------------------

          program call               : /srv/scratch/z5358697/.xtb/bin/xtb solv.coord --gfn2 --sp --chrg 0 --norestart --parallel 1 --alpb water reference -I xtb_sp-xcontrol-inp
          hostname                   : k119
          coordinate file            : solv.coord
          omp threads                :                     1


           -------------------------------------------------
          |                 G F N 2 - x T B                 |
           -------------------------------------------------

        Reference                      10.1021/acs.jctc.8b01176
      * Hamiltonian:
        H0-scaling (s, p, d)           1.850000    2.230000    2.230000
        zeta-weighting                 0.500000
      * Dispersion:
        s8                             2.700000
        a1                             0.520000
        a2                             5.000000
        s9                             5.000000
      * Repulsion:
        kExp                           1.500000    1.000000
        rExp                           1.000000
      * Coulomb:
        alpha                          2.000000
        third order                    shell-resolved
        anisotropic                    true
        a3                             3.000000
        a5                             4.000000
        cn-shift                       1.200000
        cn-exp                         4.000000
        max-rad                        5.000000

      * Solvation model:               ALPB
        Solvent                        water
        Parameter file                 internal GFN2-xTB/ALPB
        Dielectric constant                8.0200E+01
        Reference state                gsolv=reference [X=1]
        Free energy shift                  2.8945E-03 Eh       1.8164E+00 kcal/mol
        Temperature                        2.9815E+02 K
        Density                            1.0000E+00 kg/L
        Solvent mass                       1.8000E+01 g/mol
        Interaction kernel             P16
        Born radius scaling (c1)           1.4744E+00
        Born radii integrator          GBOBC
        Born offset                        0.0000E+00 a0       0.0000E+00 AA
        H-bond correction              true
        Ion screening                  false
        Surface tension                    1.0000E-05 Eh       1.5569E+01 dyn/cm
        Grid points                               974 per atom

          ...................................................
          :                      SETUP                      :
          :.................................................:
          :  # basis functions                  37          :
          :  # atomic orbitals                  37          :
          :  # shells                           21          :
          :  # electrons                        46          :
          :  max. iterations                   250          :
          :  Hamiltonian                  GFN2-xTB          :
          :  restarted?                      false          :
          :  GBSA solvation                   true          :
          :  PC potential                    false          :
          :  electronic temp.          300.0000000     K    :
          :  accuracy                    1.0000000          :
          :  -> integral cutoff          0.2500000E+02      :
          :  -> integral neglect         0.1000000E-07      :
          :  -> SCF convergence          0.1000000E-05 Eh   :
          :  -> wf. convergence          0.1000000E-03 e    :
          :  Broyden damping             0.4000000          :
          :  net charge                          0          :
          :  unpaired electrons                  0          :
          ...................................................

 iter      E             dE          RMSdq      gap      omega  full diag
   1    -28.1001271 -0.281001E+02  0.662E+00    4.81       0.0  T
   2    -28.2312436 -0.131117E+00  0.275E+00    3.73       1.0  T
   3    -28.2381575 -0.691386E-02  0.149E+00    3.19       1.0  T
   4    -28.2398879 -0.173041E-02  0.631E-01    2.95       1.0  T
   5    -28.2406477 -0.759766E-03  0.818E-02    2.90       1.0  T
   6    -28.2406540 -0.630319E-05  0.328E-02    2.92       1.0  T
   7    -28.2406560 -0.198446E-05  0.957E-03    2.93       2.9  T
   8    -28.2406560 -0.806201E-07  0.352E-03    2.93       7.9  T
   9    -28.2406561 -0.218566E-07  0.131E-03    2.93      21.2  T
  10    -28.2406561 -0.720938E-09  0.411E-04    2.93      67.4  T
  11    -28.2406561 -0.628454E-09  0.121E-04    2.93     229.8  T

   *** convergence criteria satisfied after 11 iterations ***

         #    Occupation            Energy/Eh            Energy/eV
      -------------------------------------------------------------
         1        2.0000           -0.8284510             -22.5433
       ...           ...                  ...                  ...
        17        2.0000           -0.5122691             -13.9396
        18        2.0000           -0.5019587             -13.6590
        19        2.0000           -0.4950149             -13.4700
        20        2.0000           -0.4809491             -13.0873
        21        2.0000           -0.4749217             -12.9233
        22        2.0000           -0.4726774             -12.8622
        23        2.0000           -0.4215927             -11.4721 (HOMO)
        24                         -0.3140714              -8.5463 (LUMO)
        25                         -0.2700655              -7.3489
        26                         -0.1033430              -2.8121
        27                          0.0302793               0.8239
        28                          0.0687646               1.8712
       ...                                ...                  ...
        37                          0.5942969              16.1716
      -------------------------------------------------------------
                  HL-Gap            0.1075214 Eh            2.9258 eV
             Fermi-level           -0.3678321 Eh          -10.0092 eV

 SCC (total)                   0 d,  0 h,  0 min,  0.012 sec
 SCC setup                      ...        0 min,  0.001 sec (  6.225%)
 Dispersion                     ...        0 min,  0.000 sec (  0.484%)
 classical contributions        ...        0 min,  0.000 sec (  0.121%)
 integral evaluation            ...        0 min,  0.001 sec (  9.089%)
 iterations                     ...        0 min,  0.007 sec ( 59.254%)
 molecular gradient             ...        0 min,  0.003 sec ( 23.469%)
 printout                       ...        0 min,  0.000 sec (  1.240%)

         :::::::::::::::::::::::::::::::::::::::::::::::::::::
         ::                     SUMMARY                     ::
         :::::::::::::::::::::::::::::::::::::::::::::::::::::
         :: total energy             -28.033794508221 Eh    ::
         :: total w/o Gsasa/hb       -28.038740998059 Eh    ::
         :: gradient norm              0.000138366058 Eh/a0 ::
         :: HOMO-LUMO gap              2.925805106939 eV    ::
         ::.................................................::
         :: SCC energy               -28.240642867365 Eh    ::
         :: -> isotropic ES            0.101062244384 Eh    ::
         :: -> anisotropic ES          0.019230690015 Eh    ::
         :: -> anisotropic XC         -0.004361914534 Eh    ::
         :: -> dispersion             -0.007407094925 Eh    ::
         :: -> Gsolv                  -0.009843408283 Eh    ::
         ::    -> Gelec               -0.014789898121 Eh    ::
         ::    -> Gsasa                0.006467959674 Eh    ::
         ::    -> Ghb                 -0.004416018996 Eh    ::
         ::    -> Gshift               0.002894549160 Eh    ::
         :: repulsion energy           0.206848359144 Eh    ::
         :: add. restraining           0.000000000000 Eh    ::
         :: total charge              -0.000000000000 e     ::
         :::::::::::::::::::::::::::::::::::::::::::::::::::::

           -------------------------------------------------
          |                Property Printout                |
           -------------------------------------------------

    * Orbital Energies and Occupations

         #    Occupation            Energy/Eh            Energy/eV
      -------------------------------------------------------------
         1        2.0000           -0.8284510             -22.5433
       ...           ...                  ...                  ...
        11        2.0000           -0.5983970             -16.2832
        12        2.0000           -0.5846260             -15.9085
        13        2.0000           -0.5694344             -15.4951
        14        2.0000           -0.5534530             -15.0602
        15        2.0000           -0.5319472             -14.4750
        16        2.0000           -0.5225018             -14.2180
        17        2.0000           -0.5122691             -13.9396
        18        2.0000           -0.5019587             -13.6590
        19        2.0000           -0.4950149             -13.4700
        20        2.0000           -0.4809491             -13.0873
        21        2.0000           -0.4749217             -12.9233
        22        2.0000           -0.4726774             -12.8622
        23        2.0000           -0.4215927             -11.4721 (HOMO)
        24                         -0.3140714              -8.5463 (LUMO)
        25                         -0.2700655              -7.3489
        26                         -0.1033430              -2.8121
        27                          0.0302793               0.8239
        28                          0.0687646               1.8712
        29                          0.1444661               3.9311
        30                          0.1706043               4.6424
        31                          0.1796993               4.8899
        32                          0.1874357               5.1004
        33                          0.2198290               5.9819
        34                          0.2279938               6.2040
       ...                                ...                  ...
        37                          0.5942969              16.1716
      -------------------------------------------------------------
                  HL-Gap            0.1075214 Eh            2.9258 eV
             Fermi-level           -0.3678321 Eh          -10.0092 eV

     #   Z          covCN         q      C6AA      α(0)
     1   6 C        3.755    -0.171    23.879     6.968
     2   6 C        2.809     0.258    22.666     7.800
     3   8 O        0.857    -0.408    21.832     6.265
     4   6 C        3.682     0.028    20.313     6.454
     5   8 O        1.769    -0.242    18.001     5.729
     6   7 N        2.771     0.782    11.246     4.981
     7   8 O        0.925    -0.419    22.024     6.294
     8   8 O        0.927    -0.408    21.800     6.262
     9   1 H        0.925     0.096     1.823     2.111
    10   1 H        0.925     0.117     1.639     2.002
    11   1 H        0.925     0.121     1.605     1.981
    12   1 H        0.924     0.123     1.590     1.972
    13   1 H        0.924     0.123     1.590     1.972

 Mol. C6AA /au·bohr⁶  :       1770.884354
 Mol. C8AA /au·bohr⁸  :      38325.881674
 Mol. α(0) /au        :         60.790333


Wiberg/Mayer (AO) data.
largest (>0.10) Wiberg bond orders for each atom

 ---------------------------------------------------------------------------
     #   Z sym  total        # sym  WBO       # sym  WBO       # sym  WBO
 ---------------------------------------------------------------------------
     1   6 C    3.982 --     2 C    1.043     9 H    0.977    11 H    0.937
                            10 H    0.937
     2   6 C    3.911 --     3 O    1.819     1 C    1.043     4 C    0.967
     3   8 O    2.042 --     2 C    1.819
     4   6 C    3.897 --     2 C    0.967     5 O    0.944    12 H    0.933
                            13 H    0.931
     5   8 O    2.258 --     6 N    0.979     4 C    0.944     7 O    0.158
                             8 O    0.147
     6   7 N    3.964 --     8 O    1.477     7 O    1.469     5 O    0.979
     7   8 O    1.948 --     6 N    1.469     8 O    0.299     5 O    0.158
     8   8 O    1.954 --     6 N    1.477     7 O    0.299     5 O    0.147
     9   1 H    0.991 --     1 C    0.977
    10   1 H    0.986 --     1 C    0.937
    11   1 H    0.985 --     1 C    0.937
    12   1 H    0.985 --     4 C    0.933
    13   1 H    0.985 --     4 C    0.931
 ---------------------------------------------------------------------------

Topologies differ in total number of bonds
Writing topology from bond orders to xtbtopo.mol

molecular dipole:
                 x           y           z       tot (Debye)
 q only:        0.660       0.586       0.125
   full:        0.509       0.552       0.126       1.937
molecular quadrupole (traceless):
                xx          xy          yy          xz          yz          zz
 q only:       -9.773       9.094       3.005      -6.068       0.394       6.767
  q+dip:      -11.554      10.767       1.451      -7.639       1.188      10.103
   full:      -11.856      10.430       1.345      -7.635       1.362      10.511


           -------------------------------------------------
          | TOTAL ENERGY              -28.033794508221 Eh   |
          | GRADIENT NORM               0.000138366058 Eh/α |
          | HOMO-LUMO GAP               2.925805106939 eV   |
           -------------------------------------------------

------------------------------------------------------------------------
 * finished run on 2025/04/11 at 16:13:46.936     
------------------------------------------------------------------------
 total:
 * wall-time:     0 d,  0 h,  0 min,  0.049 sec
 *  cpu-time:     0 d,  0 h,  0 min,  0.017 sec
 * ratio c/w:     0.344 speedup
 SCF:
 * wall-time:     0 d,  0 h,  0 min,  0.013 sec
 *  cpu-time:     0 d,  0 h,  0 min,  0.010 sec
 * ratio c/w:     0.807 speedup

