 Entering Gaussian System
 *********************************************
 Gaussian 98:
 frequency output generated by the xtb code
 *********************************************
                         Standard orientation:
 --------------------------------------------------------------------
  Center     Atomic     Atomic              Coordinates (Angstroms)
  Number     Number      Type              X           Y           Z
 --------------------------------------------------------------------
    1          6             0        2.908881   -0.585673    0.398009
    2          6             0        1.780278   -0.535873   -0.626113
    3          6             0        0.835506    0.648280   -0.403438
    4          6             0       -0.101413    0.476414    0.801409
    5          6             0       -1.548163    0.080228    0.465059
    6          6             0       -2.285209    1.193272   -0.278453
    7          6             0       -1.626691   -1.229505   -0.315838
    8          1             0        3.556273   -1.438642    0.208061
    9          1             0        3.509378    0.319998    0.344774
   10          1             0        2.516989   -0.674251    1.408305
   11          1             0        1.216500   -1.468789   -0.590430
   12          1             0        2.218719   -0.452476   -1.623676
   13          1             0        1.443281    1.545012   -0.264974
   14          1             0        0.245456    0.801996   -1.307152
   15          1             0        0.310736   -0.281433    1.470044
   16          1             0       -0.140539    1.411661    1.364234
   17          1             0       -2.060419   -0.070508    1.423761
   18          1             0       -2.240481    2.122778    0.284411
   19          1             0       -1.850297    1.365655   -1.259725
   20          1             0       -3.330185    0.924736   -0.415824
   21          1             0       -1.125528   -2.028286    0.226171
   22          1             0       -1.163008   -1.126961   -1.293421
   23          1             0       -2.665824   -1.516626   -0.461864
 --------------------------------------------------------------------
     1 basis functions        1 primitive gaussians
     1 alpha electrons        1 beta electrons
 
 Harmonic frequencies (cm**-1), IR intensities (km*mol⁻¹),
 Raman scattering activities (A**4/amu), Raman depolarization ratios,
 reduced masses (AMU), force constants (mDyne/A) and normal coordinates:
                      1                      2                      3
                        a                      a                      a 
 Frequencies --    49.8250               101.1677               107.8474
 Red. masses --     8.4049                 7.4738                 6.2045
 Frc consts  --     0.0000                 0.0000                 0.0000
 IR Inten    --     0.0137                 0.0334                 0.0352
 Raman Activ --     0.0000                 0.0000                 0.0000
 Depolar     --     0.0000                 0.0000                 0.0000
 Atom AN      X      Y      Z        X      Y      Z        X      Y      Z
   1   6    -0.23  -0.40  -0.07    -0.11  -0.05   0.18     0.26   0.08  -0.31
   2   6    -0.17   0.14  -0.11    -0.03  -0.19   0.08    -0.23  -0.20   0.22
   3   6     0.09   0.30   0.15     0.03  -0.09  -0.24     0.03   0.01   0.26
   4   6    -0.01   0.28   0.07     0.06   0.26  -0.17    -0.12   0.08   0.15
   5   6     0.08   0.01   0.01     0.09  -0.02   0.00    -0.05  -0.01  -0.05
   6   6    -0.06  -0.20  -0.16    -0.26  -0.03   0.35    -0.02  -0.01  -0.09
   7   6     0.31  -0.08   0.13     0.24   0.12  -0.24     0.11   0.04  -0.15
   8   1    -0.11  -0.14  -0.09    -0.05  -0.04   0.12    -0.05  -0.09  -0.01
   9   1    -0.01  -0.15   0.07    -0.01  -0.03   0.01     0.17  -0.06  -0.36
  10   1    -0.08  -0.19  -0.03    -0.06   0.05   0.05     0.20   0.27  -0.02
  11   1    -0.11   0.07  -0.11    -0.02  -0.04   0.07    -0.09  -0.03   0.25
  12   1    -0.03   0.09  -0.02     0.02  -0.13   0.03    -0.20  -0.19  -0.01
  13   1     0.09   0.03   0.11     0.02  -0.02  -0.14     0.07  -0.04   0.12
  14   1     0.04   0.19   0.05     0.00  -0.08  -0.08     0.04   0.08   0.07
  15   1     0.02   0.13   0.06     0.05   0.16   0.03    -0.04   0.05   0.08
  16   1    -0.06   0.10  -0.02    -0.01   0.13  -0.14    -0.07   0.04   0.02
  17   1     0.01   0.01  -0.00     0.08  -0.09   0.02    -0.05  -0.03  -0.04
  18   1    -0.06  -0.03  -0.08    -0.22  -0.07   0.22    -0.06  -0.02  -0.00
  19   1    -0.02  -0.08  -0.05    -0.04   0.17   0.15     0.04   0.03   0.00
  20   1    -0.01  -0.11  -0.04    -0.04  -0.12   0.02     0.01  -0.03  -0.09
  21   1     0.13   0.02   0.06     0.16   0.04  -0.15     0.01   0.00  -0.04
  22   1     0.08  -0.02   0.03    -0.01   0.12  -0.10     0.07   0.04  -0.02
  23   1     0.10  -0.08   0.05     0.08  -0.03  -0.01     0.04   0.01  -0.09
                      4                      5                      6
                        a                      a                      a 
 Frequencies --   196.3104               213.2947               229.8282
 Red. masses --     2.0800                 2.8845                 8.4743
 Frc consts  --     0.0000                 0.0000                 0.0000
 IR Inten    --     0.0864                 0.0610                 0.0488
 Raman Activ --     0.0000                 0.0000                 0.0000
 Depolar     --     0.0000                 0.0000                 0.0000
 Atom AN      X      Y      Z        X      Y      Z        X      Y      Z
   1   6    -0.14   0.02   0.11    -0.15   0.02   0.07    -0.36   0.19  -0.00
   2   6    -0.03   0.04  -0.01     0.04   0.15  -0.13    -0.31  -0.09  -0.06
   3   6     0.04   0.10  -0.06     0.01   0.10  -0.05    -0.26  -0.08  -0.07
   4   6     0.07  -0.03  -0.06     0.06  -0.13  -0.04     0.05  -0.07   0.15
   5   6     0.08  -0.07  -0.01     0.03  -0.04   0.01     0.11  -0.05   0.06
   6   6    -0.02  -0.06   0.11     0.15   0.02  -0.02     0.39   0.08  -0.01
   7   6     0.03  -0.00  -0.11    -0.12  -0.10   0.12     0.35  -0.01  -0.04
   8   1    -0.21  -0.16   0.23    -0.27  -0.23   0.28    -0.03   0.11   0.01
   9   1     0.14  -0.12  -0.15     0.21  -0.18  -0.19    -0.18   0.11   0.01
  10   1    -0.08   0.30   0.04    -0.11   0.39   0.03    -0.12   0.02  -0.01
  11   1    -0.03   0.03   0.00    -0.00   0.05  -0.09    -0.07  -0.03   0.02
  12   1     0.02  -0.02   0.00     0.05   0.07  -0.01    -0.09  -0.05  -0.02
  13   1     0.02   0.02   0.00    -0.01   0.04   0.01    -0.07  -0.01  -0.09
  14   1     0.01   0.05  -0.01     0.00   0.04  -0.01    -0.13  -0.06   0.01
  15   1     0.03  -0.02  -0.04     0.02  -0.08  -0.06     0.03  -0.03   0.01
  16   1     0.02  -0.02   0.01     0.03  -0.07   0.05     0.04  -0.03   0.05
  17   1     0.05  -0.04   0.01     0.01   0.01   0.01    -0.02  -0.03  -0.02
  18   1     0.36   0.08  -0.17    -0.19  -0.07   0.14     0.12   0.01   0.02
  19   1    -0.30  -0.30  -0.15     0.24   0.20   0.12     0.17   0.03   0.03
  20   1    -0.11   0.16   0.43     0.11  -0.09  -0.28     0.11   0.07  -0.07
  21   1    -0.06  -0.04  -0.02     0.02  -0.01   0.01    -0.01  -0.03   0.06
  22   1     0.07   0.00  -0.00    -0.12  -0.04  -0.01     0.25  -0.01   0.06
  23   1     0.00   0.05  -0.10    -0.04  -0.05   0.13     0.11   0.04  -0.18
                      7                      8                      9
                        a                      a                      a 
 Frequencies --   254.2121               307.8872               367.8286
 Red. masses --     1.9073                 7.5733                 6.9758
 Frc consts  --     0.0000                 0.0000                 0.0000
 IR Inten    --     0.1543                 0.1701                 0.2099
 Raman Activ --     0.0000                 0.0000                 0.0000
 Depolar     --     0.0000                 0.0000                 0.0000
 Atom AN      X      Y      Z        X      Y      Z        X      Y      Z
   1   6    -0.07   0.07  -0.00     0.12  -0.11  -0.03    -0.20   0.18   0.01
   2   6    -0.10  -0.04   0.03     0.20   0.05  -0.11    -0.07  -0.19  -0.12
   3   6    -0.06  -0.03   0.05    -0.21  -0.27   0.02     0.24   0.00   0.08
   4   6     0.00  -0.05   0.08    -0.12  -0.13   0.15     0.24  -0.24   0.03
   5   6     0.03  -0.01  -0.00    -0.19   0.21   0.05     0.10   0.20   0.06
   6   6     0.16   0.03  -0.08    -0.23   0.11  -0.10    -0.27  -0.16  -0.13
   7   6     0.03   0.02  -0.06     0.38   0.18   0.08     0.01   0.25   0.04
   8   1     0.02   0.05  -0.01    -0.06  -0.12   0.06     0.04   0.11   0.07
   9   1    -0.06   0.05   0.00     0.14  -0.10  -0.06    -0.15   0.11   0.00
  10   1    -0.01  -0.00   0.00     0.00   0.08  -0.01    -0.10   0.05  -0.01
  11   1    -0.03  -0.01   0.03     0.13  -0.04  -0.16    -0.04  -0.04   0.02
  12   1    -0.04  -0.03   0.00     0.08   0.16  -0.01    -0.02  -0.10  -0.04
  13   1    -0.01  -0.01   0.01    -0.14  -0.01  -0.08     0.15  -0.07   0.13
  14   1    -0.03  -0.01   0.02    -0.11  -0.18   0.02     0.08   0.17   0.04
  15   1    -0.00  -0.03   0.01    -0.10  -0.11  -0.00    -0.00  -0.22  -0.11
  16   1     0.00  -0.02   0.04     0.07  -0.06   0.08     0.17  -0.15   0.16
  17   1    -0.01  -0.00  -0.01    -0.10   0.05  -0.01     0.05   0.08   0.03
  18   1     0.16   0.04  -0.09    -0.07   0.06  -0.07    -0.22  -0.01  -0.09
  19   1     0.00  -0.09  -0.06    -0.09  -0.01  -0.04    -0.10  -0.05  -0.05
  20   1     0.02   0.08   0.05    -0.07   0.01   0.01    -0.04  -0.21  -0.03
  21   1     0.46   0.12  -0.27     0.19   0.13   0.06    -0.01   0.05  -0.01
  22   1    -0.45   0.17  -0.22     0.15   0.10   0.05     0.00   0.09   0.01
  23   1     0.02  -0.27   0.44     0.16  -0.09  -0.03    -0.00   0.09   0.00
                     10                     11                     12
                        a                      a                      a 
 Frequencies --   381.1408               427.4525               538.7587
 Red. masses --     7.1622                 6.3742                 7.5975
 Frc consts  --     0.0000                 0.0000                 0.0000
 IR Inten    --     0.8870                 1.4433                 3.9659
 Raman Activ --     0.0000                 0.0000                 0.0000
 Depolar     --     0.0000                 0.0000                 0.0000
 Atom AN      X      Y      Z        X      Y      Z        X      Y      Z
   1   6     0.04  -0.05  -0.01    -0.13   0.17  -0.05    -0.05   0.01  -0.03
   2   6     0.04   0.09  -0.01     0.17  -0.19  -0.36    -0.03   0.02  -0.01
   3   6    -0.17  -0.09  -0.01     0.17  -0.28   0.23    -0.08  -0.11   0.18
   4   6     0.11   0.15   0.23    -0.15   0.18   0.10     0.22   0.08   0.32
   5   6     0.13  -0.02   0.29    -0.09  -0.07   0.04     0.37   0.10  -0.41
   6   6     0.12  -0.36  -0.14     0.05   0.03   0.04    -0.14   0.11  -0.05
   7   6    -0.20   0.29  -0.18    -0.06  -0.03  -0.01    -0.07  -0.17  -0.07
   8   1    -0.04  -0.05  -0.00     0.04   0.07   0.16    -0.02  -0.00   0.01
   9   1     0.06  -0.05  -0.01    -0.09   0.08  -0.03    -0.01   0.00  -0.02
  10   1     0.01   0.01   0.00    -0.16   0.13  -0.05    -0.02   0.02  -0.01
  11   1     0.04   0.01  -0.06     0.13  -0.11  -0.24     0.02  -0.01  -0.05
  12   1     0.02   0.09   0.01     0.08   0.13  -0.07    -0.02   0.08  -0.00
  13   1    -0.10   0.04  -0.15     0.15  -0.16   0.18    -0.06   0.02  -0.14
  14   1    -0.12  -0.17   0.02     0.09   0.11   0.07    -0.16  -0.17   0.12
  15   1     0.07   0.11   0.12    -0.06   0.22   0.23    -0.00   0.03   0.13
  16   1     0.01   0.09  -0.01    -0.13   0.18  -0.19     0.02   0.04   0.06
  17   1     0.02  -0.01   0.07    -0.04  -0.02   0.00     0.05   0.01  -0.14
  18   1    -0.07  -0.03  -0.16     0.06   0.01   0.01    -0.08  -0.02   0.07
  19   1     0.09  -0.20  -0.03     0.03  -0.01   0.01    -0.22   0.19  -0.07
  20   1     0.06  -0.19  -0.09     0.00   0.07   0.00    -0.03  -0.09   0.13
  21   1    -0.13  -0.06  -0.19    -0.02  -0.01  -0.01    -0.09  -0.03   0.07
  22   1    -0.08   0.19  -0.05    -0.01   0.01   0.00    -0.09  -0.27  -0.08
  23   1    -0.09   0.22  -0.08    -0.01  -0.01  -0.02    -0.07   0.07   0.12
                     13                     14                     15
                        a                      a                      a 
 Frequencies --   779.6289               829.7023               870.6520
 Red. masses --     5.6201                 4.9423                 6.7459
 Frc consts  --     0.0000                 0.0000                 0.0000
 IR Inten    --     4.8852                 6.9831                 1.3266
 Raman Activ --     0.0000                 0.0000                 0.0000
 Depolar     --     0.0000                 0.0000                 0.0000
 Atom AN      X      Y      Z        X      Y      Z        X      Y      Z
   1   6    -0.01   0.01   0.07    -0.04  -0.06   0.05     0.17  -0.09   0.04
   2   6    -0.21   0.00   0.21    -0.10  -0.17   0.09     0.09  -0.23  -0.15
   3   6    -0.23  -0.16   0.03     0.12   0.12  -0.05    -0.15   0.17  -0.03
   4   6    -0.12  -0.08  -0.29     0.18   0.23   0.14    -0.32   0.35   0.06
   5   6     0.23   0.06  -0.12    -0.17  -0.03   0.15     0.04   0.06  -0.13
   6   6     0.13  -0.11   0.06    -0.15   0.12  -0.05     0.13  -0.23   0.11
   7   6     0.05   0.18   0.08    -0.04  -0.25  -0.11     0.06   0.10  -0.00
   8   1    -0.02   0.02  -0.14     0.10   0.08  -0.03     0.16   0.02   0.20
   9   1    -0.03   0.01  -0.18    -0.16   0.07  -0.27    -0.04   0.04   0.03
  10   1     0.27   0.03   0.12     0.25   0.09   0.12    -0.10   0.04  -0.04
  11   1     0.08  -0.09  -0.30    -0.03  -0.05  -0.34     0.04  -0.07  -0.03
  12   1     0.13   0.32   0.16     0.19   0.22   0.14    -0.02  -0.04  -0.06
  13   1     0.05  -0.15   0.21     0.09   0.02  -0.16     0.00   0.02  -0.02
  14   1     0.08   0.17  -0.05     0.00  -0.06  -0.01     0.00   0.05  -0.04
  15   1    -0.01   0.00  -0.07     0.07  -0.07  -0.13    -0.15  -0.20  -0.27
  16   1    -0.04  -0.01  -0.11     0.14  -0.03   0.20     0.03  -0.10   0.35
  17   1     0.09   0.04  -0.01    -0.03  -0.05   0.04    -0.02  -0.08  -0.06
  18   1    -0.01  -0.04   0.04     0.01   0.06  -0.06     0.09  -0.09   0.08
  19   1    -0.05   0.02  -0.01     0.08  -0.05   0.02     0.05  -0.04   0.04
  20   1     0.05  -0.12   0.09    -0.05   0.14  -0.11     0.03  -0.01   0.03
  21   1    -0.02   0.04   0.05     0.00  -0.09  -0.07    -0.05   0.02   0.06
  22   1    -0.02  -0.02   0.00     0.01   0.00  -0.01    -0.06  -0.14  -0.05
  23   1    -0.01   0.12   0.08     0.00  -0.10  -0.08    -0.04   0.14   0.13
                     16                     17                     18
                        a                      a                      a 
 Frequencies --   897.0085               934.4691               951.8908
 Red. masses --     6.5272                 4.8573                 3.2636
 Frc consts  --     0.0000                 0.0000                 0.0000
 IR Inten    --     2.2626                 4.3677                 0.3230
 Raman Activ --     0.0000                 0.0000                 0.0000
 Depolar     --     0.0000                 0.0000                 0.0000
 Atom AN      X      Y      Z        X      Y      Z        X      Y      Z
   1   6    -0.22  -0.04  -0.18     0.13  -0.17   0.13     0.06  -0.07   0.08
   2   6     0.04   0.07   0.15     0.01  -0.15  -0.14    -0.00  -0.04  -0.08
   3   6     0.39  -0.01   0.26    -0.05   0.29  -0.12    -0.04   0.13  -0.08
   4   6    -0.10  -0.04  -0.19    -0.03  -0.22   0.13     0.02  -0.17   0.08
   5   6    -0.07   0.00  -0.15    -0.01  -0.11  -0.06    -0.04   0.07  -0.02
   6   6     0.07  -0.20   0.09     0.10  -0.03  -0.13     0.04   0.08   0.21
   7   6    -0.01   0.21   0.06    -0.05   0.11   0.15    -0.07   0.12  -0.21
   8   1     0.02   0.05  -0.01     0.23   0.08   0.16     0.10   0.03   0.06
   9   1    -0.16   0.06  -0.16    -0.16   0.08  -0.15    -0.06   0.03  -0.07
  10   1    -0.03   0.06  -0.03     0.10   0.09   0.07     0.07   0.04   0.05
  11   1    -0.14   0.11  -0.06    -0.16   0.06  -0.11    -0.09   0.04  -0.04
  12   1     0.01   0.08   0.04     0.11  -0.09   0.00     0.06  -0.06   0.00
  13   1    -0.12   0.19  -0.23    -0.09   0.13  -0.03    -0.04   0.05   0.02
  14   1     0.03  -0.44   0.04    -0.09   0.05   0.02    -0.04   0.06   0.00
  15   1    -0.15  -0.04   0.00     0.09   0.11   0.16     0.08   0.09   0.13
  16   1    -0.07  -0.02  -0.04    -0.19   0.02  -0.10    -0.10   0.03  -0.10
  17   1     0.05  -0.01  -0.00    -0.12   0.16  -0.05     0.01  -0.23  -0.03
  18   1     0.09  -0.08   0.06     0.01  -0.12   0.15    -0.17   0.21  -0.26
  19   1     0.06  -0.05   0.05    -0.20   0.24  -0.09     0.12  -0.28   0.04
  20   1     0.00   0.02   0.01     0.02  -0.08   0.15     0.07  -0.17  -0.05
  21   1     0.02   0.13   0.10     0.04   0.01  -0.05     0.03   0.31   0.32
  22   1     0.02   0.00   0.02     0.04   0.22   0.08     0.03  -0.35  -0.07
  23   1     0.02  -0.00   0.01     0.02  -0.03  -0.08     0.02  -0.16   0.07
                     19                     20                     21
                        a                      a                      a 
 Frequencies --   981.6291               991.3114              1018.2755
 Red. masses --     5.7971                 4.4317                 6.0165
 Frc consts  --     0.0000                 0.0000                 0.0000
 IR Inten    --     2.5331                 0.2939                 2.2926
 Raman Activ --     0.0000                 0.0000                 0.0000
 Depolar     --     0.0000                 0.0000                 0.0000
 Atom AN      X      Y      Z        X      Y      Z        X      Y      Z
   1   6     0.12  -0.15  -0.05     0.01   0.03  -0.05    -0.25   0.05  -0.08
   2   6    -0.01  -0.02   0.02    -0.02  -0.02   0.05     0.23   0.02   0.04
   3   6    -0.12   0.05   0.23    -0.01  -0.02   0.07     0.18  -0.01  -0.20
   4   6    -0.11  -0.05  -0.30     0.00   0.17  -0.06    -0.35  -0.01   0.18
   5   6     0.22   0.04   0.16    -0.05   0.18  -0.01     0.04   0.07   0.13
   6   6    -0.04   0.28   0.01     0.30  -0.04   0.11     0.15   0.14   0.03
   7   6     0.11  -0.22   0.01    -0.28  -0.19  -0.11     0.14  -0.14  -0.02
   8   1     0.22   0.04   0.26    -0.02  -0.02   0.02    -0.13   0.00  -0.21
   9   1    -0.14   0.07  -0.02     0.03  -0.01   0.06    -0.03  -0.02  -0.13
  10   1    -0.16   0.09  -0.07    -0.07  -0.01  -0.04     0.12  -0.03   0.05
  11   1    -0.08   0.04  -0.03     0.08  -0.06   0.00    -0.04   0.07   0.05
  12   1    -0.13   0.08  -0.04    -0.07   0.08  -0.01     0.22  -0.19   0.06
  13   1    -0.16   0.10   0.05     0.04  -0.03  -0.05    -0.03   0.04   0.04
  14   1     0.01  -0.11   0.01     0.00  -0.03   0.01     0.14  -0.05  -0.12
  15   1    -0.01   0.00  -0.07    -0.03  -0.05  -0.10    -0.12  -0.04   0.02
  16   1    -0.07  -0.02  -0.07     0.05  -0.02   0.09    -0.04  -0.01   0.07
  17   1     0.19   0.04   0.11    -0.01   0.23   0.03    -0.16   0.01  -0.06
  18   1    -0.17   0.20  -0.20    -0.15   0.03  -0.02    -0.17   0.10  -0.09
  19   1     0.01  -0.09  -0.02    -0.14   0.02  -0.06    -0.13   0.02  -0.07
  20   1     0.04  -0.10  -0.02     0.14  -0.35   0.22     0.09  -0.26   0.15
  21   1    -0.05  -0.23  -0.18     0.14   0.12   0.03    -0.07  -0.18  -0.11
  22   1    -0.04   0.06  -0.02     0.14   0.14   0.09    -0.07  -0.05  -0.06
  23   1    -0.02   0.11  -0.01     0.07  -0.42  -0.27    -0.03   0.16   0.08
                     22                     23                     24
                        a                      a                      a 
 Frequencies --  1088.1651              1095.8882              1111.1858
 Red. masses --     5.7474                 4.9666                 6.4014
 Frc consts  --     0.0000                 0.0000                 0.0000
 IR Inten    --     1.9793                 4.3389                 7.2147
 Raman Activ --     0.0000                 0.0000                 0.0000
 Depolar     --     0.0000                 0.0000                 0.0000
 Atom AN      X      Y      Z        X      Y      Z        X      Y      Z
   1   6     0.08   0.01   0.31    -0.04   0.19   0.10    -0.26  -0.10  -0.15
   2   6    -0.10   0.10  -0.36     0.00  -0.28  -0.15     0.42  -0.04   0.09
   3   6     0.03  -0.12   0.10     0.05   0.21   0.12    -0.31   0.02   0.07
   4   6    -0.03   0.03  -0.07    -0.13  -0.03  -0.06     0.07   0.09   0.02
   5   6     0.01   0.28  -0.07     0.16  -0.18  -0.13     0.19   0.04  -0.09
   6   6     0.01  -0.14   0.13    -0.05   0.14   0.03    -0.12  -0.05  -0.00
   7   6     0.01  -0.17  -0.04    -0.04   0.07   0.16    -0.14  -0.02  -0.00
   8   1    -0.00   0.03  -0.12    -0.20  -0.05  -0.20    -0.00   0.03  -0.06
   9   1     0.04  -0.02  -0.07     0.18  -0.08   0.08    -0.16   0.03  -0.19
  10   1     0.27  -0.01   0.17     0.12  -0.10   0.06     0.03   0.03  -0.00
  11   1    -0.23   0.16   0.01     0.18  -0.18  -0.03     0.08   0.01   0.15
  12   1     0.05  -0.21  -0.08     0.08  -0.04  -0.00     0.21  -0.23   0.05
  13   1    -0.07   0.02   0.02     0.07   0.05  -0.23    -0.21   0.06   0.26
  14   1    -0.17   0.04   0.15    -0.19  -0.04   0.15     0.03   0.10  -0.03
  15   1    -0.31  -0.07   0.08     0.00  -0.01  -0.04     0.05   0.01  -0.03
  16   1     0.16   0.06  -0.09    -0.35  -0.10   0.11    -0.01  -0.00   0.05
  17   1     0.12   0.17   0.06     0.21  -0.05   0.06     0.22   0.06   0.07
  18   1     0.07  -0.02   0.01    -0.07   0.12  -0.13     0.09  -0.03   0.01
  19   1     0.11  -0.10   0.07     0.04  -0.08   0.01     0.10  -0.04   0.05
  20   1    -0.00   0.05  -0.06     0.01  -0.01  -0.07    -0.06   0.15  -0.11
  21   1    -0.00  -0.10  -0.09     0.04  -0.00  -0.04     0.07   0.07   0.02
  22   1    -0.01   0.04  -0.01     0.04   0.17   0.08     0.07   0.08   0.06
  23   1     0.00  -0.02  -0.06     0.01  -0.00  -0.05     0.03  -0.16  -0.10
                     25                     26                     27
                        a                      a                      a 
 Frequencies --  1155.5082              1166.7911              1207.9213
 Red. masses --     6.8242                 7.0724                 6.6742
 Frc consts  --     0.0000                 0.0000                 0.0000
 IR Inten    --     3.2071                 3.9350                 4.5621
 Raman Activ --     0.0000                 0.0000                 0.0000
 Depolar     --     0.0000                 0.0000                 0.0000
 Atom AN      X      Y      Z        X      Y      Z        X      Y      Z
   1   6     0.07  -0.04  -0.14     0.06  -0.05   0.12     0.08   0.12   0.02
   2   6    -0.09   0.03   0.22    -0.11   0.27  -0.13    -0.12  -0.11  -0.03
   3   6     0.06   0.08  -0.34     0.10  -0.34  -0.11     0.10   0.05  -0.08
   4   6    -0.08  -0.17   0.28    -0.11   0.17   0.16    -0.25  -0.10   0.09
   5   6     0.12   0.20  -0.29     0.20  -0.29  -0.13     0.30   0.15   0.36
   6   6    -0.08  -0.08   0.20    -0.06   0.14  -0.04    -0.10  -0.06  -0.20
   7   6    -0.03  -0.10   0.11    -0.14   0.11   0.15    -0.07  -0.04  -0.25
   8   1     0.06  -0.01   0.11     0.07   0.03   0.03    -0.06  -0.03  -0.02
   9   1    -0.02   0.02   0.06    -0.04   0.02  -0.03     0.11  -0.03   0.10
  10   1    -0.17   0.03  -0.10     0.07   0.04   0.06    -0.03  -0.05  -0.02
  11   1     0.06  -0.04  -0.06    -0.23   0.19   0.01    -0.10   0.01  -0.13
  12   1     0.01   0.13   0.08    -0.12  -0.03  -0.08     0.01   0.04   0.01
  13   1     0.14  -0.06  -0.08     0.02  -0.10   0.08    -0.07   0.06   0.05
  14   1     0.07   0.08  -0.11     0.23  -0.07  -0.16     0.18  -0.14  -0.15
  15   1    -0.25  -0.03   0.23     0.06  -0.05  -0.11    -0.03   0.01   0.05
  16   1    -0.10   0.02  -0.04    -0.10  -0.06   0.20    -0.14  -0.03   0.04
  17   1     0.08   0.14  -0.03     0.11  -0.20  -0.02     0.24   0.16   0.20
  18   1     0.05   0.05  -0.07    -0.05   0.07  -0.07     0.11  -0.11   0.12
  19   1     0.18  -0.20   0.11    -0.01  -0.01  -0.02    -0.01   0.17  -0.00
  20   1    -0.02   0.06  -0.12    -0.00  -0.01  -0.02    -0.07   0.16   0.01
  21   1     0.03  -0.10  -0.12     0.07   0.08   0.03     0.02   0.12   0.11
  22   1     0.01   0.17   0.05     0.07   0.18   0.10     0.05  -0.20  -0.05
  23   1     0.00  -0.00  -0.09     0.02  -0.10  -0.09     0.02  -0.15  -0.01
                     28                     29                     30
                        a                      a                      a 
 Frequencies --  1225.7133              1249.3506              1277.8281
 Red. masses --     3.6281                 3.0978                 2.5302
 Frc consts  --     0.0000                 0.0000                 0.0000
 IR Inten    --     0.6417                 1.3337                 1.3861
 Raman Activ --     0.0000                 0.0000                 0.0000
 Depolar     --     0.0000                 0.0000                 0.0000
 Atom AN      X      Y      Z        X      Y      Z        X      Y      Z
   1   6     0.04   0.16   0.06     0.13   0.17  -0.12    -0.10  -0.06   0.16
   2   6    -0.05  -0.20  -0.11    -0.08  -0.21   0.10     0.01  -0.07  -0.11
   3   6    -0.05   0.04   0.12    -0.04   0.06   0.01     0.01   0.22  -0.01
   4   6     0.12  -0.01   0.05     0.06   0.08  -0.02    -0.04  -0.06   0.05
   5   6    -0.08   0.16  -0.21     0.03  -0.15  -0.03     0.11  -0.01   0.02
   6   6    -0.04  -0.07   0.16     0.04   0.08  -0.05    -0.01   0.03  -0.05
   7   6     0.05  -0.06   0.06    -0.07   0.04   0.10    -0.09  -0.00   0.06
   8   1    -0.10  -0.04  -0.05    -0.09  -0.06   0.01     0.01   0.03  -0.08
   9   1     0.13  -0.04   0.10     0.14  -0.02   0.17    -0.04  -0.01  -0.13
  10   1     0.03  -0.08   0.01    -0.17  -0.07  -0.12     0.15   0.01   0.10
  11   1    -0.12   0.01  -0.12    -0.26   0.09  -0.23     0.34  -0.22   0.12
  12   1    -0.05   0.02  -0.04     0.29  -0.07   0.16    -0.37   0.17  -0.18
  13   1    -0.27   0.15   0.20    -0.21   0.13   0.16    -0.14   0.14   0.05
  14   1     0.33  -0.22  -0.24    -0.01   0.02   0.01     0.21  -0.11  -0.17
  15   1     0.38   0.11  -0.08    -0.28  -0.07   0.08    -0.23  -0.04   0.12
  16   1    -0.06  -0.01   0.03     0.36   0.09  -0.10     0.33   0.10  -0.15
  17   1    -0.23   0.17  -0.14     0.03  -0.32  -0.04    -0.03  -0.27  -0.07
  18   1     0.02   0.02  -0.03    -0.04   0.02  -0.02     0.00  -0.01   0.01
  19   1     0.11  -0.14   0.07    -0.05   0.03  -0.04    -0.01   0.02  -0.01
  20   1    -0.00  -0.01  -0.02     0.02  -0.04   0.02    -0.00  -0.00   0.02
  21   1    -0.02  -0.08  -0.06     0.02   0.02   0.01     0.04   0.01  -0.02
  22   1    -0.04   0.07  -0.01     0.02   0.10   0.05     0.04   0.06   0.05
  23   1    -0.00   0.06  -0.02     0.01  -0.04  -0.04     0.00  -0.05  -0.03
                     31                     32                     33
                        a                      a                      a 
 Frequencies --  1326.6616              1336.1063              1342.3496
 Red. masses --     4.8939                 4.3160                 4.4748
 Frc consts  --     0.0000                 0.0000                 0.0000
 IR Inten    --     5.0415                15.2051                 5.9917
 Raman Activ --     0.0000                 0.0000                 0.0000
 Depolar     --     0.0000                 0.0000                 0.0000
 Atom AN      X      Y      Z        X      Y      Z        X      Y      Z
   1   6    -0.00  -0.02  -0.06    -0.00  -0.01  -0.03    -0.02   0.05   0.04
   2   6    -0.04   0.09  -0.04    -0.06   0.07  -0.08     0.23  -0.13   0.12
   3   6    -0.05   0.06   0.19    -0.16   0.08   0.12     0.06  -0.08  -0.14
   4   6    -0.31  -0.13  -0.04     0.04  -0.08   0.11     0.03  -0.03  -0.05
   5   6     0.32   0.20   0.07    -0.35   0.21  -0.13    -0.01   0.41   0.06
   6   6    -0.10  -0.04   0.00     0.10   0.01  -0.12     0.03  -0.07  -0.07
   7   6    -0.11  -0.04   0.06     0.07  -0.03   0.06    -0.03  -0.06   0.10
   8   1     0.04   0.01   0.07     0.04   0.01   0.05    -0.08  -0.02  -0.08
   9   1     0.01  -0.00   0.05     0.02  -0.01   0.04    -0.01   0.01  -0.05
  10   1     0.01   0.01  -0.01     0.03   0.01   0.01    -0.03  -0.03  -0.01
  11   1     0.01   0.01   0.03     0.04  -0.01   0.03    -0.21   0.13  -0.08
  12   1     0.20  -0.14   0.07     0.15  -0.12   0.04    -0.28   0.18  -0.10
  13   1     0.26  -0.13  -0.24     0.18  -0.11  -0.11    -0.06   0.01   0.06
  14   1    -0.01  -0.06   0.03     0.23  -0.14  -0.17    -0.20   0.14   0.14
  15   1     0.30   0.07  -0.13     0.11   0.05   0.03     0.08   0.04  -0.01
  16   1     0.25   0.06  -0.14     0.00   0.02  -0.03    -0.26  -0.06   0.07
  17   1    -0.28  -0.22  -0.22     0.50  -0.30   0.23    -0.01  -0.50  -0.08
  18   1     0.08  -0.01   0.00     0.01  -0.09   0.12     0.06  -0.07   0.07
  19   1     0.07  -0.00   0.04    -0.00   0.01  -0.03     0.01   0.05  -0.00
  20   1    -0.03   0.06  -0.04     0.04  -0.13   0.14    -0.00   0.00   0.04
  21   1     0.06  -0.01  -0.06    -0.04  -0.09  -0.05    -0.00  -0.10  -0.11
  22   1     0.04   0.05   0.05    -0.06   0.01  -0.02    -0.03   0.01   0.01
  23   1     0.01  -0.09  -0.09     0.00   0.04  -0.02     0.02  -0.08  -0.11
                     34                     35                     36
                        a                      a                      a 
 Frequencies --  1352.8059              1371.8880              1406.6648
 Red. masses --     4.5017                 4.3666                 3.4049
 Frc consts  --     0.0000                 0.0000                 0.0000
 IR Inten    --     5.6710                 3.0987                 1.7128
 Raman Activ --     0.0000                 0.0000                 0.0000
 Depolar     --     0.0000                 0.0000                 0.0000
 Atom AN      X      Y      Z        X      Y      Z        X      Y      Z
   1   6     0.04  -0.09  -0.06     0.01   0.01   0.04     0.03  -0.00   0.02
   2   6    -0.37   0.18  -0.09     0.08  -0.00  -0.05    -0.01  -0.00   0.00
   3   6     0.19  -0.11  -0.05    -0.30   0.11   0.15     0.03  -0.00  -0.02
   4   6     0.14   0.07  -0.08     0.34   0.03  -0.15    -0.03   0.02   0.01
   5   6     0.02   0.18   0.08     0.08   0.00   0.15     0.03  -0.13  -0.01
   6   6     0.01  -0.04  -0.02    -0.02  -0.01  -0.01    -0.14   0.23  -0.10
   7   6    -0.03  -0.02   0.04    -0.01   0.05   0.02     0.01   0.31   0.14
   8   1     0.10   0.01   0.12    -0.00   0.01  -0.06    -0.03  -0.01  -0.03
   9   1    -0.01   0.00   0.07     0.01  -0.01  -0.03    -0.03   0.02  -0.04
  10   1     0.03   0.05   0.00    -0.03   0.00  -0.01    -0.04  -0.00  -0.02
  11   1     0.36  -0.23   0.11    -0.11   0.08  -0.02     0.01  -0.01   0.01
  12   1     0.29  -0.15   0.13     0.04  -0.08  -0.01     0.00   0.01   0.00
  13   1    -0.26   0.14   0.21     0.26  -0.18  -0.10    -0.02   0.01   0.02
  14   1    -0.05  -0.05   0.05     0.24  -0.15  -0.20    -0.04   0.02   0.03
  15   1    -0.06  -0.01   0.01    -0.41  -0.13   0.11     0.00  -0.00  -0.01
  16   1    -0.29  -0.07   0.11    -0.34  -0.05   0.02     0.06   0.01  -0.00
  17   1    -0.13  -0.21  -0.09    -0.28  -0.05  -0.13    -0.02   0.13   0.01
  18   1     0.02  -0.02   0.02    -0.02   0.01  -0.02     0.19  -0.13   0.23
  19   1     0.00   0.03   0.00     0.01   0.03   0.01     0.20  -0.26   0.04
  20   1    -0.01   0.02   0.02    -0.02   0.05   0.02     0.06  -0.30   0.10
  21   1     0.01  -0.05  -0.07    -0.02  -0.04  -0.04    -0.10  -0.23  -0.27
  22   1     0.00  -0.03   0.01    -0.01  -0.08  -0.01    -0.07  -0.38  -0.07
  23   1     0.01  -0.04  -0.04     0.03  -0.09  -0.03     0.12  -0.32  -0.15
                     37                     38                     39
                        a                      a                      a 
 Frequencies --  1414.2482              1419.9925              1481.4970
 Red. masses --     3.2056                 3.1815                 1.8581
 Frc consts  --     0.0000                 0.0000                 0.0000
 IR Inten    --     0.9031                 3.0320                 1.3171
 Raman Activ --     0.0000                 0.0000                 0.0000
 Depolar     --     0.0000                 0.0000                 0.0000
 Atom AN      X      Y      Z        X      Y      Z        X      Y      Z
   1   6     0.32  -0.04   0.26     0.08  -0.01   0.07     0.00   0.02   0.04
   2   6    -0.08   0.06  -0.03    -0.03   0.01  -0.01    -0.02  -0.05  -0.09
   3   6     0.01  -0.01   0.04     0.02   0.02  -0.00    -0.02   0.09  -0.08
   4   6    -0.01  -0.01  -0.01    -0.05  -0.01   0.06    -0.05  -0.02  -0.20
   5   6     0.00   0.03   0.01    -0.05  -0.01  -0.06    -0.01  -0.02  -0.02
   6   6    -0.03   0.04  -0.03     0.16  -0.23   0.16    -0.04  -0.02   0.04
   7   6    -0.01  -0.09  -0.05     0.02   0.22   0.14     0.01  -0.00   0.03
   8   1    -0.27  -0.14  -0.37    -0.07  -0.04  -0.09     0.04   0.03   0.01
   9   1    -0.31   0.20  -0.33    -0.08   0.05  -0.09     0.05  -0.04  -0.14
  10   1    -0.45   0.04  -0.16    -0.12   0.00  -0.04    -0.06  -0.10  -0.03
  11   1     0.09  -0.06  -0.03     0.04  -0.02  -0.01    -0.06   0.05   0.24
  12   1     0.06  -0.11   0.01     0.01  -0.03  -0.00     0.11   0.21   0.06
  13   1    -0.01   0.02  -0.04     0.01  -0.01   0.04     0.13  -0.13   0.21
  14   1     0.04   0.01  -0.01     0.01  -0.05  -0.01    -0.10  -0.24   0.02
  15   1     0.05   0.03  -0.00     0.08  -0.02  -0.06     0.01   0.35   0.38
  16   1    -0.00  -0.01   0.02     0.06   0.04  -0.06     0.21  -0.24   0.41
  17   1    -0.01  -0.02  -0.01     0.09   0.02   0.04     0.00   0.00  -0.00
  18   1     0.04  -0.04   0.06    -0.22   0.17  -0.28     0.13   0.05  -0.10
  19   1     0.06  -0.05   0.01    -0.26   0.27  -0.06    -0.02   0.11   0.02
  20   1     0.01  -0.06   0.04    -0.05   0.33  -0.17     0.03  -0.09  -0.07
  21   1     0.04   0.07   0.07    -0.07  -0.19  -0.22     0.03   0.02   0.01
  22   1     0.04   0.10   0.03    -0.08  -0.29  -0.06    -0.05  -0.01  -0.02
  23   1    -0.04   0.10   0.06     0.10  -0.24  -0.16     0.00   0.03  -0.07
                     40                     41                     42
                        a                      a                      a 
 Frequencies --  1485.6947              1495.0716              1498.8073
 Red. masses --     1.8660                 1.6208                 1.7855
 Frc consts  --     0.0000                 0.0000                 0.0000
 IR Inten    --     0.3716                 0.0621                 0.4077
 Raman Activ --     0.0000                 0.0000                 0.0000
 Depolar     --     0.0000                 0.0000                 0.0000
 Atom AN      X      Y      Z        X      Y      Z        X      Y      Z
   1   6    -0.03   0.01   0.01    -0.00  -0.03   0.01    -0.01   0.00   0.06
   2   6     0.03   0.13   0.15    -0.01  -0.02  -0.02    -0.03  -0.10  -0.11
   3   6     0.01   0.14  -0.10     0.01   0.04  -0.03     0.02   0.10  -0.09
   4   6    -0.00   0.02   0.02     0.02   0.02   0.09     0.01   0.02   0.13
   5   6    -0.02  -0.02   0.00    -0.01  -0.01  -0.00     0.02  -0.00  -0.01
   6   6    -0.02   0.01  -0.00    -0.15  -0.06   0.03     0.06   0.03  -0.06
   7   6    -0.02  -0.05   0.05     0.11   0.01  -0.05    -0.01  -0.03   0.01
   8   1     0.05   0.04  -0.01     0.02   0.03  -0.07     0.10   0.09  -0.06
   9   1     0.05  -0.03  -0.01     0.01  -0.01   0.02     0.10  -0.08  -0.14
  10   1    -0.01  -0.00   0.00    -0.03   0.08  -0.01    -0.13  -0.05  -0.05
  11   1     0.11  -0.07  -0.43     0.00  -0.00   0.07    -0.09   0.06   0.36
  12   1    -0.21  -0.39  -0.12     0.03   0.06   0.02     0.16   0.33   0.10
  13   1     0.17  -0.17   0.36     0.03  -0.03   0.11     0.11  -0.11   0.27
  14   1    -0.21  -0.37   0.08    -0.06  -0.10   0.02    -0.16  -0.27   0.06
  15   1     0.01  -0.03  -0.05    -0.00  -0.15  -0.17     0.02  -0.20  -0.24
  16   1     0.01   0.03  -0.05    -0.06   0.11  -0.18    -0.09   0.15  -0.25
  17   1     0.01   0.02   0.01     0.02  -0.02   0.01    -0.00   0.01  -0.00
  18   1     0.05   0.00  -0.01     0.40   0.15  -0.29    -0.24  -0.07   0.14
  19   1     0.03   0.01   0.01     0.13   0.38   0.13     0.05  -0.19  -0.02
  20   1     0.01  -0.05   0.01     0.06  -0.28   0.02    -0.05   0.15   0.12
  21   1     0.19   0.10  -0.02    -0.31  -0.05   0.21     0.06   0.05   0.02
  22   1    -0.06  -0.08  -0.03    -0.17   0.21  -0.07    -0.01   0.01  -0.00
  23   1    -0.03   0.17  -0.17     0.05  -0.18   0.04    -0.01   0.06  -0.04
                     43                     44                     45
                        a                      a                      a 
 Frequencies --  1501.3334              1502.8532              1505.1899
 Red. masses --     1.6079                 1.5340                 1.6533
 Frc consts  --     0.0000                 0.0000                 0.0000
 IR Inten    --     0.1451                 0.3827                 0.4220
 Raman Activ --     0.0000                 0.0000                 0.0000
 Depolar     --     0.0000                 0.0000                 0.0000
 Atom AN      X      Y      Z        X      Y      Z        X      Y      Z
   1   6    -0.01   0.06   0.03     0.08   0.18  -0.07     0.11  -0.08  -0.13
   2   6    -0.01   0.03   0.01     0.01   0.04  -0.02     0.04  -0.07  -0.07
   3   6     0.00   0.03  -0.02    -0.00   0.01  -0.01    -0.02   0.07  -0.04
   4   6     0.01  -0.00   0.03     0.01   0.01   0.03     0.01   0.00   0.01
   5   6    -0.02   0.06   0.01    -0.00  -0.02  -0.00     0.00   0.01   0.02
   6   6     0.02   0.08   0.13    -0.02  -0.03  -0.04     0.01   0.04   0.05
   7   6    -0.04   0.04  -0.12     0.00  -0.00   0.01    -0.02  -0.02   0.01
   8   1     0.04   0.01   0.10    -0.27  -0.31   0.48    -0.32  -0.25  -0.02
   9   1     0.06  -0.05  -0.17    -0.22   0.15  -0.23    -0.37   0.27   0.43
  10   1    -0.04  -0.21  -0.03     0.19  -0.57   0.02     0.25   0.32   0.12
  11   1     0.01  -0.00  -0.04     0.02  -0.00   0.04    -0.05   0.03   0.13
  12   1    -0.01  -0.04  -0.01    -0.00   0.01  -0.01     0.02   0.13   0.01
  13   1     0.05  -0.05   0.09     0.02  -0.02   0.02     0.08  -0.08   0.15
  14   1    -0.03  -0.11  -0.00    -0.02  -0.02   0.01    -0.06  -0.17   0.01
  15   1     0.01  -0.05  -0.06    -0.04  -0.06  -0.04    -0.02  -0.03  -0.01
  16   1    -0.05   0.03  -0.06    -0.03   0.03  -0.06    -0.01   0.02  -0.03
  17   1     0.01  -0.04   0.00    -0.00   0.01   0.00    -0.00  -0.00   0.00
  18   1     0.21  -0.07   0.12    -0.02   0.04  -0.06     0.07  -0.04   0.07
  19   1    -0.36  -0.13  -0.18     0.13   0.08   0.07    -0.15  -0.08  -0.08
  20   1     0.10  -0.13  -0.46    -0.02   0.01   0.15     0.04  -0.05  -0.19
  21   1    -0.12  -0.13  -0.09     0.01   0.01   0.01     0.06   0.03  -0.01
  22   1     0.31   0.06   0.15    -0.02  -0.00  -0.01     0.01  -0.02   0.00
  23   1    -0.02  -0.14   0.38    -0.00   0.02  -0.03    -0.01   0.05  -0.03
                     46                     47                     48
                        a                      a                      a 
 Frequencies --  1508.4989              1511.5417              2901.1712
 Red. masses --     1.5871                 1.5827                 1.7450
 Frc consts  --     0.0000                 0.0000                 0.0000
 IR Inten    --     1.4552                 0.8156               112.5127
 Raman Activ --     0.0000                 0.0000                 0.0000
 Depolar     --     0.0000                 0.0000                 0.0000
 Atom AN      X      Y      Z        X      Y      Z        X      Y      Z
   1   6    -0.00   0.02   0.01     0.01  -0.02  -0.02     0.00  -0.00  -0.00
   2   6    -0.01   0.04   0.01     0.02   0.03   0.04     0.00   0.00   0.00
   3   6     0.00  -0.00   0.01     0.00   0.06  -0.05    -0.00   0.00   0.00
   4   6    -0.02  -0.01  -0.02    -0.03  -0.01  -0.05     0.01   0.00   0.01
   5   6     0.09   0.02   0.04     0.03   0.01  -0.05     0.12   0.04  -0.23
   6   6     0.06   0.08   0.03     0.06  -0.03  -0.09    -0.01   0.00   0.00
   7   6     0.16  -0.04   0.04     0.05   0.07  -0.12    -0.00  -0.01   0.00
   8   1    -0.00  -0.01   0.05    -0.05  -0.03  -0.02    -0.00   0.00   0.00
   9   1    -0.00  -0.00  -0.07    -0.06   0.05   0.10    -0.00  -0.00  -0.00
  10   1     0.00  -0.09  -0.01     0.05   0.09   0.03    -0.00   0.00   0.00
  11   1     0.06  -0.03  -0.05     0.03  -0.02  -0.12    -0.00  -0.00  -0.00
  12   1    -0.02  -0.06  -0.02    -0.07  -0.10  -0.04     0.00  -0.00  -0.00
  13   1    -0.00   0.01  -0.03     0.08  -0.07   0.14    -0.00  -0.00  -0.00
  14   1     0.02   0.02  -0.01    -0.10  -0.15   0.04     0.00  -0.00   0.01
  15   1    -0.01   0.02   0.03     0.02   0.10   0.10    -0.02   0.03  -0.02
  16   1     0.01  -0.02   0.03     0.08  -0.06   0.11     0.00  -0.04  -0.02
  17   1    -0.03  -0.01  -0.02    -0.01  -0.00  -0.03    -0.45  -0.13   0.84
  18   1    -0.08  -0.11   0.21    -0.31  -0.02   0.05    -0.00  -0.02  -0.01
  19   1    -0.22  -0.25  -0.14     0.18  -0.09   0.06     0.01   0.01  -0.02
  20   1     0.01   0.07  -0.23    -0.09   0.21   0.28     0.02   0.01   0.00
  21   1    -0.28   0.05   0.35    -0.39  -0.18   0.08    -0.01   0.01  -0.01
  22   1    -0.50   0.23  -0.22     0.13   0.23   0.08     0.01  -0.00  -0.02
  23   1     0.09  -0.13  -0.30     0.04  -0.32   0.36     0.02   0.00   0.00
                     49                     50                     51
                        a                      a                      a 
 Frequencies --  2956.2754              2957.9786              2968.2251
 Red. masses --     1.8778                 1.8275                 1.9430
 Frc consts  --     0.0000                 0.0000                 0.0000
 IR Inten    --    32.2251                85.3374                97.7007
 Raman Activ --     0.0000                 0.0000                 0.0000
 Depolar     --     0.0000                 0.0000                 0.0000
 Atom AN      X      Y      Z        X      Y      Z        X      Y      Z
   1   6     0.00  -0.00  -0.00    -0.01  -0.00   0.01    -0.00  -0.01  -0.00
   2   6     0.00  -0.00  -0.00     0.13   0.07  -0.23     0.00  -0.02  -0.02
   3   6     0.11   0.11   0.06    -0.00  -0.03   0.01     0.15   0.13   0.10
   4   6     0.04  -0.22  -0.04     0.00  -0.02  -0.00    -0.05   0.18  -0.01
   5   6     0.00  -0.01  -0.01     0.00  -0.00  -0.00    -0.00   0.01  -0.00
   6   6     0.00   0.00   0.00     0.00   0.00  -0.00    -0.00  -0.01  -0.00
   7   6    -0.01   0.00  -0.00     0.00   0.00  -0.00     0.01  -0.00  -0.00
   8   1    -0.00   0.00   0.00     0.01  -0.02  -0.00    -0.00   0.01   0.00
   9   1     0.00   0.00  -0.00     0.02   0.04   0.00     0.00   0.01  -0.00
  10   1    -0.00  -0.00   0.01     0.02   0.00  -0.05    -0.00   0.00   0.00
  11   1     0.02   0.03  -0.00    -0.10  -0.19  -0.02     0.05   0.09  -0.01
  12   1    -0.01  -0.00   0.02    -0.37  -0.08   0.84    -0.04  -0.01   0.09
  13   1    -0.31  -0.46  -0.08     0.07   0.09   0.02    -0.35  -0.53  -0.08
  14   1    -0.08   0.04  -0.13    -0.05   0.01  -0.07    -0.18   0.07  -0.28
  15   1    -0.11   0.19  -0.19    -0.01   0.01  -0.01     0.17  -0.30   0.28
  16   1    -0.02   0.60   0.36    -0.00   0.04   0.02     0.01  -0.35  -0.22
  17   1    -0.01  -0.00   0.01    -0.00  -0.00   0.00    -0.00  -0.00   0.00
  18   1    -0.00  -0.01  -0.01    -0.00  -0.00  -0.00     0.00   0.01   0.01
  19   1    -0.00  -0.00   0.01    -0.00  -0.00   0.00    -0.00  -0.00   0.00
  20   1    -0.00  -0.00  -0.00    -0.00  -0.00  -0.00     0.02   0.00   0.00
  21   1     0.00  -0.00   0.00     0.00  -0.00  -0.00    -0.01   0.01  -0.01
  22   1    -0.00  -0.00  -0.00    -0.00  -0.00   0.01    -0.01  -0.00   0.01
  23   1     0.02   0.00   0.00    -0.00  -0.00  -0.00    -0.01  -0.00  -0.00
                     52                     53                     54
                        a                      a                      a 
 Frequencies --  2984.7941              2995.2078              2996.9847
 Red. masses --     1.5244                 1.6364                 1.5866
 Frc consts  --     0.0000                 0.0000                 0.0000
 IR Inten    --    75.9946                68.1827                84.7173
 Raman Activ --     0.0000                 0.0000                 0.0000
 Depolar     --     0.0000                 0.0000                 0.0000
 Atom AN      X      Y      Z        X      Y      Z        X      Y      Z
   1   6     0.00  -0.01  -0.01    -0.00  -0.04   0.00     0.01  -0.01  -0.01
   2   6     0.01   0.01  -0.01     0.10   0.20   0.03     0.01   0.03   0.04
   3   6     0.03   0.05   0.01     0.01   0.05  -0.02     0.08  -0.10   0.18
   4   6     0.07  -0.03   0.19    -0.01   0.02  -0.01     0.01  -0.03   0.02
   5   6    -0.00  -0.00   0.02    -0.00   0.00  -0.00     0.00  -0.00  -0.00
   6   6     0.00  -0.00  -0.00    -0.00  -0.00   0.00     0.01   0.01  -0.01
   7   6     0.00   0.00  -0.00     0.01   0.00   0.00     0.01   0.00  -0.00
   8   1    -0.01   0.01   0.00    -0.06   0.07   0.02    -0.03   0.04   0.01
   9   1     0.01   0.02  -0.00     0.07   0.10  -0.01     0.01   0.01  -0.00
  10   1    -0.01  -0.00   0.02     0.01  -0.01  -0.01    -0.01  -0.00   0.02
  11   1    -0.01  -0.02   0.00    -0.48  -0.77   0.05    -0.08  -0.13   0.01
  12   1    -0.01  -0.00   0.03     0.09   0.05  -0.17     0.07   0.02  -0.14
  13   1    -0.13  -0.19  -0.03    -0.10  -0.13  -0.03     0.20   0.25   0.08
  14   1     0.02   0.00   0.03     0.08  -0.01   0.11    -0.49   0.10  -0.72
  15   1    -0.30   0.57  -0.46     0.03  -0.06   0.05    -0.05   0.10  -0.08
  16   1     0.03  -0.46  -0.23    -0.00  -0.01  -0.01     0.00   0.01   0.01
  17   1     0.03   0.01  -0.05     0.00   0.00   0.00    -0.00  -0.00   0.01
  18   1     0.00   0.01   0.01     0.00   0.00   0.00    -0.00  -0.02  -0.01
  19   1    -0.00  -0.00   0.00     0.00   0.00  -0.00    -0.02  -0.01   0.05
  20   1    -0.01  -0.00  -0.00     0.01   0.00   0.00    -0.01  -0.00  -0.00
  21   1     0.01  -0.01   0.01     0.00   0.00  -0.00    -0.00   0.00  -0.00
  22   1    -0.00  -0.00   0.00     0.00  -0.00  -0.00    -0.01  -0.00   0.01
  23   1    -0.01  -0.00  -0.00    -0.03  -0.01  -0.00    -0.01  -0.00  -0.00
                     55                     56                     57
                        a                      a                      a 
 Frequencies --  3021.1782              3023.4123              3025.3031
 Red. masses --     1.9458                 1.9214                 1.9356
 Frc consts  --     0.0000                 0.0000                 0.0000
 IR Inten    --    50.0815               114.8664               127.5441
 Raman Activ --     0.0000                 0.0000                 0.0000
 Depolar     --     0.0000                 0.0000                 0.0000
 Atom AN      X      Y      Z        X      Y      Z        X      Y      Z
   1   6    -0.01  -0.03   0.01     0.09   0.26  -0.05    -0.02   0.01   0.02
   2   6    -0.00  -0.00   0.00     0.03   0.04  -0.00     0.00   0.00   0.00
   3   6     0.00   0.00   0.00     0.01   0.01   0.00     0.00  -0.00   0.01
   4   6    -0.00   0.01  -0.00     0.00   0.00   0.00     0.00  -0.00   0.00
   5   6    -0.01   0.00   0.00    -0.00   0.00  -0.00    -0.01  -0.01   0.00
   6   6     0.07   0.07   0.05     0.01   0.01   0.01    -0.23  -0.15  -0.00
   7   6    -0.25   0.05  -0.07    -0.03   0.01  -0.02    -0.09   0.01  -0.01
   8   1    -0.03   0.03   0.01     0.21  -0.23  -0.07     0.04  -0.05  -0.01
   9   1     0.06   0.09  -0.01    -0.47  -0.71   0.05     0.00   0.01   0.00
  10   1     0.01  -0.00  -0.03    -0.07   0.02   0.19     0.02   0.01  -0.05
  11   1     0.00  -0.00  -0.00    -0.08  -0.14   0.01    -0.01  -0.01   0.00
  12   1     0.00   0.00  -0.00    -0.00   0.00   0.01     0.00   0.00  -0.01
  13   1    -0.00  -0.01  -0.00    -0.01  -0.02  -0.00     0.01   0.01   0.00
  14   1    -0.00   0.00  -0.01    -0.01   0.00  -0.01    -0.02   0.00  -0.03
  15   1     0.01  -0.02   0.02    -0.00   0.00   0.00    -0.01   0.01  -0.01
  16   1    -0.00  -0.02  -0.01     0.00  -0.02  -0.01     0.00   0.00   0.00
  17   1     0.00   0.00  -0.01     0.00   0.00  -0.00     0.01   0.00  -0.02
  18   1    -0.00  -0.20  -0.13    -0.00  -0.03  -0.02    -0.01   0.31   0.21
  19   1     0.02   0.01  -0.01     0.00   0.00  -0.00     0.10   0.02  -0.30
  20   1    -0.24  -0.06  -0.02    -0.03  -0.01  -0.00     0.72   0.19   0.09
  21   1     0.22  -0.39   0.27     0.04  -0.06   0.04     0.07  -0.12   0.09
  22   1     0.00   0.02  -0.10    -0.01   0.00   0.00     0.02   0.01  -0.07
  23   1     0.67   0.19   0.08     0.07   0.02   0.01     0.25   0.07   0.03
                     58                     59                     60
                        a                      a                      a 
 Frequencies --  3026.8222              3027.0618              3030.2357
 Red. masses --     1.9249                 1.8873                 1.7813
 Frc consts  --     0.0000                 0.0000                 0.0000
 IR Inten    --    73.6640                65.7291                81.5106
 Raman Activ --     0.0000                 0.0000                 0.0000
 Depolar     --     0.0000                 0.0000                 0.0000
 Atom AN      X      Y      Z        X      Y      Z        X      Y      Z
   1   6     0.19  -0.11  -0.18    -0.02   0.01   0.02     0.01   0.00  -0.00
   2   6     0.01  -0.01  -0.02    -0.00  -0.00   0.00     0.00   0.00  -0.00
   3   6    -0.01  -0.00  -0.01     0.00  -0.00   0.00     0.00  -0.00   0.00
   4   6    -0.00  -0.00  -0.00    -0.00  -0.00   0.00     0.00   0.00   0.00
   5   6    -0.00   0.00   0.00    -0.00   0.01   0.00    -0.01  -0.00   0.02
   6   6    -0.03  -0.00   0.02    -0.09   0.11   0.19    -0.05   0.07   0.12
   7   6    -0.00   0.01  -0.02     0.08   0.09  -0.09    -0.04  -0.16   0.14
   8   1    -0.41   0.58   0.12     0.04  -0.06  -0.01    -0.00   0.01   0.00
   9   1    -0.05  -0.14  -0.02     0.02   0.03   0.00    -0.01  -0.02   0.00
  10   1    -0.21  -0.07   0.55     0.02   0.01  -0.06     0.00   0.00   0.00
  11   1     0.02   0.03  -0.00     0.00   0.01  -0.00    -0.01  -0.01   0.00
  12   1    -0.03  -0.01   0.06     0.00   0.00  -0.01    -0.00   0.00   0.00
  13   1     0.00   0.01  -0.00     0.00   0.00   0.00     0.00   0.00   0.00
  14   1     0.02  -0.00   0.03    -0.01   0.00  -0.01    -0.01   0.00  -0.01
  15   1     0.00  -0.01   0.01    -0.00   0.00  -0.00    -0.01   0.01  -0.01
  16   1    -0.00   0.01   0.00    -0.00  -0.00  -0.00    -0.00  -0.01  -0.01
  17   1     0.00   0.00  -0.00     0.00  -0.00  -0.01     0.02   0.01  -0.04
  18   1    -0.01  -0.02  -0.01    -0.05  -0.53  -0.31    -0.03  -0.34  -0.20
  19   1     0.03   0.01  -0.07     0.20   0.09  -0.42     0.12   0.06  -0.26
  20   1     0.08   0.02   0.01     0.16   0.06   0.05     0.06   0.03   0.03
  21   1     0.03  -0.04   0.03     0.16  -0.21   0.14    -0.34   0.49  -0.34
  22   1    -0.02  -0.00   0.03    -0.11  -0.02   0.23     0.12   0.01  -0.23
  23   1    -0.01  -0.00  -0.00    -0.34  -0.08  -0.06     0.35   0.07   0.07
                     61                     62                     63
                        a                      a                      a 
 Frequencies --  3038.6402              3039.7872              3043.7200
 Red. masses --     1.2894                 1.3037                 1.4072
 Frc consts  --     0.0000                 0.0000                 0.0000
 IR Inten    --    64.5307                35.1849                54.8796
 Raman Activ --     0.0000                 0.0000                 0.0000
 Depolar     --     0.0000                 0.0000                 0.0000
 Atom AN      X      Y      Z        X      Y      Z        X      Y      Z
   1   6     0.06  -0.04   0.14    -0.01   0.01  -0.02     0.00  -0.00   0.01
   2   6     0.00  -0.00   0.01     0.00   0.00   0.00     0.00   0.00   0.00
   3   6     0.00   0.00   0.00     0.00  -0.00   0.01    -0.00   0.00  -0.01
   4   6     0.00  -0.00   0.00    -0.00  -0.00  -0.00     0.00   0.00   0.00
   5   6     0.00  -0.00   0.00     0.00  -0.00  -0.00     0.00  -0.00  -0.01
   6   6     0.01  -0.01   0.02     0.04  -0.08   0.10    -0.02   0.03  -0.07
   7   6     0.00   0.00  -0.00     0.03  -0.02  -0.08     0.04  -0.03  -0.17
   8   1    -0.31   0.41   0.12     0.05  -0.07  -0.02    -0.02   0.03   0.01
   9   1    -0.20  -0.32   0.04     0.03   0.05  -0.01    -0.01  -0.02   0.00
  10   1     0.29   0.05  -0.66    -0.04  -0.01   0.09     0.03   0.01  -0.06
  11   1     0.01   0.01   0.00    -0.01  -0.01   0.00    -0.00  -0.00   0.00
  12   1     0.00   0.00  -0.00     0.00   0.00  -0.01     0.00   0.00  -0.01
  13   1    -0.00  -0.01  -0.00     0.01   0.01   0.00    -0.00  -0.00  -0.00
  14   1    -0.00   0.00  -0.00    -0.02   0.00  -0.02     0.02  -0.00   0.03
  15   1    -0.01   0.01  -0.01    -0.00   0.00  -0.00    -0.00   0.00  -0.00
  16   1     0.00  -0.00  -0.00    -0.00   0.01   0.01     0.00  -0.00  -0.00
  17   1     0.00  -0.00   0.00    -0.00  -0.00   0.01    -0.01  -0.00   0.01
  18   1     0.00   0.06   0.04     0.02   0.35   0.24    -0.01  -0.11  -0.08
  19   1     0.05   0.02  -0.11     0.27   0.08  -0.56    -0.15  -0.05   0.30
  20   1    -0.08  -0.03  -0.01    -0.42  -0.13  -0.04     0.22   0.06   0.02
  21   1     0.01  -0.01   0.01    -0.05   0.09  -0.07    -0.09   0.15  -0.13
  22   1     0.00   0.00  -0.00    -0.17  -0.05   0.36    -0.35  -0.09   0.71
  23   1    -0.02  -0.00  -0.00     0.11   0.03   0.00     0.30   0.07   0.01
