! r2scan-3c def2/J RI DEFGRID2 scfconv6 printgap
%output
    printlevel normal
end
%cpcm
    smd true
    smdsolvent "water"
end
* xyz 0 1
C 2.0289566781 1.278667233 -0.3534142358
C 1.2025730002 0.0042976107 -0.4134664224
C 2.0677995579 -1.2449219817 -0.375530964
S 0.0237385587 -0.0284670774 1.0120011585
C -1.6390265414 -0.0038182021 0.2146760171
C -1.8647373904 1.2798207185 -0.5668170221
C -1.8786592386 -1.2551337487 -0.6137866162
H 1.3844249789 2.1542990832 -0.370390261
H 2.614437588 1.3013107217 0.5629781134
H 2.7060745603 1.3238221446 -1.2039332633
H 0.5839712091 0.0019971882 -1.3114750381
H 2.652828352 -1.2666927651 0.5411813181
H 2.7467535104 -1.2535509595 -1.2257045854
H 1.4501072722 -2.1392101777 -0.4095907109
H -2.2910977313 -0.0166131625 1.09245974
H -1.2194845009 1.3260615677 -1.4416053006
H -2.8985135945 1.3259346623 -0.9021822137
H -1.662323135 2.1442712735 0.0611803606
H -1.6869260347 -2.1443167197 -0.0178276343
H -1.2327421739 -1.277006571 -1.4890572761
H -2.9123847404 -1.276846702 -0.9517089002
*
