      -----------------------------------------------------------      
     |                   =====================                   |     
     |                           x T B                           |     
     |                   =====================                   |     
     |                         S. Grimme                         |     
     |          Mulliken Center for Theoretical Chemistry        |     
     |                    University of Bonn                     |     
      -----------------------------------------------------------      

   * xtb version 6.7.1 (edcfbbe) compiled by 'albert@albert-system' on 2024-07-22

   xtb is free software: you can redistribute it and/or modify it under
   the terms of the GNU Lesser General Public License as published by
   the Free Software Foundation, either version 3 of the License, or
   (at your option) any later version.
   
   xtb is distributed in the hope that it will be useful,
   but WITHOUT ANY WARRANTY; without even the implied warranty of
   MERCHANTABILITY or FITNESS FOR A PARTICULAR PURPOSE.  See the
   GNU Lesser General Public License for more details.
   
   Cite this work as:
   * C. Bannwarth, E. Caldeweyher, S. Ehlert, A. Hansen, P. Pracht,
     J. Seibert, S. Spicher, S. Grimme, WIREs Comput. Mol. Sci., 2020, 11,
     e01493. DOI: 10.1002/wcms.1493
   
   for GFN2-xTB:
   * C. Bannwarth, S. Ehlert and S. Grimme., J. Chem. Theory Comput., 2019,
     15, 1652-1671. DOI: 10.1021/acs.jctc.8b01176
   for GFN1-xTB:
   * S. Grimme, C. Bannwarth, P. Shushkov, J. Chem. Theory Comput., 2017,
     13, 1989-2009. DOI: 10.1021/acs.jctc.7b00118
   for GFN0-xTB:
   * P. Pracht, E. Caldeweyher, S. Ehlert, S. Grimme, ChemRxiv, 2019, preprint.
     DOI: 10.26434/chemrxiv.8326202.v1
   for GFN-FF:
   * S. Spicher and S. Grimme, Angew. Chem. Int. Ed., 2020, 59, 15665-15673.
     DOI: 10.1002/anie.202004239
   
   for ALPB and GBSA implicit solvation:
   * S. Ehlert, M. Stahn, S. Spicher, S. Grimme, J. Chem. Theory Comput.,
     2021, 17, 4250-4261. DOI: 10.1021/acs.jctc.1c00471
   
   for ddCOSMO and CPCM-X implicit solvation:
   * M. Stahn, S. Ehlert, S. Grimme, J. Phys. Chem. A,
     2023, XX, XXXX-XXXX. DOI: 10.1021/acs.jpca.3c04382
   
   for DFT-D4:
   * E. Caldeweyher, C. Bannwarth and S. Grimme, J. Chem. Phys., 2017,
     147, 034112. DOI: 10.1063/1.4993215
   * E. Caldeweyher, S. Ehlert, A. Hansen, H. Neugebauer, S. Spicher,
     C. Bannwarth and S. Grimme, J. Chem. Phys., 2019, 150, 154122.
     DOI: 10.1063/1.5090222
   * E. Caldeweyher, J.-M. Mewes, S. Ehlert and S. Grimme, Phys. Chem. Chem. Phys.
     2020, 22, 8499-8512. DOI: 10.1039/D0CP00502A
   
   for sTDA-xTB:
   * S. Grimme and C. Bannwarth, J. Chem. Phys., 2016, 145, 054103.
     DOI: 10.1063/1.4959605
   
   in the mass-spec context:
   * V. Asgeirsson, C. Bauer and S. Grimme, Chem. Sci., 2017, 8, 4879.
     DOI: 10.1039/c7sc00601b
   * J. Koopman and S. Grimme, ACS Omega 2019, 4, 12, 15120-15133.
     DOI: 10.1021/acsomega.9b02011
   
   for metadynamics refer to:
   * S. Grimme, J. Chem. Theory Comput., 2019, 155, 2847-2862
     DOI: 10.1021/acs.jctc.9b00143
   
   for SPH calculations refer to:
   * S. Spicher and S. Grimme, J. Chem. Theory Comput., 2021, 17, 1701-1714
     DOI: 10.1021/acs.jctc.0c01306
   
   for ONIOM refer to:
   * C. Plett, A. Katbashev, S. Ehlert, S. Grimme, M. Bursch,
     Phys. Chem. Chem. Phys., 2023, 25, 17860-17868. DOI: 10.1039/D3CP02178E
   
   for DIPRO refer to:
   * J. Kohn, N. Gildemeister, S. Grimme, D. Fazzi, A. Hansen,
     J. Chem. Phys., 2023, just accepted.
   
   for PTB refer to:
   * S. Grimme, M. Mueller, A. Hansen, J. Chem. Phys., 2023, 158, 124111.
     DOI: 10.1063/5.0137838
   
   with help from (in alphabetical order)
   P. Atkinson, C. Bannwarth, F. Bohle, G. Brandenburg, E. Caldeweyher
   M. Checinski, S. Dohm, S. Ehlert, S. Ehrlich, I. Gerasimov, C. Hölzer
   A. Katbashev, J. Kohn, J. Koopman, C. Lavigne, S. Lehtola, F. März, M. Müller,
   F. Musil, H. Neugebauer, J. Pisarek, C. Plett, P. Pracht, F. Pultar,
   J. Seibert, P. Shushkov, S. Spicher, M. Stahn, M. Steiner, T. Strunk,
   J. Stückrath, T. Rose, and J. Unsleber
   
 * started run on 2025/04/11 at 16:20:26.892     
   ID    Z sym.   atoms
    1    6 C      1-5
    2   35 Br     6
    3    1 H      7-17

           -------------------------------------------------
          |                Calculation Setup                |
           -------------------------------------------------

          program call               : /srv/scratch/z5358697/.xtb/bin/xtb xtb_rrho.coord --gfn2 --bhess vtight --chrg 0 --enso --norestart -I rrho-xcontrol-inp --parallel 1 --alpb water
          hostname                   : k124
          coordinate file            : xtb_rrho.coord
          omp threads                :                     1


           -------------------------------------------------
          |                 G F N 2 - x T B                 |
           -------------------------------------------------

        Reference                      10.1021/acs.jctc.8b01176
      * Hamiltonian:
        H0-scaling (s, p, d)           1.850000    2.230000    2.230000
        zeta-weighting                 0.500000
      * Dispersion:
        s8                             2.700000
        a1                             0.520000
        a2                             5.000000
        s9                             5.000000
      * Repulsion:
        kExp                           1.500000    1.000000
        rExp                           1.000000
      * Coulomb:
        alpha                          2.000000
        third order                    shell-resolved
        anisotropic                    true
        a3                             3.000000
        a5                             4.000000
        cn-shift                       1.200000
        cn-exp                         4.000000
        max-rad                        5.000000

      * Solvation model:               ALPB
        Solvent                        water
        Parameter file                 internal GFN2-xTB/ALPB
        Dielectric constant                8.0200E+01
        Reference state                gsolv [1 M gas/solution]
        Free energy shift                  1.0808E-03 Eh       6.7819E-01 kcal/mol
        Temperature                        2.9815E+02 K
        Density                            1.0000E+00 kg/L
        Solvent mass                       1.8000E+01 g/mol
        Interaction kernel             P16
        Born radius scaling (c1)           1.4744E+00
        Born radii integrator          GBOBC
        Born offset                        0.0000E+00 a0       0.0000E+00 AA
        H-bond correction              true
        Ion screening                  false
        Surface tension                    1.0000E-05 Eh       1.5569E+01 dyn/cm
        Grid points                               974 per atom

          ...................................................
          :                      SETUP                      :
          :.................................................:
          :  # basis functions                  41          :
          :  # atomic orbitals                  40          :
          :  # shells                           24          :
          :  # electrons                        38          :
          :  max. iterations                   250          :
          :  Hamiltonian                  GFN2-xTB          :
          :  restarted?                      false          :
          :  GBSA solvation                   true          :
          :  PC potential                    false          :
          :  electronic temp.          300.0000000     K    :
          :  accuracy                    1.0000000          :
          :  -> integral cutoff          0.2500000E+02      :
          :  -> integral neglect         0.1000000E-07      :
          :  -> SCF convergence          0.1000000E-05 Eh   :
          :  -> wf. convergence          0.1000000E-03 e    :
          :  Broyden damping             0.4000000          :
          :  net charge                          0          :
          :  unpaired electrons                  0          :
          ...................................................

 iter      E             dE          RMSdq      gap      omega  full diag
   1    -20.5955123 -0.205955E+02  0.368E+00    5.76       0.0  T
   2    -20.6352981 -0.397858E-01  0.255E+00    5.05       1.0  T
   3    -20.6377409 -0.244279E-02  0.906E-01    5.17       1.0  T
   4    -20.6390743 -0.133339E-02  0.388E-01    5.01       1.0  T
   5    -20.6392181 -0.143853E-03  0.252E-01    5.02       1.0  T
   6    -20.6393483 -0.130185E-03  0.150E-01    4.98       1.0  T
   7    -20.6394070 -0.586741E-04  0.881E-02    4.97       1.0  T
   8    -20.6394311 -0.240794E-04  0.186E-02    4.96       1.3  T
   9    -20.6394316 -0.511794E-06  0.834E-03    4.96       2.9  T
  10    -20.6394317 -0.945965E-07  0.238E-03    4.96      10.2  T
  11    -20.6394317 -0.839465E-08  0.156E-03    4.96      15.5  T
  12    -20.6394317 -0.556786E-08  0.585E-04    4.96      41.5  T
  13    -20.6394317 -0.437200E-09  0.206E-04    4.96     117.6  T

   *** convergence criteria satisfied after 13 iterations ***

         #    Occupation            Energy/Eh            Energy/eV
      -------------------------------------------------------------
         1        2.0000           -0.8378695             -22.7996
       ...           ...                  ...                  ...
        13        2.0000           -0.4633252             -12.6077
        14        2.0000           -0.4515261             -12.2867
        15        2.0000           -0.4362269             -11.8703
        16        2.0000           -0.4293291             -11.6826
        17        2.0000           -0.4256406             -11.5823
        18        2.0000           -0.4074220             -11.0865
        19        2.0000           -0.4065089             -11.0617 (HOMO)
        20                         -0.2243104              -6.1038 (LUMO)
        21                          0.0233810               0.6362
        22                          0.0369516               1.0055
        23                          0.0421138               1.1460
        24                          0.0528430               1.4379
       ...                                ...                  ...
        40                          0.3333732               9.0715
      -------------------------------------------------------------
                  HL-Gap            0.1821984 Eh            4.9579 eV
             Fermi-level           -0.3154097 Eh           -8.5827 eV

 SCC (total)                   0 d,  0 h,  0 min,  0.014 sec
 SCC setup                      ...        0 min,  0.001 sec (  7.723%)
 Dispersion                     ...        0 min,  0.000 sec (  0.588%)
 classical contributions        ...        0 min,  0.000 sec (  0.131%)
 integral evaluation            ...        0 min,  0.002 sec ( 16.769%)
 iterations                     ...        0 min,  0.006 sec ( 43.522%)
 molecular gradient             ...        0 min,  0.004 sec ( 30.026%)
 printout                       ...        0 min,  0.000 sec (  1.094%)

         :::::::::::::::::::::::::::::::::::::::::::::::::::::
         ::                     SUMMARY                     ::
         :::::::::::::::::::::::::::::::::::::::::::::::::::::
         :: total energy             -20.403483498152 Eh    ::
         :: total w/o Gsasa/hb       -20.402511982553 Eh    ::
         :: gradient norm              0.019468275882 Eh/a0 ::
         :: HOMO-LUMO gap              4.957872026554 eV    ::
         ::.................................................::
         :: SCC energy               -20.639397897371 Eh    ::
         :: -> isotropic ES            0.012007081931 Eh    ::
         :: -> anisotropic ES          0.004065296569 Eh    ::
         :: -> anisotropic XC          0.009942633121 Eh    ::
         :: -> dispersion             -0.010756378035 Eh    ::
         :: -> Gsolv                  -0.003864244459 Eh    ::
         ::    -> Gelec               -0.002892728859 Eh    ::
         ::    -> Gsasa               -0.001026739082 Eh    ::
         ::    -> Ghb                 -0.001025536215 Eh    ::
         ::    -> Gshift               0.001080759698 Eh    ::
         :: repulsion energy           0.235914399219 Eh    ::
         :: add. restraining           0.000000000000 Eh    ::
         :: total charge               0.000000000000 e     ::
         :::::::::::::::::::::::::::::::::::::::::::::::::::::

metadynamics with 1 initial structures loaded
           -------------------------------------------------
          |           Optimal kpush determination           |
           -------------------------------------------------
      ----------------------------------------------------------- 
     |                   =====================                   |
     |                        A N C O P T                        |
     |                   =====================                   |
     |               Approximate Normal Coordinate               |
     |                Rational Function Optimizer                |
      ----------------------------------------------------------- 
target rmsd / Å         0.100000
unbiased initial rmsd   0.046300
 
iter. min.        max.        rmsd       kpush
final kpush:  0.000000
           -------------------------------------------------
          |            Biased Numerical Hessian             |
           -------------------------------------------------
kpush                :   0.00000
alpha                :   1.00000
step length          :   0.00500
SCC accuracy         :   0.30000
Hessian scale factor :   1.00000
frozen atoms in %    :   0.00000    0
RMS gradient         :   0.00003
estimated CPU  time      0.01 min
estimated wall time      0.01 min

writing file <hessian>.

 projected vibrational frequencies (cm⁻¹)
eigval :       -0.00    -0.00    -0.00    -0.00     0.00     0.00
eigval :       33.93    87.52   115.53   196.71   219.29   307.71
eigval :      411.46   429.03   529.34   795.65   819.77   865.13
eigval :      902.82   964.92   996.90  1062.08  1094.91  1114.98
eigval :     1138.41  1159.64  1210.84  1237.07  1256.66  1276.19
eigval :     1320.36  1350.02  1363.31  1416.23  1427.81  1463.01
eigval :     1487.26  1494.37  1501.75  1503.45  2965.74  2970.35
eigval :     2973.68  2990.93  2993.73  2994.82  3000.77  3005.96
eigval :     3026.06  3030.80  3042.01
           -------------------------------------------------
          |                Property Printout                |
           -------------------------------------------------

    * Orbital Energies and Occupations

         #    Occupation            Energy/Eh            Energy/eV
      -------------------------------------------------------------
         1        2.0000           -0.8393401             -22.8396
       ...           ...                  ...                  ...
         7        2.0000           -0.5300975             -14.4247
         8        2.0000           -0.5242040             -14.2643
         9        2.0000           -0.5116332             -13.9222
        10        2.0000           -0.4950244             -13.4703
        11        2.0000           -0.4866103             -13.2413
        12        2.0000           -0.4741363             -12.9019
        13        2.0000           -0.4639683             -12.6252
        14        2.0000           -0.4529438             -12.3252
        15        2.0000           -0.4353824             -11.8474
        16        2.0000           -0.4300975             -11.7035
        17        2.0000           -0.4269842             -11.6188
        18        2.0000           -0.4081674             -11.1068
        19        2.0000           -0.4070133             -11.0754 (HOMO)
        20                         -0.2183558              -5.9418 (LUMO)
        21                          0.0197257               0.5368
        22                          0.0349916               0.9522
        23                          0.0397664               1.0821
        24                          0.0528590               1.4384
        25                          0.0724597               1.9717
        26                          0.0867188               2.3597
        27                          0.1118561               3.0438
        28                          0.1249141               3.3991
        29                          0.1402313               3.8159
        30                          0.1559413               4.2434
       ...                                ...                  ...
        40                          0.3636455               9.8953
      -------------------------------------------------------------
                  HL-Gap            0.1886575 Eh            5.1336 eV
             Fermi-level           -0.3126846 Eh           -8.5086 eV

     #   Z          covCN         q      C6AA      α(0)
     1   6 C        3.752    -0.111    22.687     6.792
     2   6 C        3.800    -0.058    21.620     6.620
     3   6 C        3.801    -0.061    21.679     6.629
     4   6 C        3.844    -0.063    21.669     6.622
     5   6 C        3.738     0.022    20.275     6.425
     6  35 Br       0.959    -0.247   191.904    22.336
     7   1 H        0.925     0.038     2.479     2.462
     8   1 H        0.925     0.036     2.499     2.472
     9   1 H        0.925     0.037     2.492     2.469
    10   1 H        0.924     0.041     2.440     2.443
    11   1 H        0.924     0.033     2.546     2.495
    12   1 H        0.924     0.038     2.477     2.461
    13   1 H        0.924     0.042     2.418     2.432
    14   1 H        0.924     0.058     2.221     2.331
    15   1 H        0.924     0.058     2.220     2.330
    16   1 H        0.926     0.068     2.104     2.268
    17   1 H        0.926     0.068     2.102     2.267

 Mol. C6AA /au·bohr⁶  :       2904.024743
 Mol. C8AA /au·bohr⁸  :      86033.018739
 Mol. α(0) /au        :         81.854594


Wiberg/Mayer (AO) data.
largest (>0.10) Wiberg bond orders for each atom

 ---------------------------------------------------------------------------
     #   Z sym  total        # sym  WBO       # sym  WBO       # sym  WBO
 ---------------------------------------------------------------------------
     1   6 C    3.996 --     2 C    1.021     7 H    0.987     9 H    0.987
                             8 H    0.985
     2   6 C    3.997 --     1 C    1.021     3 C    1.009    11 H    0.978
                            10 H    0.975
     3   6 C    3.996 --     2 C    1.009     4 C    1.003    13 H    0.978
                            12 H    0.976
     4   6 C    3.991 --     5 C    1.022     3 C    1.003    15 H    0.971
                            14 H    0.963
     5   6 C    3.935 --     4 C    1.022    16 H    0.976    17 H    0.975
                             6 Br   0.942
     6  35 Br   1.002 --     5 C    0.942
     7   1 H    0.998 --     1 C    0.987
     8   1 H    0.999 --     1 C    0.985
     9   1 H    0.999 --     1 C    0.987
    10   1 H    0.998 --     2 C    0.975
    11   1 H    0.999 --     2 C    0.978
    12   1 H    0.999 --     3 C    0.976
    13   1 H    0.998 --     3 C    0.978
    14   1 H    0.997 --     4 C    0.963
    15   1 H    0.997 --     4 C    0.971
    16   1 H    0.995 --     5 C    0.976
    17   1 H    0.995 --     5 C    0.975
 ---------------------------------------------------------------------------

Topologies differ in total number of bonds
Writing topology from bond orders to xtbtopo.mol

molecular dipole:
                 x           y           z       tot (Debye)
 q only:       -0.639       0.943      -0.009
   full:       -0.746       1.451      -0.028       4.147
molecular quadrupole (traceless):
                xx          xy          yy          xz          yz          zz
 q only:       -1.766       1.623       2.276      -0.102       0.098      -0.510
  q+dip:       -2.804       4.183       1.363       0.225      -0.001       1.441
   full:       -2.835       3.765       2.300       0.039       0.052       0.536

           -------------------------------------------------
          |                Geometry Summary                 |
           -------------------------------------------------

      molecular mass/u    :      151.0445555
   center of mass at/Å    :        0.0102755       0.0103975      -0.0233660
  moments of inertia/u·Å² :        0.1235679E+03   0.4913091E+03   0.5613194E+03
rotational constants/cm⁻¹ :        0.1364240E+00   0.3431166E-01   0.3003216E-01

 * 16 selected distances

     #   Z          #   Z                                           value/Å
     1   6 C        2   6 C                                       1.5245103
     2   6 C        3   6 C                                       1.5306502
     3   6 C        4   6 C                                       1.5369192
     4   6 C        5   6 C                                       1.5162147
     5   6 C        6  35 Br                                      1.9752312 (max)
     1   6 C        7   1 H                                       1.0877947
     1   6 C        8   1 H                                       1.0872962
     1   6 C        9   1 H                                       1.0870955 (min)
     2   6 C       10   1 H                                       1.0913582
     2   6 C       11   1 H                                       1.0919770
     3   6 C       12   1 H                                       1.0922528
     3   6 C       13   1 H                                       1.0910570
     4   6 C       14   1 H                                       1.0921139
     4   6 C       15   1 H                                       1.0910042
     5   6 C       16   1 H                                       1.0886745
     5   6 C       17   1 H                                       1.0887007

 * 3 distinct bonds (by element types)

   Z      Z             #   av. dist./Å        max./Å        min./Å
   1 H    6 C          11     1.0899386     1.0922528     1.0870955
   6 C    6 C           4     1.5270736     1.5369192     1.5162147
   6 C   35 Br          1     1.9752312     1.9752312     1.9752312

           -------------------------------------------------
          |               Frequency Printout                |
           -------------------------------------------------
 projected vibrational frequencies (cm⁻¹)
eigval :       -0.00    -0.00    -0.00    -0.00     0.00     0.00
eigval :       33.93    87.52   115.53   196.71   219.29   307.71
eigval :      411.46   429.03   529.34   795.65   819.77   865.13
eigval :      902.82   964.92   996.90  1062.08  1094.91  1114.98
eigval :     1138.41  1159.64  1210.84  1237.07  1256.66  1276.19
eigval :     1320.36  1350.02  1363.31  1416.23  1427.81  1463.01
eigval :     1487.26  1494.37  1501.75  1503.45  2965.74  2970.35
eigval :     2973.68  2990.93  2993.73  2994.82  3000.77  3005.96
eigval :     3026.06  3030.80  3042.01
 reduced masses (amu)
   1: 10.22   2: 10.94   3: 61.62   4: 63.12   5: 47.74   6: 24.39   7: 17.23   8: 23.30
   9:  9.97  10: 11.76  11: 10.50  12:  8.31  13: 11.18  14:  6.81  15: 16.38  16:  3.77
  17:  4.49  18:  5.99  19:  6.79  20:  5.20  21:  5.88  22:  7.94  23:  3.77  24:  4.71
  25:  8.09  26:  4.83  27:  3.66  28:  3.11  29:  2.75  30:  2.70  31:  3.83  32:  4.36
  33:  4.71  34:  3.19  35:  1.99  36:  1.89  37:  1.88  38:  1.83  39:  1.61  40:  1.58
  41:  1.90  42:  1.84  43:  1.90  44:  1.52  45:  1.68  46:  1.65  47:  1.52  48:  1.92
  49:  1.92  50:  1.91  51:  1.31
 IR intensities (km·mol⁻¹)
   1:  2.85   2:  0.41   3:  0.14   4:  0.72   5:  0.39   6:  1.09   7:  1.22   8:  1.52
   9:  0.62  10:  2.04  11:  0.42  12:  1.01  13:  3.42  14:  1.41  15:  5.85  16:  9.35
  17:  7.56  18:  1.71  19:  4.40  20:  9.01  21:  0.89  22:  4.68  23:  1.22  24:  0.37
  25:  1.86  26:  2.41  27:  9.44  28:  2.28  29: 49.20  30:  4.48  31:  1.97  32:  4.64
  33:  1.46  34:  0.79  35:  4.02  36:  2.72  37:  2.84  38:  3.36  39:  0.40  40:  1.92
  41: 42.46  42: 23.98  43: 52.01  44: 33.57  45: 15.56  46: 72.22  47: 16.78  48: 29.92
  49: 93.02  50: 77.65  51: 38.53
 Raman intensities (Ä⁴*amu⁻¹)
   1:  0.00   2:  0.00   3:  0.00   4:  0.00   5:  0.00   6:  0.00   7:  0.00   8:  0.00
   9:  0.00  10:  0.00  11:  0.00  12:  0.00  13:  0.00  14:  0.00  15:  0.00  16:  0.00
  17:  0.00  18:  0.00  19:  0.00  20:  0.00  21:  0.00  22:  0.00  23:  0.00  24:  0.00
  25:  0.00  26:  0.00  27:  0.00  28:  0.00  29:  0.00  30:  0.00  31:  0.00  32:  0.00
  33:  0.00  34:  0.00  35:  0.00  36:  0.00  37:  0.00  38:  0.00  39:  0.00  40:  0.00
  41:  0.00  42:  0.00  43:  0.00  44:  0.00  45:  0.00  46:  0.00  47:  0.00  48:  0.00
  49:  0.00  50:  0.00  51:  0.00
 output can be read by thermo (or use thermo option).
 writing <g98.out> molden fake output.
 recommended (thermochemical) frequency scaling factor: 1.0
           -------------------------------------------------
          |             Thermodynamic Functions             |
           -------------------------------------------------

Refinement of some symmetry elements was terminated before convergence was reached.
Some symmetry elements may remain unidentified.
Molecule has no symmetry elements
It seems to be the C1 point group
c1  symmetry found (for desy threshold:  0.10E+00) used in thermo

          ...................................................
          :                      SETUP                      :
          :.................................................:
          :  # frequencies                          45      :
          :  # imaginary freq.                       0      :
          :  linear?                             false      :
          :  only rotor calc.                    false      :
          :  symmetry                               c1      :
          :  rotational number                       1      :
          :  scaling factor                  1.0000000      :
          :  rotor cutoff                    0.0000000 cm⁻¹ :
          :  imag. cutoff                 -100.0000000 cm⁻¹ :
          :.................................................:

    mode    ω/cm⁻¹     T·S(HO)/kcal·mol⁻¹    T·S(FR)/kcal·mol⁻¹   T·S(vib)
   ------------------------------------------------------------------------
       1     33.93    -1.66528 (100.00%)    -1.17105 (  0.00%)    -1.66528
       2     87.52    -1.10755 (100.00%)    -0.89056 (  0.00%)    -1.10755
       3    115.53    -0.94625 (100.00%)    -0.80832 (  0.00%)    -0.94625
       4    196.71    -0.64509 (100.00%)    -0.65072 (  0.00%)    -0.64509
       5    219.29    -0.58586 (100.00%)    -0.61854 (  0.00%)    -0.58586
   ------------------------------------------------------------------------

   temp. (K)  partition function   enthalpy   heat capacity  entropy
                                   cal/mol     cal/K/mol   cal/K/mol   J/K/mol
 298.15  VIB   238.                 3271.991     21.379     21.851
         ROT  0.446E+06              888.752      2.981     28.831
         INT  0.106E+09             4160.743     24.360     50.682
         TR   0.180E+28             1481.254      4.968     40.929
         TOT                        5641.9969    29.3280    91.6107   383.2993

       T/K    H(0)-H(T)+PV         H(T)/Eh          T*S/Eh         G(T)/Eh
   ------------------------------------------------------------------------
    298.15    0.899109E-02    0.158323E+00    0.435272E-01    0.114795E+00
   ------------------------------------------------------------------------

         :::::::::::::::::::::::::::::::::::::::::::::::::::::
         ::                  THERMODYNAMIC                  ::
         :::::::::::::::::::::::::::::::::::::::::::::::::::::
         :: total free energy         -20.289589558393 Eh   ::
         ::.................................................::
         :: total energy              -20.404384869724 Eh   ::
         :: zero point energy           0.149331431797 Eh   ::
         :: G(RRHO) w/o ZPVE           -0.034536120466 Eh   ::
         :: G(RRHO) contrib.            0.114795311331 Eh   ::
         :::::::::::::::::::::::::::::::::::::::::::::::::::::

optimized geometry written to: xtbopt.coord


           -------------------------------------------------
          | TOTAL ENERGY              -20.404384869724 Eh   |
          | TOTAL ENTHALPY            -20.246062343556 Eh   |
          | TOTAL FREE ENERGY         -20.289589558393 Eh   |
          | GRADIENT NORM               0.000028670766 Eh/α |
          | HOMO-LUMO GAP               5.133630667427 eV   |
           -------------------------------------------------

------------------------------------------------------------------------
 * finished run on 2025/04/11 at 16:20:28.011     
------------------------------------------------------------------------
 total:
 * wall-time:     0 d,  0 h,  0 min,  1.119 sec
 *  cpu-time:     0 d,  0 h,  0 min,  1.033 sec
 * ratio c/w:     0.923 speedup
 SCF:
 * wall-time:     0 d,  0 h,  0 min,  0.014 sec
 *  cpu-time:     0 d,  0 h,  0 min,  0.014 sec
 * ratio c/w:     0.990 speedup
 analytical hessian:
 * wall-time:     0 d,  0 h,  0 min,  0.886 sec
 *  cpu-time:     0 d,  0 h,  0 min,  0.873 sec
 * ratio c/w:     0.986 speedup

