26
 xtb: 6.7.1 (edcfbbe)
C            1.22439313478917       -0.57374065659516       -1.72521522975238
C            1.86241920883397       -0.64324258332806       -0.34126487874565
C            3.05322549758349       -1.60997039905518       -0.37399885646622
C            0.98988790635530       -1.02834268129806        0.82109085679088
N           -0.26283325495263       -0.93499761941051        1.06718176858151
O           -0.97573440057383       -0.37043901099367       -0.03172780412240
C           -2.31578256062023       -0.17575915377482        0.24803014199581
O           -2.87637159362045       -0.52391485764482        1.27784624967643
N           -2.89014385492528        0.46324984221237       -0.78383917886255
C           -4.33341611618411        0.66345899636936       -0.82125192304170
S            2.59193432040389        1.00092113244705        0.18014122931934
C            1.12301176595352        2.07745464219015        0.30949453479723
H            0.52507332069912        0.25326202716259       -1.83917229708089
H            2.01919579209762       -0.46437368784627       -2.46852874543179
H            0.68771332424958       -1.50676643031274       -1.92944068206135
H            3.54857302771438       -1.67920299251622        0.59872007165473
H            3.78220453271004       -1.28388684261955       -1.12082469496891
H            2.69621971215113       -2.60648867298548       -0.65372383799423
H            1.52540946930056       -1.44757541806004        1.67418586824195
H           -2.34480089011753        0.61285047699847       -1.61999616660170
H           -4.87175452113293       -0.28758385112063       -0.89795330063140
H           -4.57058048795281        1.27535170884868       -1.69198589167360
H           -4.66962476649987        1.18802256470277        0.07668921941391
H            1.49805174277945        3.06326634921689        0.59891977138623
H            0.43903166743005        1.72276052536125        1.08580771653133
H            0.60163992588730        2.16674445464927       -0.64672302813196
