! pbe def2-sv(p) def2/J RI DEFGRID1 loosescf d4 GCP(DFT/SV(P)) printgap
%output
    printlevel normal
end
* xyz 0 1
C -4.5498264857 -1.0914764165 -0.3639351597
C -3.8127990199 -2.2567994069 -0.203771833
C -2.4445043032 -2.1907963695 -0.0179002855
C -1.7879524718 -0.9620017775 0.0115445243
C -2.532761349 0.2114402911 -0.1500358059
C -3.9118414464 0.1340766186 -0.3369034569
C -1.8770614314 1.5242415328 -0.1262297472
O -2.5169190068 2.5647135309 -0.2674057376
C -0.4173750024 1.5358098355 0.0756650247
C 0.1987948503 2.7745594006 0.0902528865
C 1.5757527425 2.8734584164 0.2731762123
C 2.3298528083 1.7455267301 0.4489957917
C 1.7466562249 0.4542741891 0.4484787798
C 0.332398863 0.3472623706 0.2473559844
C -0.3258168574 -0.9404588147 0.2130507258
O 0.2754140718 -2.0235799869 0.3387593089
N 2.4796650123 -0.649618011 0.6365874231
C 3.9006169318 -0.7869063555 0.8246383784
C 4.5218678355 -1.6401647445 -0.2938371664
O 4.5836744831 -0.9626781216 -1.5283677362
H -5.6174537372 -1.1402746381 -0.5092246474
H -4.3059981703 -3.2159358309 -0.2242360732
H -1.8544290471 -3.0863916151 0.1085661499
H -4.4592391775 1.057050507 -0.4588143182
H -0.4129695503 3.6530399237 -0.0452185951
H 2.0461188664 3.8440489195 0.2772132902
H 3.3930244798 1.8458109627 0.5869652895
H 1.949280079 -1.5212683003 0.6208790943
H 4.0843142099 -1.2879942991 1.7793940662
H 4.3927455755 0.183389424 0.8360428353
H 3.9634709289 -2.5789625549 -0.3955030315
H 5.5569191605 -1.8709404941 -0.0360730303
H 3.6864208834 -0.8028276721 -1.8496654649
*
