      -----------------------------------------------------------      
     |                   =====================                   |     
     |                           x T B                           |     
     |                   =====================                   |     
     |                         S. Grimme                         |     
     |          Mulliken Center for Theoretical Chemistry        |     
     |                    University of Bonn                     |     
      -----------------------------------------------------------      

   * xtb version 6.7.1 (edcfbbe) compiled by 'albert@albert-system' on 2024-07-22

   xtb is free software: you can redistribute it and/or modify it under
   the terms of the GNU Lesser General Public License as published by
   the Free Software Foundation, either version 3 of the License, or
   (at your option) any later version.
   
   xtb is distributed in the hope that it will be useful,
   but WITHOUT ANY WARRANTY; without even the implied warranty of
   MERCHANTABILITY or FITNESS FOR A PARTICULAR PURPOSE.  See the
   GNU Lesser General Public License for more details.
   
   Cite this work as:
   * C. Bannwarth, E. Caldeweyher, S. Ehlert, A. Hansen, P. Pracht,
     J. Seibert, S. Spicher, S. Grimme, WIREs Comput. Mol. Sci., 2020, 11,
     e01493. DOI: 10.1002/wcms.1493
   
   for GFN2-xTB:
   * C. Bannwarth, S. Ehlert and S. Grimme., J. Chem. Theory Comput., 2019,
     15, 1652-1671. DOI: 10.1021/acs.jctc.8b01176
   for GFN1-xTB:
   * S. Grimme, C. Bannwarth, P. Shushkov, J. Chem. Theory Comput., 2017,
     13, 1989-2009. DOI: 10.1021/acs.jctc.7b00118
   for GFN0-xTB:
   * P. Pracht, E. Caldeweyher, S. Ehlert, S. Grimme, ChemRxiv, 2019, preprint.
     DOI: 10.26434/chemrxiv.8326202.v1
   for GFN-FF:
   * S. Spicher and S. Grimme, Angew. Chem. Int. Ed., 2020, 59, 15665-15673.
     DOI: 10.1002/anie.202004239
   
   for ALPB and GBSA implicit solvation:
   * S. Ehlert, M. Stahn, S. Spicher, S. Grimme, J. Chem. Theory Comput.,
     2021, 17, 4250-4261. DOI: 10.1021/acs.jctc.1c00471
   
   for ddCOSMO and CPCM-X implicit solvation:
   * M. Stahn, S. Ehlert, S. Grimme, J. Phys. Chem. A,
     2023, XX, XXXX-XXXX. DOI: 10.1021/acs.jpca.3c04382
   
   for DFT-D4:
   * E. Caldeweyher, C. Bannwarth and S. Grimme, J. Chem. Phys., 2017,
     147, 034112. DOI: 10.1063/1.4993215
   * E. Caldeweyher, S. Ehlert, A. Hansen, H. Neugebauer, S. Spicher,
     C. Bannwarth and S. Grimme, J. Chem. Phys., 2019, 150, 154122.
     DOI: 10.1063/1.5090222
   * E. Caldeweyher, J.-M. Mewes, S. Ehlert and S. Grimme, Phys. Chem. Chem. Phys.
     2020, 22, 8499-8512. DOI: 10.1039/D0CP00502A
   
   for sTDA-xTB:
   * S. Grimme and C. Bannwarth, J. Chem. Phys., 2016, 145, 054103.
     DOI: 10.1063/1.4959605
   
   in the mass-spec context:
   * V. Asgeirsson, C. Bauer and S. Grimme, Chem. Sci., 2017, 8, 4879.
     DOI: 10.1039/c7sc00601b
   * J. Koopman and S. Grimme, ACS Omega 2019, 4, 12, 15120-15133.
     DOI: 10.1021/acsomega.9b02011
   
   for metadynamics refer to:
   * S. Grimme, J. Chem. Theory Comput., 2019, 155, 2847-2862
     DOI: 10.1021/acs.jctc.9b00143
   
   for SPH calculations refer to:
   * S. Spicher and S. Grimme, J. Chem. Theory Comput., 2021, 17, 1701-1714
     DOI: 10.1021/acs.jctc.0c01306
   
   for ONIOM refer to:
   * C. Plett, A. Katbashev, S. Ehlert, S. Grimme, M. Bursch,
     Phys. Chem. Chem. Phys., 2023, 25, 17860-17868. DOI: 10.1039/D3CP02178E
   
   for DIPRO refer to:
   * J. Kohn, N. Gildemeister, S. Grimme, D. Fazzi, A. Hansen,
     J. Chem. Phys., 2023, just accepted.
   
   for PTB refer to:
   * S. Grimme, M. Mueller, A. Hansen, J. Chem. Phys., 2023, 158, 124111.
     DOI: 10.1063/5.0137838
   
   with help from (in alphabetical order)
   P. Atkinson, C. Bannwarth, F. Bohle, G. Brandenburg, E. Caldeweyher
   M. Checinski, S. Dohm, S. Ehlert, S. Ehrlich, I. Gerasimov, C. Hölzer
   A. Katbashev, J. Kohn, J. Koopman, C. Lavigne, S. Lehtola, F. März, M. Müller,
   F. Musil, H. Neugebauer, J. Pisarek, C. Plett, P. Pracht, F. Pultar,
   J. Seibert, P. Shushkov, S. Spicher, M. Stahn, M. Steiner, T. Strunk,
   J. Stückrath, T. Rose, and J. Unsleber
   
 * started run on 2025/04/11 at 16:11:23.880     
   ID    Z sym.   atoms
    1    6 C      1, 2, 5, 6, 8, 10
    2    8 O      3, 4, 7, 9
    3    1 H      11-20

           -------------------------------------------------
          |                Calculation Setup                |
           -------------------------------------------------

          program call               : /srv/scratch/z5358697/.xtb/bin/xtb gas.coord --gfn2 --sp --chrg 0 --norestart --parallel 1
          hostname                   : k133
          coordinate file            : gas.coord
          omp threads                :                     1


           -------------------------------------------------
          |                 G F N 2 - x T B                 |
           -------------------------------------------------

        Reference                      10.1021/acs.jctc.8b01176
      * Hamiltonian:
        H0-scaling (s, p, d)           1.850000    2.230000    2.230000
        zeta-weighting                 0.500000
      * Dispersion:
        s8                             2.700000
        a1                             0.520000
        a2                             5.000000
        s9                             5.000000
      * Repulsion:
        kExp                           1.500000    1.000000
        rExp                           1.000000
      * Coulomb:
        alpha                          2.000000
        third order                    shell-resolved
        anisotropic                    true
        a3                             3.000000
        a5                             4.000000
        cn-shift                       1.200000
        cn-exp                         4.000000
        max-rad                        5.000000


          ...................................................
          :                      SETUP                      :
          :.................................................:
          :  # basis functions                  50          :
          :  # atomic orbitals                  50          :
          :  # shells                           30          :
          :  # electrons                        58          :
          :  max. iterations                   250          :
          :  Hamiltonian                  GFN2-xTB          :
          :  restarted?                      false          :
          :  GBSA solvation                  false          :
          :  PC potential                    false          :
          :  electronic temp.          300.0000000     K    :
          :  accuracy                    1.0000000          :
          :  -> integral cutoff          0.2500000E+02      :
          :  -> integral neglect         0.1000000E-07      :
          :  -> SCF convergence          0.1000000E-05 Eh   :
          :  -> wf. convergence          0.1000000E-03 e    :
          :  Broyden damping             0.4000000          :
          :  net charge                          0          :
          :  unpaired electrons                  0          :
          ...................................................

 iter      E             dE          RMSdq      gap      omega  full diag
   1    -34.4615963 -0.344616E+02  0.483E+00    6.07       0.0  T
   2    -34.5513251 -0.897288E-01  0.251E+00    4.72       1.0  T
   3    -34.5568262 -0.550104E-02  0.143E+00    5.24       1.0  T
   4    -34.5616322 -0.480606E-02  0.152E-01    4.96       1.0  T
   5    -34.5618212 -0.189008E-03  0.781E-02    5.00       1.0  T
   6    -34.5618254 -0.416840E-05  0.144E-02    5.00       1.5  T
   7    -34.5618259 -0.528110E-06  0.608E-03    5.00       3.7  T
   8    -34.5618260 -0.100926E-06  0.176E-03    5.00      12.7  T
   9    -34.5618260 -0.713391E-08  0.809E-04    5.00      27.7  T
  10    -34.5618260 -0.222523E-08  0.210E-04    5.00     106.2  T

   *** convergence criteria satisfied after 10 iterations ***

         #    Occupation            Energy/Eh            Energy/eV
      -------------------------------------------------------------
         1        2.0000           -0.7561982             -20.5772
       ...           ...                  ...                  ...
        23        2.0000           -0.4886207             -13.2960
        24        2.0000           -0.4855431             -13.2123
        25        2.0000           -0.4768435             -12.9756
        26        2.0000           -0.4586067             -12.4793
        27        2.0000           -0.4496788             -12.2364
        28        2.0000           -0.4264062             -11.6031
        29        2.0000           -0.4225342             -11.4977 (HOMO)
        30                         -0.2388092              -6.4983 (LUMO)
        31                         -0.2342083              -6.3731
        32                         -0.0428399              -1.1657
        33                          0.0459519               1.2504
        34                          0.0755424               2.0556
       ...                                ...                  ...
        50                          0.6227583              16.9461
      -------------------------------------------------------------
                  HL-Gap            0.1837250 Eh            4.9994 eV
             Fermi-level           -0.3306717 Eh           -8.9980 eV

 SCC (total)                   0 d,  0 h,  0 min,  0.025 sec
 SCC setup                      ...        0 min,  0.000 sec (  0.877%)
 Dispersion                     ...        0 min,  0.000 sec (  0.488%)
 classical contributions        ...        0 min,  0.000 sec (  0.108%)
 integral evaluation            ...        0 min,  0.002 sec (  6.991%)
 iterations                     ...        0 min,  0.017 sec ( 68.295%)
 molecular gradient             ...        0 min,  0.006 sec ( 22.423%)
 printout                       ...        0 min,  0.000 sec (  0.751%)

         :::::::::::::::::::::::::::::::::::::::::::::::::::::
         ::                     SUMMARY                     ::
         :::::::::::::::::::::::::::::::::::::::::::::::::::::
         :: total energy             -34.233727686532 Eh    ::
         :: gradient norm              0.040278229802 Eh/a0 ::
         :: HOMO-LUMO gap              4.999412443854 eV    ::
         ::.................................................::
         :: SCC energy               -34.561866961107 Eh    ::
         :: -> isotropic ES            0.090431117548 Eh    ::
         :: -> anisotropic ES         -0.000032867098 Eh    ::
         :: -> anisotropic XC          0.002462525562 Eh    ::
         :: -> dispersion             -0.011903579142 Eh    ::
         :: repulsion energy           0.328139274574 Eh    ::
         :: add. restraining           0.000000000000 Eh    ::
         :: total charge               0.000000000000 e     ::
         :::::::::::::::::::::::::::::::::::::::::::::::::::::

           -------------------------------------------------
          |                Property Printout                |
           -------------------------------------------------

    * Orbital Energies and Occupations

         #    Occupation            Energy/Eh            Energy/eV
      -------------------------------------------------------------
         1        2.0000           -0.7561982             -20.5772
       ...           ...                  ...                  ...
        17        2.0000           -0.5331959             -14.5090
        18        2.0000           -0.5217615             -14.1979
        19        2.0000           -0.5086185             -13.8402
        20        2.0000           -0.4943358             -13.4516
        21        2.0000           -0.4931653             -13.4197
        22        2.0000           -0.4903635             -13.3435
        23        2.0000           -0.4886207             -13.2960
        24        2.0000           -0.4855431             -13.2123
        25        2.0000           -0.4768435             -12.9756
        26        2.0000           -0.4586067             -12.4793
        27        2.0000           -0.4496788             -12.2364
        28        2.0000           -0.4264062             -11.6031
        29        2.0000           -0.4225342             -11.4977 (HOMO)
        30                         -0.2388092              -6.4983 (LUMO)
        31                         -0.2342083              -6.3731
        32                         -0.0428399              -1.1657
        33                          0.0459519               1.2504
        34                          0.0755424               2.0556
        35                          0.1207883               3.2868
        36                          0.1366765               3.7192
        37                          0.1436842               3.9098
        38                          0.1491146               4.0576
        39                          0.1543546               4.2002
        40                          0.1576265               4.2892
       ...                                ...                  ...
        50                          0.6227583              16.9461
      -------------------------------------------------------------
                  HL-Gap            0.1837250 Eh            4.9994 eV
             Fermi-level           -0.3306717 Eh           -8.9980 eV

     #   Z          covCN         q      C6AA      α(0)
     1   6 C        3.754    -0.149    23.442     6.904
     2   6 C        2.711     0.359    20.900     7.483
     3   8 O        0.856    -0.412    21.929     6.278
     4   8 O        1.705    -0.262    18.346     5.783
     5   6 C        3.697     0.068    19.597     6.332
     6   6 C        3.697     0.073    19.518     6.319
     7   8 O        1.705    -0.266    18.416     5.794
     8   6 C        2.713     0.362    20.865     7.477
     9   8 O        0.856    -0.411    21.901     6.274
    10   6 C        3.754    -0.148    23.421     6.901
    11   1 H        0.925     0.087     1.911     2.162
    12   1 H        0.925     0.075     2.030     2.228
    13   1 H        0.925     0.087     1.905     2.159
    14   1 H        0.925     0.077     2.009     2.216
    15   1 H        0.924     0.075     2.033     2.230
    16   1 H        0.924     0.061     2.188     2.313
    17   1 H        0.924     0.080     1.975     2.198
    18   1 H        0.925     0.084     1.940     2.178
    19   1 H        0.925     0.076     2.018     2.222
    20   1 H        0.925     0.084     1.935     2.175

 Mol. C6AA /au·bohr⁶  :       3545.048897
 Mol. C8AA /au·bohr⁸  :      77102.192444
 Mol. α(0) /au        :         87.626513


Wiberg/Mayer (AO) data.
largest (>0.10) Wiberg bond orders for each atom

 ---------------------------------------------------------------------------
     #   Z sym  total        # sym  WBO       # sym  WBO       # sym  WBO
 ---------------------------------------------------------------------------
     1   6 C    3.990 --     2 C    0.995    12 H    0.983    11 H    0.961
                            13 H    0.958
     2   6 C    3.915 --     3 O    1.750     4 O    1.123     1 C    0.995
     3   8 O    2.030 --     2 C    1.750     4 O    0.170
     4   8 O    2.306 --     2 C    1.123     5 C    0.952     3 O    0.170
     5   6 C    3.930 --     6 C    0.993    14 H    0.969    15 H    0.966
                             4 O    0.952
     6   6 C    3.929 --     5 C    0.993    16 H    0.967    17 H    0.964
                             7 O    0.947
     7   8 O    2.301 --     8 C    1.124     6 C    0.947     9 O    0.171
     8   6 C    3.914 --     9 O    1.751     7 O    1.124    10 C    0.993
     9   8 O    2.031 --     8 C    1.751     7 O    0.171
    10   6 C    3.990 --     8 C    0.993    19 H    0.977    18 H    0.975
                            20 H    0.953
    11   1 H    0.992 --     1 C    0.961
    12   1 H    0.994 --     1 C    0.983
    13   1 H    0.992 --     1 C    0.958
    14   1 H    0.994 --     5 C    0.969
    15   1 H    0.994 --     5 C    0.966
    16   1 H    0.996 --     6 C    0.967
    17   1 H    0.994 --     6 C    0.964
    18   1 H    0.993 --    10 C    0.975
    19   1 H    0.994 --    10 C    0.977
    20   1 H    0.993 --    10 C    0.953
 ---------------------------------------------------------------------------

Topologies differ in total number of bonds
Writing topology from bond orders to xtbtopo.mol

molecular dipole:
                 x           y           z       tot (Debye)
 q only:        0.218       1.321      -0.077
   full:        0.239       1.487      -0.069       3.831
molecular quadrupole (traceless):
                xx          xy          yy          xz          yz          zz
 q only:       13.938      -2.798      -8.357       7.932      -0.298      -5.581
  q+dip:       12.184      -3.247      -8.318       7.519       0.510      -3.866
   full:       12.959      -3.277      -9.170       7.460       0.313      -3.789


           -------------------------------------------------
          | TOTAL ENERGY              -34.233727686532 Eh   |
          | GRADIENT NORM               0.040278229802 Eh/α |
          | HOMO-LUMO GAP               4.999412443854 eV   |
           -------------------------------------------------

------------------------------------------------------------------------
 * finished run on 2025/04/11 at 16:11:23.935     
------------------------------------------------------------------------
 total:
 * wall-time:     0 d,  0 h,  0 min,  0.055 sec
 *  cpu-time:     0 d,  0 h,  0 min,  0.026 sec
 * ratio c/w:     0.472 speedup
 SCF:
 * wall-time:     0 d,  0 h,  0 min,  0.025 sec
 *  cpu-time:     0 d,  0 h,  0 min,  0.017 sec
 * ratio c/w:     0.664 speedup

