20
 xtb: 6.7.1 (edcfbbe)
C            2.88017394937331       -0.83980858183783       -1.18742576472717
C            1.80477037098210       -0.46128699327927       -0.22179081041866
O            1.14547769500788       -1.25959448559995        0.42107860334779
O            1.66343004000289        0.88070591734468       -0.12492167059241
C            0.65183553286999        1.38780743710926        0.78784775525440
C           -0.61022166715260        1.71909863254635        0.03111811039633
O           -1.18064293033315        0.54766301870196       -0.61171931097580
C           -1.86742499158323       -0.31083092478825        0.17644915048154
O           -2.07167266580597       -0.11138053831976        1.36118868331967
C           -2.30936496209076       -1.51893135945148       -0.58068491945575
H            3.72201239995499       -1.24442072891005       -0.61540178278642
H            3.22169528638728        0.00826764975242       -1.78027978411332
H            2.50949698732217       -1.63575436872900       -1.83773322796684
H            0.48055420104157        0.66824826393356        1.58972138374615
H            1.06466280664404        2.31029643684502        1.20324438534820
H           -0.40046507177742        2.40547606649843       -0.79105535655179
H           -1.33867848556985        2.17160117590904        0.71005794163377
H           -2.50297371865902       -1.28723702432676       -1.62911620331687
H           -3.19320944130568       -1.94765770868583       -0.10738380973764
H           -1.49945767447732       -2.25676347533200       -0.53864381187653
