! r2scan-3c def2/J RI DEFGRID2 scfconv6 printgap
%output
    printlevel normal
end
%cpcm
    smd true
    smdsolvent "water"
end
* xyz 0 1
C 2.9557825404 0.1870519078 0.5873287644
C 1.8921885111 -0.7413009526 0.0111217247
C 0.9530271665 -0.0480883246 -0.9778474306
C 0.1189202408 1.0904608388 -0.3868559577
C -0.8653570526 0.6494103203 0.681356498
Cl -2.1033679764 -0.4729498977 0.0076642949
H 3.5030187294 0.6793321411 -0.2133342079
H 3.6632752958 -0.3810709634 1.186513087
H 2.512059851 0.9484992787 1.222943622
H 2.3873222987 -1.5595409357 -0.5167630022
H 1.3160050494 -1.1869778839 0.8235691887
H 0.2758996706 -0.7943399589 -1.399262058
H 1.5480007727 0.358030666 -1.7983727645
H -0.4313191345 1.5743315011 -1.1958329469
H 0.7756072778 1.8360961946 0.062916203
H -0.3783926517 0.1090096708 1.4897860095
H -1.4197480021 1.4968707668 1.0799426611
*
