      -----------------------------------------------------------      
     |                   =====================                   |     
     |                           x T B                           |     
     |                   =====================                   |     
     |                         S. Grimme                         |     
     |          Mulliken Center for Theoretical Chemistry        |     
     |                    University of Bonn                     |     
      -----------------------------------------------------------      

   * xtb version 6.7.1 (edcfbbe) compiled by 'albert@albert-system' on 2024-07-22

   xtb is free software: you can redistribute it and/or modify it under
   the terms of the GNU Lesser General Public License as published by
   the Free Software Foundation, either version 3 of the License, or
   (at your option) any later version.
   
   xtb is distributed in the hope that it will be useful,
   but WITHOUT ANY WARRANTY; without even the implied warranty of
   MERCHANTABILITY or FITNESS FOR A PARTICULAR PURPOSE.  See the
   GNU Lesser General Public License for more details.
   
   Cite this work as:
   * C. Bannwarth, E. Caldeweyher, S. Ehlert, A. Hansen, P. Pracht,
     J. Seibert, S. Spicher, S. Grimme, WIREs Comput. Mol. Sci., 2020, 11,
     e01493. DOI: 10.1002/wcms.1493
   
   for GFN2-xTB:
   * C. Bannwarth, S. Ehlert and S. Grimme., J. Chem. Theory Comput., 2019,
     15, 1652-1671. DOI: 10.1021/acs.jctc.8b01176
   for GFN1-xTB:
   * S. Grimme, C. Bannwarth, P. Shushkov, J. Chem. Theory Comput., 2017,
     13, 1989-2009. DOI: 10.1021/acs.jctc.7b00118
   for GFN0-xTB:
   * P. Pracht, E. Caldeweyher, S. Ehlert, S. Grimme, ChemRxiv, 2019, preprint.
     DOI: 10.26434/chemrxiv.8326202.v1
   for GFN-FF:
   * S. Spicher and S. Grimme, Angew. Chem. Int. Ed., 2020, 59, 15665-15673.
     DOI: 10.1002/anie.202004239
   
   for ALPB and GBSA implicit solvation:
   * S. Ehlert, M. Stahn, S. Spicher, S. Grimme, J. Chem. Theory Comput.,
     2021, 17, 4250-4261. DOI: 10.1021/acs.jctc.1c00471
   
   for ddCOSMO and CPCM-X implicit solvation:
   * M. Stahn, S. Ehlert, S. Grimme, J. Phys. Chem. A,
     2023, XX, XXXX-XXXX. DOI: 10.1021/acs.jpca.3c04382
   
   for DFT-D4:
   * E. Caldeweyher, C. Bannwarth and S. Grimme, J. Chem. Phys., 2017,
     147, 034112. DOI: 10.1063/1.4993215
   * E. Caldeweyher, S. Ehlert, A. Hansen, H. Neugebauer, S. Spicher,
     C. Bannwarth and S. Grimme, J. Chem. Phys., 2019, 150, 154122.
     DOI: 10.1063/1.5090222
   * E. Caldeweyher, J.-M. Mewes, S. Ehlert and S. Grimme, Phys. Chem. Chem. Phys.
     2020, 22, 8499-8512. DOI: 10.1039/D0CP00502A
   
   for sTDA-xTB:
   * S. Grimme and C. Bannwarth, J. Chem. Phys., 2016, 145, 054103.
     DOI: 10.1063/1.4959605
   
   in the mass-spec context:
   * V. Asgeirsson, C. Bauer and S. Grimme, Chem. Sci., 2017, 8, 4879.
     DOI: 10.1039/c7sc00601b
   * J. Koopman and S. Grimme, ACS Omega 2019, 4, 12, 15120-15133.
     DOI: 10.1021/acsomega.9b02011
   
   for metadynamics refer to:
   * S. Grimme, J. Chem. Theory Comput., 2019, 155, 2847-2862
     DOI: 10.1021/acs.jctc.9b00143
   
   for SPH calculations refer to:
   * S. Spicher and S. Grimme, J. Chem. Theory Comput., 2021, 17, 1701-1714
     DOI: 10.1021/acs.jctc.0c01306
   
   for ONIOM refer to:
   * C. Plett, A. Katbashev, S. Ehlert, S. Grimme, M. Bursch,
     Phys. Chem. Chem. Phys., 2023, 25, 17860-17868. DOI: 10.1039/D3CP02178E
   
   for DIPRO refer to:
   * J. Kohn, N. Gildemeister, S. Grimme, D. Fazzi, A. Hansen,
     J. Chem. Phys., 2023, just accepted.
   
   for PTB refer to:
   * S. Grimme, M. Mueller, A. Hansen, J. Chem. Phys., 2023, 158, 124111.
     DOI: 10.1063/5.0137838
   
   with help from (in alphabetical order)
   P. Atkinson, C. Bannwarth, F. Bohle, G. Brandenburg, E. Caldeweyher
   M. Checinski, S. Dohm, S. Ehlert, S. Ehrlich, I. Gerasimov, C. Hölzer
   A. Katbashev, J. Kohn, J. Koopman, C. Lavigne, S. Lehtola, F. März, M. Müller,
   F. Musil, H. Neugebauer, J. Pisarek, C. Plett, P. Pracht, F. Pultar,
   J. Seibert, P. Shushkov, S. Spicher, M. Stahn, M. Steiner, T. Strunk,
   J. Stückrath, T. Rose, and J. Unsleber
   
 * started run on 2025/04/11 at 17:15:15.704     
   ID    Z sym.   atoms
    1    6 C      1-5, 8
    2    8 O      6, 7
    3    1 H      9-20

           -------------------------------------------------
          |                Calculation Setup                |
           -------------------------------------------------

          program call               : /srv/scratch/z5358697/.xtb/bin/xtb xtb_rrho.coord --gfn2 --ohess vtight --chrg 0 --enso --norestart -I rrho-xcontrol-inp --parallel 1 --alpb water
          hostname                   : k068
          coordinate file            : xtb_rrho.coord
          omp threads                :                     1


           -------------------------------------------------
          |                 G F N 2 - x T B                 |
           -------------------------------------------------

        Reference                      10.1021/acs.jctc.8b01176
      * Hamiltonian:
        H0-scaling (s, p, d)           1.850000    2.230000    2.230000
        zeta-weighting                 0.500000
      * Dispersion:
        s8                             2.700000
        a1                             0.520000
        a2                             5.000000
        s9                             5.000000
      * Repulsion:
        kExp                           1.500000    1.000000
        rExp                           1.000000
      * Coulomb:
        alpha                          2.000000
        third order                    shell-resolved
        anisotropic                    true
        a3                             3.000000
        a5                             4.000000
        cn-shift                       1.200000
        cn-exp                         4.000000
        max-rad                        5.000000

      * Solvation model:               ALPB
        Solvent                        water
        Parameter file                 internal GFN2-xTB/ALPB
        Dielectric constant                8.0200E+01
        Reference state                gsolv [1 M gas/solution]
        Free energy shift                  1.0808E-03 Eh       6.7819E-01 kcal/mol
        Temperature                        2.9815E+02 K
        Density                            1.0000E+00 kg/L
        Solvent mass                       1.8000E+01 g/mol
        Interaction kernel             P16
        Born radius scaling (c1)           1.4744E+00
        Born radii integrator          GBOBC
        Born offset                        0.0000E+00 a0       0.0000E+00 AA
        H-bond correction              true
        Ion screening                  false
        Surface tension                    1.0000E-05 Eh       1.5569E+01 dyn/cm
        Grid points                               974 per atom

          ...................................................
          :                      SETUP                      :
          :.................................................:
          :  # basis functions                  44          :
          :  # atomic orbitals                  44          :
          :  # shells                           28          :
          :  # electrons                        48          :
          :  max. iterations                   250          :
          :  Hamiltonian                  GFN2-xTB          :
          :  restarted?                      false          :
          :  GBSA solvation                   true          :
          :  PC potential                    false          :
          :  electronic temp.          300.0000000     K    :
          :  accuracy                    1.0000000          :
          :  -> integral cutoff          0.2500000E+02      :
          :  -> integral neglect         0.1000000E-07      :
          :  -> SCF convergence          0.1000000E-05 Eh   :
          :  -> wf. convergence          0.1000000E-03 e    :
          :  Broyden damping             0.4000000          :
          :  net charge                          0          :
          :  unpaired electrons                  0          :
          ...................................................

 iter      E             dE          RMSdq      gap      omega  full diag
   1    -27.3556866 -0.273557E+02  0.408E+00    5.62       0.0  T
   2    -27.4162877 -0.606010E-01  0.204E+00    4.81       1.0  T
   3    -27.4179832 -0.169556E-02  0.103E+00    5.15       1.0  T
   4    -27.4196727 -0.168947E-02  0.166E-01    4.89       1.0  T
   5    -27.4198982 -0.225542E-03  0.690E-02    4.94       1.0  T
   6    -27.4198997 -0.150719E-05  0.182E-02    4.94       1.2  T
   7    -27.4199003 -0.580689E-06  0.362E-03    4.94       6.2  T
   8    -27.4199003 -0.190529E-07  0.199E-03    4.94      11.2  T
   9    -27.4199003 -0.445063E-08  0.275E-04    4.94      81.4  T
  10    -27.4199003 -0.290438E-09  0.131E-04    4.94     171.3  T

   *** convergence criteria satisfied after 10 iterations ***

         #    Occupation            Energy/Eh            Energy/eV
      -------------------------------------------------------------
         1        2.0000           -0.7465596             -20.3149
       ...           ...                  ...                  ...
        18        2.0000           -0.4728369             -12.8665
        19        2.0000           -0.4566747             -12.4268
        20        2.0000           -0.4517586             -12.2930
        21        2.0000           -0.4394566             -11.9582
        22        2.0000           -0.4295269             -11.6880
        23        2.0000           -0.4260156             -11.5925
        24        2.0000           -0.4236047             -11.5269 (HOMO)
        25                         -0.2421717              -6.5898 (LUMO)
        26                         -0.0177699              -0.4835
        27                          0.0828560               2.2546
        28                          0.0976279               2.6566
        29                          0.1193515               3.2477
       ...                                ...                  ...
        44                          0.5920517              16.1105
      -------------------------------------------------------------
                  HL-Gap            0.1814330 Eh            4.9370 eV
             Fermi-level           -0.3328882 Eh           -9.0583 eV

 SCC (total)                   0 d,  0 h,  0 min,  0.033 sec
 SCC setup                      ...        0 min,  0.001 sec (  3.972%)
 Dispersion                     ...        0 min,  0.000 sec (  0.441%)
 classical contributions        ...        0 min,  0.000 sec (  0.079%)
 integral evaluation            ...        0 min,  0.002 sec (  4.660%)
 iterations                     ...        0 min,  0.025 sec ( 76.365%)
 molecular gradient             ...        0 min,  0.005 sec ( 13.993%)
 printout                       ...        0 min,  0.000 sec (  0.443%)

         :::::::::::::::::::::::::::::::::::::::::::::::::::::
         ::                     SUMMARY                     ::
         :::::::::::::::::::::::::::::::::::::::::::::::::::::
         :: total energy             -27.117196276774 Eh    ::
         :: total w/o Gsasa/hb       -27.117415185869 Eh    ::
         :: gradient norm              0.029975139971 Eh/a0 ::
         :: HOMO-LUMO gap              4.937043248319 eV    ::
         ::.................................................::
         :: SCC energy               -27.419926066447 Eh    ::
         :: -> isotropic ES            0.058086026097 Eh    ::
         :: -> anisotropic ES          0.002341755412 Eh    ::
         :: -> anisotropic XC          0.008873815582 Eh    ::
         :: -> dispersion             -0.011347365736 Eh    ::
         :: -> Gsolv                  -0.008732292920 Eh    ::
         ::    -> Gelec               -0.008951202014 Eh    ::
         ::    -> Gsasa                0.001465535077 Eh    ::
         ::    -> Ghb                 -0.002327385681 Eh    ::
         ::    -> Gshift               0.001080759698 Eh    ::
         :: repulsion energy           0.302729789672 Eh    ::
         :: add. restraining           0.000000000000 Eh    ::
         :: total charge              -0.000000000000 e     ::
         :::::::::::::::::::::::::::::::::::::::::::::::::::::

      ----------------------------------------------------------- 
     |                   =====================                   |
     |                        A N C O P T                        |
     |                   =====================                   |
     |               Approximate Normal Coordinate               |
     |                Rational Function Optimizer                |
      ----------------------------------------------------------- 
      ----------------------------------------------------------- 
     |                   =====================                   |
     |                        A N C O P T                        |
     |                   =====================                   |
     |               Approximate Normal Coordinate               |
     |                Rational Function Optimizer                |
      ----------------------------------------------------------- 

          ...................................................
          :                      SETUP                      :
          :.................................................:
          :   optimization level         verytight          :
          :   max. optcycles                   400          :
          :   ANC micro-cycles                  20          :
          :   degrees of freedom                54          :
          :.................................................:
          :   RF solver                   davidson          :
          :   write xtbopt.log                true          :
          :   linear?                        false          :
          :   energy convergence         0.1000000E-06 Eh   :
          :   grad. convergence          0.2000000E-03 Eh/α :
          :   maxmium RF displ.          1.0000000          :
          :   Hlow (freq-cutoff)         0.1000000E-01      :
          :   Hmax (freq-cutoff)         5.0000000          :
          :   S6 in model hess.         20.0000000          :
          ...................................................

generating ANC from exact Hessian ...
Using Lindh-Hessian (1995)
 Shifting diagonal of input Hessian by   8.730361005785189E-003
 Lowest  eigenvalues of input Hessian
    0.000000    0.000000    0.000000    0.000000    0.000000    0.000000
    0.010000    0.010970    0.011967    0.014079    0.014845    0.017143
    0.021489    0.026994    0.031001    0.036064    0.042359    0.049425
 Highest eigenvalues
    1.193319    1.207981    1.255294    1.308773    1.733924    2.268889
 

........................................................................
.............................. CYCLE    1 ..............................
........................................................................

 iter      E             dE          RMSdq      gap      omega  full diag
   1    -27.4199003 -0.274199E+02  0.524E-05    4.94       0.0  T
   2    -27.4199003 -0.794742E-11  0.346E-05    4.94     645.5  T
   3    -27.4199003 -0.190070E-11  0.198E-05    4.94    1126.7  T
     SCC iter.                  ...        0 min,  0.002 sec
     gradient                   ...        0 min,  0.005 sec
 * total energy  :   -27.1171963 Eh     change       -0.5578116E-10 Eh
   gradient norm :     0.0299764 Eh/α   predicted     0.0000000E+00 (-100.00%)
   displ. norm   :     0.1024033 α      lambda       -0.1479238E-02
   maximum displ.:     0.0438295 α      in ANC's #10, #7, #6, ...

........................................................................
.............................. CYCLE    2 ..............................
........................................................................

 iter      E             dE          RMSdq      gap      omega  full diag
   1    -27.4305561 -0.274306E+02  0.902E-02    5.04       0.0  T
   2    -27.4305711 -0.150372E-04  0.528E-02    5.02       1.0  T
   3    -27.4305711  0.475590E-07  0.199E-02    5.03       1.1  T
   4    -27.4305727 -0.165067E-05  0.312E-03    5.02       7.2  T
   5    -27.4305727 -0.289065E-07  0.152E-03    5.02      14.7  T
   6    -27.4305727 -0.295691E-08  0.512E-04    5.02      43.7  T
   7    -27.4305727 -0.306500E-09  0.190E-04    5.02     117.5  T
     SCC iter.                  ...        0 min,  0.003 sec
     gradient                   ...        0 min,  0.005 sec
 * total energy  :   -27.1181446 Eh     change       -0.9483683E-03 Eh
   gradient norm :     0.0110330 Eh/α   predicted    -0.7473787E-03 ( -21.19%)
   displ. norm   :     0.0628540 α      lambda       -0.2604236E-03
   maximum displ.:     0.0363455 α      in ANC's #10, #7, #2, ...

........................................................................
.............................. CYCLE    3 ..............................
........................................................................

 iter      E             dE          RMSdq      gap      omega  full diag
   1    -27.4345188 -0.274345E+02  0.439E-02    5.06       0.0  T
   2    -27.4345261 -0.730461E-05  0.253E-02    5.05       1.0  T
   3    -27.4345264 -0.235123E-06  0.116E-02    5.05       1.9  T
   4    -27.4345265 -0.148566E-06  0.272E-03    5.05       8.2  T
   5    -27.4345265 -0.477951E-07  0.678E-04    5.05      33.0  T
   6    -27.4345265 -0.509392E-09  0.226E-04    5.05      99.1  T
     SCC iter.                  ...        0 min,  0.003 sec
     gradient                   ...        0 min,  0.005 sec
 * total energy  :   -27.1182898 Eh     change       -0.1451124E-03 Eh
   gradient norm :     0.0038148 Eh/α   predicted    -0.1307655E-03 (  -9.89%)
   displ. norm   :     0.0267626 α      lambda       -0.2394598E-04
   maximum displ.:     0.0144319 α      in ANC's #7, #2, #10, ...

........................................................................
.............................. CYCLE    4 ..............................
........................................................................

 iter      E             dE          RMSdq      gap      omega  full diag
   1    -27.4343779 -0.274344E+02  0.121E-02    5.05       0.0  T
   2    -27.4343788 -0.824522E-06  0.644E-03    5.05       3.5  T
   3    -27.4343788 -0.210584E-07  0.329E-03    5.05       6.8  T
   4    -27.4343788  0.814506E-09  0.646E-04    5.05      34.6  T
   5    -27.4343788 -0.420926E-08  0.143E-04    5.05     156.3  T
     SCC iter.                  ...        0 min,  0.002 sec
     gradient                   ...        0 min,  0.005 sec
 * total energy  :   -27.1183063 Eh     change       -0.1656122E-04 Eh
   gradient norm :     0.0016457 Eh/α   predicted    -0.1198353E-04 ( -27.64%)
   displ. norm   :     0.0519751 α      lambda       -0.1351021E-04
   maximum displ.:     0.0299026 α      in ANC's #2, #7, #1, ...

........................................................................
.............................. CYCLE    5 ..............................
........................................................................

 iter      E             dE          RMSdq      gap      omega  full diag
   1    -27.4336166 -0.274336E+02  0.174E-02    5.05       0.0  T
   2    -27.4336176 -0.105418E-05  0.927E-03    5.04       2.4  T
   3    -27.4336177 -0.250840E-07  0.390E-03    5.04       5.7  T
   4    -27.4336177 -0.211832E-08  0.497E-04    5.04      45.0  T
   5    -27.4336177 -0.270580E-08  0.180E-04    5.04     124.4  T
     SCC iter.                  ...        0 min,  0.002 sec
     gradient                   ...        0 min,  0.005 sec
 * total energy  :   -27.1183149 Eh     change       -0.8621586E-05 Eh
   gradient norm :     0.0018207 Eh/α   predicted    -0.6767326E-05 ( -21.51%)
   displ. norm   :     0.0191637 α      lambda       -0.4055241E-05
   maximum displ.:     0.0097209 α      in ANC's #4, #2, #1, ...

........................................................................
.............................. CYCLE    6 ..............................
........................................................................

 iter      E             dE          RMSdq      gap      omega  full diag
   1    -27.4336466 -0.274336E+02  0.670E-03    5.04       0.0  T
   2    -27.4336467 -0.599783E-07  0.392E-03    5.04       5.7  T
   3    -27.4336467 -0.184512E-08  0.940E-04    5.04      23.8  T
   4    -27.4336467 -0.890537E-09  0.187E-04    5.05     119.6  T
     SCC iter.                  ...        0 min,  0.002 sec
     gradient                   ...        0 min,  0.005 sec
 * total energy  :   -27.1183193 Eh     change       -0.4331452E-05 Eh
   gradient norm :     0.0009824 Eh/α   predicted    -0.2040600E-05 ( -52.89%)
   displ. norm   :     0.0399375 α      lambda       -0.4653913E-05
   maximum displ.:     0.0228805 α      in ANC's #1, #2, #4, ...

........................................................................
.............................. CYCLE    7 ..............................
........................................................................

 iter      E             dE          RMSdq      gap      omega  full diag
   1    -27.4338884 -0.274339E+02  0.127E-02    5.05       0.0  T
   2    -27.4338886 -0.121536E-06  0.743E-03    5.05       3.0  T
   3    -27.4338886 -0.596624E-08  0.120E-03    5.05      18.7  T
   4    -27.4338886 -0.200863E-08  0.273E-04    5.05      81.8  T
   5    -27.4338886 -0.124320E-09  0.161E-04    5.05     139.0  T
     SCC iter.                  ...        0 min,  0.002 sec
     gradient                   ...        0 min,  0.005 sec
 * total energy  :   -27.1183232 Eh     change       -0.3920782E-05 Eh
   gradient norm :     0.0006999 Eh/α   predicted    -0.2336439E-05 ( -40.41%)
   displ. norm   :     0.0305664 α      lambda       -0.1638330E-05
   maximum displ.:     0.0165599 α      in ANC's #1, #4, #2, ...

........................................................................
.............................. CYCLE    8 ..............................
........................................................................

 iter      E             dE          RMSdq      gap      omega  full diag
   1    -27.4338976 -0.274339E+02  0.845E-03    5.05       0.0  T
   2    -27.4338976 -0.844084E-08  0.501E-03    5.05       4.5  T
   3    -27.4338976 -0.282676E-08  0.344E-04    5.05      65.0  T
   4    -27.4338976 -0.205546E-09  0.182E-04    5.05     122.9  T
     SCC iter.                  ...        0 min,  0.002 sec
     gradient                   ...        0 min,  0.005 sec
 * total energy  :   -27.1183248 Eh     change       -0.1625147E-05 Eh
   gradient norm :     0.0004773 Eh/α   predicted    -0.8207036E-06 ( -49.50%)
   displ. norm   :     0.0227095 α      lambda       -0.8896673E-06
   maximum displ.:     0.0136966 α      in ANC's #1, #4, #2, ...

........................................................................
.............................. CYCLE    9 ..............................
........................................................................

 iter      E             dE          RMSdq      gap      omega  full diag
   1    -27.4338505 -0.274339E+02  0.758E-03    5.05       0.0  T
   2    -27.4338505 -0.509886E-08  0.449E-03    5.05       5.0  T
   3    -27.4338505 -0.207006E-08  0.294E-04    5.04      76.2  T
   4    -27.4338505 -0.198934E-09  0.167E-04    5.04     133.5  T
     SCC iter.                  ...        0 min,  0.002 sec
     gradient                   ...        0 min,  0.005 sec
 * total energy  :   -27.1183258 Eh     change       -0.9443238E-06 Eh
   gradient norm :     0.0001873 Eh/α   predicted    -0.4473077E-06 ( -52.63%)
   displ. norm   :     0.0212744 α      lambda       -0.6845204E-06
   maximum displ.:     0.0127459 α      in ANC's #4, #1, #6, ...

........................................................................
.............................. CYCLE   10 ..............................
........................................................................

 iter      E             dE          RMSdq      gap      omega  full diag
   1    -27.4338443 -0.274338E+02  0.842E-03    5.04       0.0  T
   2    -27.4338443 -0.514578E-08  0.499E-03    5.04       4.5  T
   3    -27.4338443 -0.271646E-08  0.327E-04    5.04      68.3  T
   4    -27.4338443 -0.254133E-09  0.199E-04    5.04     112.6  T
     SCC iter.                  ...        0 min,  0.002 sec
     gradient                   ...        0 min,  0.005 sec
 * total energy  :   -27.1183265 Eh     change       -0.7433735E-06 Eh
   gradient norm :     0.0002718 Eh/α   predicted    -0.3431457E-06 ( -53.84%)
   displ. norm   :     0.0282221 α      lambda       -0.7518780E-06
   maximum displ.:     0.0178733 α      in ANC's #4, #1, #6, ...

........................................................................
.............................. CYCLE   11 ..............................
........................................................................

 iter      E             dE          RMSdq      gap      omega  full diag
   1    -27.4338149 -0.274338E+02  0.119E-02    5.04       0.0  T
   2    -27.4338149 -0.988812E-08  0.701E-03    5.04       3.2  T
   3    -27.4338149 -0.562335E-08  0.450E-04    5.04      49.7  T
   4    -27.4338149 -0.337476E-09  0.269E-04    5.04      83.2  T
     SCC iter.                  ...        0 min,  0.002 sec
     gradient                   ...        0 min,  0.005 sec
 * total energy  :   -27.1183273 Eh     change       -0.7855893E-06 Eh
   gradient norm :     0.0004198 Eh/α   predicted    -0.3765142E-06 ( -52.07%)
   displ. norm   :     0.0251792 α      lambda       -0.5658637E-06
   maximum displ.:     0.0166014 α      in ANC's #4, #6, #1, ...

........................................................................
.............................. CYCLE   12 ..............................
........................................................................

 iter      E             dE          RMSdq      gap      omega  full diag
   1    -27.4338097 -0.274338E+02  0.111E-02    5.04       0.0  T
   2    -27.4338097 -0.830708E-08  0.653E-03    5.04       3.4  T
   3    -27.4338097 -0.529263E-08  0.402E-04    5.04      55.7  T
   4    -27.4338097 -0.787637E-10  0.113E-04    5.04     198.6  T
     SCC iter.                  ...        0 min,  0.002 sec
     gradient                   ...        0 min,  0.005 sec
 * total energy  :   -27.1183279 Eh     change       -0.6243238E-06 Eh
   gradient norm :     0.0003337 Eh/α   predicted    -0.2860267E-06 ( -54.19%)
   displ. norm   :     0.0153832 α      lambda       -0.3601035E-06
   maximum displ.:     0.0095125 α      in ANC's #4, #2, #6, ...

........................................................................
.............................. CYCLE   13 ..............................
........................................................................

 iter      E             dE          RMSdq      gap      omega  full diag
   1    -27.4338479 -0.274338E+02  0.743E-03    5.05       0.0  T
   2    -27.4338479 -0.450635E-08  0.436E-03    5.05       5.1  T
   3    -27.4338479 -0.204253E-08  0.311E-04    5.05      72.0  T
   4    -27.4338479 -0.474081E-09  0.183E-04    5.05     122.0  T
     SCC iter.                  ...        0 min,  0.002 sec
     gradient                   ...        0 min,  0.005 sec
 * total energy  :   -27.1183283 Eh     change       -0.4006653E-06 Eh
   gradient norm :     0.0001073 Eh/α   predicted    -0.1828968E-06 ( -54.35%)
   displ. norm   :     0.0116521 α      lambda       -0.1945130E-06
   maximum displ.:     0.0068424 α      in ANC's #2, #4, #5, ...

........................................................................
.............................. CYCLE   14 ..............................
........................................................................

 iter      E             dE          RMSdq      gap      omega  full diag
   1    -27.4338509 -0.274339E+02  0.636E-03    5.05       0.0  T
   2    -27.4338509 -0.296259E-08  0.372E-03    5.05       6.0  T
   3    -27.4338509 -0.169808E-08  0.236E-04    5.05      94.9  T
   4    -27.4338509 -0.143487E-09  0.145E-04    5.05     153.8  T
     SCC iter.                  ...        0 min,  0.002 sec
     gradient                   ...        0 min,  0.005 sec
 * total energy  :   -27.1183286 Eh     change       -0.2385460E-06 Eh
   gradient norm :     0.0001045 Eh/α   predicted    -0.9895417E-07 ( -58.52%)
   displ. norm   :     0.0117529 α      lambda       -0.1823057E-06
   maximum displ.:     0.0072477 α      in ANC's #2, #4, #5, ...

........................................................................
.............................. CYCLE   15 ..............................
........................................................................

 iter      E             dE          RMSdq      gap      omega  full diag
   1    -27.4338627 -0.274339E+02  0.706E-03    5.05       0.0  T
   2    -27.4338627 -0.364763E-08  0.413E-03    5.05       5.4  T
   3    -27.4338627 -0.215521E-08  0.255E-04    5.05      87.7  T
   4    -27.4338627 -0.128555E-09  0.154E-04    5.05     145.1  T
     SCC iter.                  ...        0 min,  0.002 sec
     gradient                   ...        0 min,  0.005 sec
 * total energy  :   -27.1183288 Eh     change       -0.2470528E-06 Eh
   gradient norm :     0.0001781 Eh/α   predicted    -0.9229241E-07 ( -62.64%)
   displ. norm   :     0.0187662 α      lambda       -0.3040734E-06
   maximum displ.:     0.0113834 α      in ANC's #2, #3, #5, ...

........................................................................
.............................. CYCLE   16 ..............................
........................................................................

 iter      E             dE          RMSdq      gap      omega  full diag
   1    -27.4338651 -0.274339E+02  0.118E-02    5.05       0.0  T
   2    -27.4338651 -0.992965E-08  0.687E-03    5.05       3.3  T
   3    -27.4338651 -0.642027E-08  0.411E-04    5.05      54.4  T
   4    -27.4338651 -0.797939E-10  0.127E-04    5.05     175.9  T
     SCC iter.                  ...        0 min,  0.002 sec
     gradient                   ...        0 min,  0.005 sec
 * total energy  :   -27.1183292 Eh     change       -0.4220271E-06 Eh
   gradient norm :     0.0002117 Eh/α   predicted    -0.1555089E-06 ( -63.15%)
   displ. norm   :     0.0451547 α      lambda       -0.7162727E-06
   maximum displ.:     0.0275823 α      in ANC's #2, #3, #9, ...

........................................................................
.............................. CYCLE   17 ..............................
........................................................................

 iter      E             dE          RMSdq      gap      omega  full diag
   1    -27.4338264 -0.274338E+02  0.289E-02    5.04       0.0  T
   2    -27.4338264 -0.609127E-07  0.169E-02    5.04       1.3  T
   3    -27.4338265 -0.393316E-07  0.103E-03    5.04      21.7  T
   4    -27.4338265 -0.522196E-09  0.400E-04    5.04      55.9  T
   5    -27.4338265 -0.600366E-09  0.665E-05    5.04     336.5  T
     SCC iter.                  ...        0 min,  0.002 sec
     gradient                   ...        0 min,  0.005 sec
 * total energy  :   -27.1183301 Eh     change       -0.8832315E-06 Eh
   gradient norm :     0.0002980 Eh/α   predicted    -0.3606411E-06 ( -59.17%)
   displ. norm   :     0.0929598 α      lambda       -0.1204142E-05
   maximum displ.:     0.0576006 α      in ANC's #2, #3, #9, ...

........................................................................
.............................. CYCLE   18 ..............................
........................................................................

 iter      E             dE          RMSdq      gap      omega  full diag
   1    -27.4336663 -0.274337E+02  0.603E-02    5.04       0.0  T
   2    -27.4336666 -0.273187E-06  0.353E-02    5.04       1.0  T
   3    -27.4336668 -0.168951E-06  0.223E-03    5.04      10.0  T
   4    -27.4336668 -0.536660E-08  0.126E-03    5.04      17.7  T
   5    -27.4336668 -0.345332E-08  0.152E-04    5.04     146.9  T
   6    -27.4336668 -0.539160E-10  0.770E-05    5.04     290.5  T
     SCC iter.                  ...        0 min,  0.003 sec
     gradient                   ...        0 min,  0.005 sec
 * total energy  :   -27.1183309 Eh     change       -0.7779177E-06 Eh
   gradient norm :     0.0010067 Eh/α   predicted    -0.6087199E-06 ( -21.75%)
   displ. norm   :     0.0113179 α      lambda       -0.9064437E-06
   maximum displ.:     0.0088768 α      in ANC's #4, #1, #6, ...

........................................................................
.............................. CYCLE   19 ..............................
........................................................................

 iter      E             dE          RMSdq      gap      omega  full diag
   1    -27.4338706 -0.274339E+02  0.393E-03    5.05       0.0  T
   2    -27.4338706 -0.238245E-07  0.234E-03    5.05       9.6  T
   3    -27.4338706  0.657060E-09  0.869E-04    5.05      25.7  T
   4    -27.4338706 -0.387292E-08  0.122E-04    5.05     183.4  T
     SCC iter.                  ...        0 min,  0.002 sec
     gradient                   ...        0 min,  0.005 sec
 * total energy  :   -27.1183317 Eh     change       -0.7955303E-06 Eh
   gradient norm :     0.0002229 Eh/α   predicted    -0.4548602E-06 ( -42.82%)
   displ. norm   :     0.0392894 α      lambda       -0.7824261E-06
   maximum displ.:     0.0226483 α      in ANC's #3, #2, #9, ...

........................................................................
.............................. CYCLE   20 ..............................
........................................................................

 iter      E             dE          RMSdq      gap      omega  full diag
   1    -27.4338571 -0.274339E+02  0.269E-02    5.05       0.0  T
   2    -27.4338572 -0.526625E-07  0.158E-02    5.05       1.4  T
   3    -27.4338572 -0.345087E-07  0.100E-03    5.05      22.3  T
   4    -27.4338572 -0.528768E-09  0.188E-04    5.05     119.1  T
   5    -27.4338572 -0.239098E-09  0.557E-05    5.05     401.4  T
     SCC iter.                  ...        0 min,  0.002 sec
     gradient                   ...        0 min,  0.005 sec
 * total energy  :   -27.1183327 Eh     change       -0.9966329E-06 Eh
   gradient norm :     0.0001862 Eh/α   predicted    -0.3916386E-06 ( -60.70%)
   displ. norm   :     0.0528859 α      lambda       -0.9771787E-06
   maximum displ.:     0.0304741 α      in ANC's #3, #9, #2, ...
 * RMSD in coord.:     0.0968327 α      energy gain  -0.1136400E-02 Eh

generating ANC from exact Hessian ...
Using Lindh-Hessian (1995)
 Shifting diagonal of input Hessian by   8.634535340279609E-003
 Lowest  eigenvalues of input Hessian
    0.000000    0.000000    0.000000    0.000000    0.000000    0.000000
    0.010000    0.010929    0.011890    0.014399    0.015232    0.017161
    0.022002    0.027530    0.032882    0.036949    0.044063    0.051401
 Highest eigenvalues
    1.216442    1.236660    1.265378    1.329686    1.805924    2.327179
 

........................................................................
.............................. CYCLE   21 ..............................
........................................................................

 iter      E             dE          RMSdq      gap      omega  full diag
   1    -27.4337684 -0.274338E+02  0.368E-02    5.04       0.0  T
   2    -27.4337685 -0.106085E-06  0.216E-02    5.04       1.0  T
   3    -27.4337686 -0.645239E-07  0.142E-03    5.04      15.7  T
   4    -27.4337686 -0.159134E-08  0.762E-04    5.04      29.3  T
   5    -27.4337686 -0.131723E-08  0.119E-04    5.04     187.6  T
     SCC iter.                  ...        0 min,  0.002 sec
     gradient                   ...        0 min,  0.005 sec
 * total energy  :   -27.1183336 Eh     change       -0.9719686E-06 Eh
   gradient norm :     0.0003851 Eh/α   predicted     0.0000000E+00 (-100.00%)
   displ. norm   :     0.0039996 α      lambda       -0.1594818E-06
   maximum displ.:     0.0027428 α      in ANC's #3, #1, #2, ...

........................................................................
.............................. CYCLE   22 ..............................
........................................................................

 iter      E             dE          RMSdq      gap      omega  full diag
   1    -27.4338708 -0.274339E+02  0.149E-03    5.05       0.0  T
   2    -27.4338708 -0.637400E-08  0.917E-04    5.05      24.4  T
   3    -27.4338708 -0.365205E-09  0.426E-04    5.05      52.5  T
     SCC iter.                  ...        0 min,  0.001 sec
     gradient                   ...        0 min,  0.005 sec
 * total energy  :   -27.1183338 Eh     change       -0.1764989E-06 Eh
   gradient norm :     0.0001417 Eh/α   predicted    -0.1060513E-06 ( -39.91%)
   displ. norm   :     0.0047855 α      lambda        0.8824770E-08
   maximum displ.:     0.0034157 α      in ANC's #3, #1, #2, ...

........................................................................
.............................. CYCLE   23 ..............................
........................................................................

 iter      E             dE          RMSdq      gap      omega  full diag
   1    -27.4338772 -0.274339E+02  0.152E-03    5.05       0.0  T
   2    -27.4338772 -0.530687E-09  0.897E-04    5.05      24.9  T
   3    -27.4338772  0.525802E-12  0.114E-04    5.05     196.9  T
     SCC iter.                  ...        0 min,  0.001 sec
     gradient                   ...        0 min,  0.005 sec
 * total energy  :   -27.1183339 Eh     change       -0.1145732E-06 Eh
   gradient norm :     0.0001575 Eh/α   predicted    -0.4518321E-07 ( -60.56%)
   displ. norm   :     0.0103129 α      lambda       -0.1629114E-06
   maximum displ.:     0.0065672 α      in ANC's #3, #1, #4, ...

........................................................................
.............................. CYCLE   24 ..............................
........................................................................

 iter      E             dE          RMSdq      gap      omega  full diag
   1    -27.4338529 -0.274339E+02  0.295E-03    5.05       0.0  T
   2    -27.4338529 -0.164801E-08  0.174E-03    5.05      12.9  T
   3    -27.4338529 -0.226205E-09  0.123E-04    5.05     182.2  T
   4    -27.4338529 -0.404192E-10  0.513E-05    5.05     435.8  T
     SCC iter.                  ...        0 min,  0.002 sec
     gradient                   ...        0 min,  0.005 sec
 * total energy  :   -27.1183341 Eh     change       -0.2002772E-06 Eh
   gradient norm :     0.0000984 Eh/α   predicted    -0.8217295E-07 ( -58.97%)
   displ. norm   :     0.0200009 α      lambda       -0.2437723E-06
   maximum displ.:     0.0123143 α      in ANC's #3, #1, #4, ...

........................................................................
.............................. CYCLE   25 ..............................
........................................................................

 iter      E             dE          RMSdq      gap      omega  full diag
   1    -27.4338254 -0.274338E+02  0.569E-03    5.05       0.0  T
   2    -27.4338254 -0.273943E-08  0.336E-03    5.05       6.7  T
   3    -27.4338254 -0.768992E-09  0.173E-04    5.05     129.2  T
   4    -27.4338254 -0.470557E-10  0.847E-05    5.05     264.1  T
     SCC iter.                  ...        0 min,  0.002 sec
     gradient                   ...        0 min,  0.005 sec
 * total energy  :   -27.1183344 Eh     change       -0.2756179E-06 Eh
   gradient norm :     0.0001664 Eh/α   predicted    -0.1242827E-06 ( -54.91%)
   displ. norm   :     0.0248178 α      lambda       -0.2379327E-06
   maximum displ.:     0.0145620 α      in ANC's #3, #1, #4, ...

........................................................................
.............................. CYCLE   26 ..............................
........................................................................

 iter      E             dE          RMSdq      gap      omega  full diag
   1    -27.4338081 -0.274338E+02  0.694E-03    5.05       0.0  T
   2    -27.4338081 -0.276892E-08  0.410E-03    5.05       5.5  T
   3    -27.4338081 -0.134831E-08  0.209E-04    5.05     107.2  T
   4    -27.4338081 -0.281304E-10  0.920E-05    5.05     243.1  T
     SCC iter.                  ...        0 min,  0.002 sec
     gradient                   ...        0 min,  0.005 sec
 * total energy  :   -27.1183347 Eh     change       -0.2807794E-06 Eh
   gradient norm :     0.0001883 Eh/α   predicted    -0.1204817E-06 ( -57.09%)
   displ. norm   :     0.0341255 α      lambda       -0.3227704E-06
   maximum displ.:     0.0198431 α      in ANC's #1, #3, #5, ...

........................................................................
.............................. CYCLE   27 ..............................
........................................................................

 iter      E             dE          RMSdq      gap      omega  full diag
   1    -27.4337976 -0.274338E+02  0.983E-03    5.05       0.0  T
   2    -27.4337976 -0.536226E-08  0.581E-03    5.05       3.9  T
   3    -27.4337977 -0.322768E-08  0.320E-04    5.05      69.8  T
   4    -27.4337977 -0.358149E-10  0.644E-05    5.05     347.2  T
     SCC iter.                  ...        0 min,  0.002 sec
     gradient                   ...        0 min,  0.005 sec
 * total energy  :   -27.1183351 Eh     change       -0.3994556E-06 Eh
   gradient norm :     0.0001661 Eh/α   predicted    -0.1648837E-06 ( -58.72%)
   displ. norm   :     0.0606256 α      lambda       -0.5686550E-06
   maximum displ.:     0.0351163 α      in ANC's #1, #3, #5, ...

........................................................................
.............................. CYCLE   28 ..............................
........................................................................

 iter      E             dE          RMSdq      gap      omega  full diag
   1    -27.4337694 -0.274338E+02  0.179E-02    5.05       0.0  T
   2    -27.4337694 -0.201129E-07  0.106E-02    5.05       2.1  T
   3    -27.4337694 -0.120708E-07  0.622E-04    5.05      36.0  T
   4    -27.4337694 -0.114024E-09  0.232E-04    5.05      96.4  T
     SCC iter.                  ...        0 min,  0.002 sec
     gradient                   ...        0 min,  0.005 sec
 * total energy  :   -27.1183357 Eh     change       -0.6057060E-06 Eh
   gradient norm :     0.0001694 Eh/α   predicted    -0.2860427E-06 ( -52.78%)
   displ. norm   :     0.0382981 α      lambda       -0.3276812E-06
   maximum displ.:     0.0217983 α      in ANC's #1, #3, #5, ...

........................................................................
.............................. CYCLE   29 ..............................
........................................................................

 iter      E             dE          RMSdq      gap      omega  full diag
   1    -27.4338016 -0.274338E+02  0.119E-02    5.04       0.0  T
   2    -27.4338016 -0.949569E-08  0.700E-03    5.04       3.2  T
   3    -27.4338016 -0.583596E-08  0.431E-04    5.04      51.9  T
   4    -27.4338016 -0.786571E-10  0.108E-04    5.04     206.2  T
     SCC iter.                  ...        0 min,  0.002 sec
     gradient                   ...        0 min,  0.005 sec
 * total energy  :   -27.1183361 Eh     change       -0.3946994E-06 Eh
   gradient norm :     0.0001765 Eh/α   predicted    -0.1674247E-06 ( -57.58%)
   displ. norm   :     0.0193629 α      lambda       -0.1955503E-06
   maximum displ.:     0.0104524 α      in ANC's #1, #4, #3, ...

........................................................................
.............................. CYCLE   30 ..............................
........................................................................

 iter      E             dE          RMSdq      gap      omega  full diag
   1    -27.4338470 -0.274338E+02  0.649E-03    5.05       0.0  T
   2    -27.4338470 -0.350272E-08  0.382E-03    5.05       5.8  T
   3    -27.4338470 -0.139082E-08  0.282E-04    5.05      79.2  T
   4    -27.4338470 -0.447365E-09  0.162E-04    5.05     138.4  T
     SCC iter.                  ...        0 min,  0.002 sec
     gradient                   ...        0 min,  0.005 sec
 * total energy  :   -27.1183364 Eh     change       -0.2564164E-06 Eh
   gradient norm :     0.0001028 Eh/α   predicted    -0.1016751E-06 ( -60.35%)
   displ. norm   :     0.0142256 α      lambda       -0.1441469E-06
   maximum displ.:     0.0069670 α      in ANC's #1, #2, #4, ...

........................................................................
.............................. CYCLE   31 ..............................
........................................................................

 iter      E             dE          RMSdq      gap      omega  full diag
   1    -27.4338528 -0.274339E+02  0.520E-03    5.05       0.0  T
   2    -27.4338528 -0.220166E-08  0.306E-03    5.05       7.3  T
   3    -27.4338528 -0.870553E-09  0.220E-04    5.05     101.5  T
   4    -27.4338528 -0.284679E-09  0.126E-04    5.05     177.6  T
     SCC iter.                  ...        0 min,  0.002 sec
     gradient                   ...        0 min,  0.005 sec
 * total energy  :   -27.1183365 Eh     change       -0.1965760E-06 Eh
   gradient norm :     0.0000636 Eh/α   predicted    -0.7322356E-07 ( -62.75%)
   displ. norm   :     0.0118679 α      lambda       -0.1099310E-06
   maximum displ.:     0.0061443 α      in ANC's #3, #2, #4, ...

........................................................................
.............................. CYCLE   32 ..............................
........................................................................

 iter      E             dE          RMSdq      gap      omega  full diag
   1    -27.4338418 -0.274338E+02  0.468E-03    5.05       0.0  T
   2    -27.4338418 -0.160740E-08  0.274E-03    5.05       8.2  T
   3    -27.4338418 -0.894143E-09  0.167E-04    5.05     134.0  T
   4    -27.4338418 -0.289226E-10  0.926E-05    5.05     241.6  T
     SCC iter.                  ...        0 min,  0.002 sec
     gradient                   ...        0 min,  0.005 sec
 * total energy  :   -27.1183367 Eh     change       -0.1652676E-06 Eh
   gradient norm :     0.0000407 Eh/α   predicted    -0.5753706E-07 ( -65.19%)
   displ. norm   :     0.0115429 α      lambda       -0.1111531E-06
   maximum displ.:     0.0070863 α      in ANC's #3, #2, #4, ...

........................................................................
.............................. CYCLE   33 ..............................
........................................................................

 iter      E             dE          RMSdq      gap      omega  full diag
   1    -27.4338345 -0.274338E+02  0.492E-03    5.05       0.0  T
   2    -27.4338345 -0.176123E-08  0.288E-03    5.05       7.8  T
   3    -27.4338345 -0.104170E-08  0.174E-04    5.05     128.7  T
   4    -27.4338345 -0.190710E-10  0.827E-05    5.05     270.4  T
     SCC iter.                  ...        0 min,  0.002 sec
     gradient                   ...        0 min,  0.005 sec
 * total energy  :   -27.1183369 Eh     change       -0.1728245E-06 Eh
   gradient norm :     0.0000573 Eh/α   predicted    -0.5728673E-07 ( -66.85%)
   displ. norm   :     0.0144314 α      lambda       -0.1521558E-06
   maximum displ.:     0.0095012 α      in ANC's #3, #2, #4, ...

........................................................................
.............................. CYCLE   34 ..............................
........................................................................

 iter      E             dE          RMSdq      gap      omega  full diag
   1    -27.4338291 -0.274338E+02  0.669E-03    5.04       0.0  T
   2    -27.4338291 -0.314250E-08  0.392E-03    5.04       5.7  T
   3    -27.4338291 -0.194530E-08  0.234E-04    5.04      95.5  T
   4    -27.4338291 -0.320135E-10  0.854E-05    5.04     261.9  T
     SCC iter.                  ...        0 min,  0.002 sec
     gradient                   ...        0 min,  0.005 sec
 * total energy  :   -27.1183371 Eh     change       -0.2462300E-06 Eh
   gradient norm :     0.0000822 Eh/α   predicted    -0.7966768E-07 ( -67.65%)
   displ. norm   :     0.0204057 α      lambda       -0.2456672E-06
   maximum displ.:     0.0134121 α      in ANC's #3, #2, #4, ...

........................................................................
.............................. CYCLE   35 ..............................
........................................................................

 iter      E             dE          RMSdq      gap      omega  full diag
   1    -27.4338347 -0.274338E+02  0.103E-02    5.04       0.0  T
   2    -27.4338347 -0.717062E-08  0.605E-03    5.04       3.7  T
   3    -27.4338347 -0.452630E-08  0.359E-04    5.04      62.2  T
   4    -27.4338347 -0.615188E-10  0.151E-04    5.04     148.0  T
     SCC iter.                  ...        0 min,  0.002 sec
     gradient                   ...        0 min,  0.005 sec
 * total energy  :   -27.1183375 Eh     change       -0.3768787E-06 Eh
   gradient norm :     0.0000980 Eh/α   predicted    -0.1261217E-06 ( -66.54%)
   displ. norm   :     0.0396792 α      lambda       -0.4780289E-06
   maximum displ.:     0.0268382 α      in ANC's #2, #3, #4, ...

........................................................................
.............................. CYCLE   36 ..............................
........................................................................

 iter      E             dE          RMSdq      gap      omega  full diag
   1    -27.4338048 -0.274338E+02  0.206E-02    5.04       0.0  T
   2    -27.4338049 -0.278784E-07  0.121E-02    5.04       1.8  T
   3    -27.4338049 -0.181300E-07  0.716E-04    5.04      31.2  T
   4    -27.4338049 -0.358554E-09  0.115E-04    5.04     193.8  T
     SCC iter.                  ...        0 min,  0.002 sec
     gradient                   ...        0 min,  0.005 sec
 * total energy  :   -27.1183381 Eh     change       -0.6375423E-06 Eh
   gradient norm :     0.0001601 Eh/α   predicted    -0.2395446E-06 ( -62.43%)
   displ. norm   :     0.0648334 α      lambda       -0.6149186E-06
   maximum displ.:     0.0433808 α      in ANC's #2, #3, #4, ...

........................................................................
.............................. CYCLE   37 ..............................
........................................................................

 iter      E             dE          RMSdq      gap      omega  full diag
   1    -27.4337081 -0.274337E+02  0.342E-02    5.04       0.0  T
   2    -27.4337082 -0.774147E-07  0.200E-02    5.04       1.1  T
   3    -27.4337082 -0.493146E-07  0.120E-03    5.04      18.7  T
   4    -27.4337082 -0.586127E-09  0.480E-04    5.04      46.6  T
   5    -27.4337082 -0.817494E-09  0.798E-05    5.04     280.2  T
     SCC iter.                  ...        0 min,  0.002 sec
     gradient                   ...        0 min,  0.005 sec
 * total energy  :   -27.1183388 Eh     change       -0.6535134E-06 Eh
   gradient norm :     0.0004473 Eh/α   predicted    -0.3085005E-06 ( -52.79%)
   displ. norm   :     0.0675244 α      lambda        0.2910642E-06
   maximum displ.:     0.0451003 α      in ANC's #2, #3, #4, ...

........................................................................
.............................. CYCLE   38 ..............................
........................................................................

 iter      E             dE          RMSdq      gap      omega  full diag
   1    -27.4334743 -0.274335E+02  0.357E-02    5.04       0.0  T
   2    -27.4334743 -0.918869E-07  0.209E-02    5.04       1.1  T
   3    -27.4334744 -0.510611E-07  0.133E-03    5.04      16.8  T
   4    -27.4334744 -0.382139E-08  0.803E-04    5.04      27.8  T
   5    -27.4334744 -0.977369E-09  0.127E-04    5.04     175.4  T
     SCC iter.                  ...        0 min,  0.002 sec
     gradient                   ...        0 min,  0.005 sec
 * total energy  :   -27.1183384 Eh     change        0.3847917E-06 Eh
   gradient norm :     0.0011463 Eh/α   predicted     0.1450557E-06 ( -62.30%)
   displ. norm   :     0.0386350 α      lambda       -0.9749378E-06
   maximum displ.:     0.0265124 α      in ANC's #2, #3, #4, ...

........................................................................
.............................. CYCLE   39 ..............................
........................................................................

 iter      E             dE          RMSdq      gap      omega  full diag
   1    -27.4337519 -0.274338E+02  0.204E-02    5.04       0.0  T
   2    -27.4337520 -0.415840E-07  0.120E-02    5.04       1.9  T
   3    -27.4337520 -0.122138E-07  0.961E-04    5.04      23.3  T
   4    -27.4337520 -0.681892E-08  0.503E-04    5.04      44.4  T
     SCC iter.                  ...        0 min,  0.002 sec
     gradient                   ...        0 min,  0.005 sec
 * total energy  :   -27.1183392 Eh     change       -0.7563673E-06 Eh
   gradient norm :     0.0003212 Eh/α   predicted    -0.4880047E-06 ( -35.48%)
   displ. norm   :     0.0166626 α      lambda       -0.2487706E-06
   maximum displ.:     0.0122493 α      in ANC's #3, #2, #4, ...

........................................................................
.............................. CYCLE   40 ..............................
........................................................................

 iter      E             dE          RMSdq      gap      omega  full diag
   1    -27.4338127 -0.274338E+02  0.878E-03    5.05       0.0  T
   2    -27.4338127 -0.598830E-08  0.516E-03    5.04       4.3  T
   3    -27.4338127 -0.245127E-08  0.371E-04    5.04      60.3  T
   4    -27.4338127 -0.795424E-09  0.212E-04    5.04     105.5  T
     SCC iter.                  ...        0 min,  0.002 sec
     gradient                   ...        0 min,  0.005 sec
 * total energy  :   -27.1183395 Eh     change       -0.3046743E-06 Eh
   gradient norm :     0.0001363 Eh/α   predicted    -0.1266937E-06 ( -58.42%)
   displ. norm   :     0.0224839 α      lambda       -0.4900397E-06
   maximum displ.:     0.0169645 α      in ANC's #3, #5, #4, ...

........................................................................
.............................. CYCLE   41 ..............................
........................................................................

 iter      E             dE          RMSdq      gap      omega  full diag
   1    -27.4338722 -0.274339E+02  0.888E-03    5.05       0.0  T
   2    -27.4338722 -0.917552E-08  0.524E-03    5.05       4.3  T
   3    -27.4338722 -0.194693E-08  0.510E-04    5.05      43.9  T
   4    -27.4338722 -0.215036E-08  0.250E-04    5.05      89.6  T
     SCC iter.                  ...        0 min,  0.002 sec
     gradient                   ...        0 min,  0.005 sec
 * total energy  :   -27.1183400 Eh     change       -0.5521701E-06 Eh
   gradient norm :     0.0002368 Eh/α   predicted    -0.2475792E-06 ( -55.16%)
   displ. norm   :     0.0313674 α      lambda       -0.3876171E-06
   maximum displ.:     0.0242405 α      in ANC's #3, #5, #4, ...

........................................................................
.............................. CYCLE   42 ..............................
........................................................................

 iter      E             dE          RMSdq      gap      omega  full diag
   1    -27.4338614 -0.274339E+02  0.135E-02    5.05       0.0  T
   2    -27.4338614 -0.135489E-07  0.792E-03    5.05       2.8  T
   3    -27.4338614 -0.846544E-08  0.520E-04    5.05      43.0  T
   4    -27.4338614 -0.125059E-09  0.128E-04    5.05     174.4  T
     SCC iter.                  ...        0 min,  0.002 sec
     gradient                   ...        0 min,  0.005 sec
 * total energy  :   -27.1183405 Eh     change       -0.4851991E-06 Eh
   gradient norm :     0.0001812 Eh/α   predicted    -0.1961144E-06 ( -59.58%)
   displ. norm   :     0.0200198 α      lambda       -0.1754363E-06
   maximum displ.:     0.0154589 α      in ANC's #3, #4, #2, ...
 * RMSD in coord.:     0.1002842 α      energy gain  -0.7838444E-05 Eh

generating ANC from exact Hessian ...
Using Lindh-Hessian (1995)
 Shifting diagonal of input Hessian by   8.622810418793835E-003
 Lowest  eigenvalues of input Hessian
    0.000000    0.000000    0.000000    0.000000    0.000000    0.000000
    0.010000    0.010950    0.011790    0.014535    0.015285    0.017032
    0.022053    0.027535    0.032869    0.036805    0.044024    0.051439
 Highest eigenvalues
    1.215720    1.236718    1.265315    1.329308    1.806630    2.328081
 

........................................................................
.............................. CYCLE   43 ..............................
........................................................................

 iter      E             dE          RMSdq      gap      omega  full diag
   1    -27.4338135 -0.274338E+02  0.915E-03    5.04       0.0  T
   2    -27.4338135 -0.721785E-08  0.537E-03    5.04       4.2  T
   3    -27.4338135 -0.371659E-08  0.372E-04    5.04      60.2  T
   4    -27.4338135 -0.283972E-09  0.219E-04    5.04     102.0  T
     SCC iter.                  ...        0 min,  0.002 sec
     gradient                   ...        0 min,  0.005 sec
 * total energy  :   -27.1183408 Eh     change       -0.2379990E-06 Eh
   gradient norm :     0.0000611 Eh/α   predicted     0.0000000E+00 (-100.00%)
   displ. norm   :     0.0000916 α      lambda        0.0000000E+00
   maximum displ.:     0.0000511 α      in ANC's #53, #37, #38, ...

........................................................................
.............................. CYCLE   44 ..............................
........................................................................

 iter      E             dE          RMSdq      gap      omega  full diag
   1    -27.4338263 -0.274338E+02  0.141E-04    5.04       0.0  T
   2    -27.4338263 -0.833893E-10  0.780E-05    5.04     286.8  T
   3    -27.4338263 -0.579092E-11  0.405E-05    5.04     551.7  T
     SCC iter.                  ...        0 min,  0.001 sec
     gradient                   ...        0 min,  0.005 sec
 * total energy  :   -27.1183408 Eh     change       -0.3706887E-08 Eh
   gradient norm :     0.0000327 Eh/α   predicted    -0.2124636E-08 ( -42.68%)
   displ. norm   :     0.0000916 α      lambda        0.0000000E+00
   maximum displ.:     0.0000511 α      in ANC's #53, #37, #38, ...

   *** GEOMETRY OPTIMIZATION CONVERGED AFTER 44 ITERATIONS ***

------------------------------------------------------------------------
 total energy gain   :        -0.0011445 Eh       -0.7182 kcal/mol
 total RMSD          :         0.1715576 a0        0.0908 Å
 total power (kW/mol):        -0.0682917 (step)   -6.8250 (real)
------------------------------------------------------------------------

 ANCopt (total)                0 d,  0 h,  0 min,  0.440 sec
 optimizer setup                ...        0 min,  0.000 sec (  0.071%)
 model hessian                  ...        0 min,  0.014 sec (  3.098%)
 ANC generation                 ...        0 min,  0.001 sec (  0.286%)
 coordinate transformation      ...        0 min,  0.000 sec (  0.066%)
 single point calculation       ...        0 min,  0.410 sec ( 93.106%)
 optimization log               ...        0 min,  0.010 sec (  2.332%)
 hessian update                 ...        0 min,  0.000 sec (  0.074%)
 rational function              ...        0 min,  0.002 sec (  0.510%)

================
 final structure:
================
$coord
       -6.32350118484926       -0.51504143351850        1.78463805620654      C
       -5.32426263300248       -0.26943179716372       -0.90690088817687      C
       -2.68150936886630        0.88795172331125       -1.03173706017477      C
       -0.66344397522573       -0.79858905769171        0.15319448889239      C
        1.96365113434653        0.18832465154213       -0.30969669521876      C
        2.51844062330924        1.92611492326225       -1.69521064033602      O
        3.67167503724982       -1.11490506668634        1.00171855063432      O
        6.26476888844165       -0.40746169049701        0.71990117661749      C
       -6.26778803484280        1.30483796008110        2.73778325683642      H
       -8.26954373774010       -1.17275591065039        1.75978469485398      H
       -5.21028584197582       -1.85657347460866        2.86893615625100      H
       -5.29956219047565       -2.12677142358398       -1.80458095382458      H
       -6.60655256949963        0.93031501617473       -1.98921016033139      H
       -2.67861540312749        2.71886945084341       -0.08094409879690      H
       -2.17159384980701        1.22522946396676       -3.00277768341129      H
       -0.75368418518219       -2.69834538269611       -0.65064178157762      H
       -0.91778538673015       -0.97654883679098        2.18956673664392      H
        6.54187105174431        1.52645382209060        1.37613686588259      H
        6.81774683668697       -0.52824604094773       -1.26182072092655      H
        7.32695061752255       -1.73504788683888        1.86675713730194      H
$end
 
 Bond Distances (Angstroems)
 ---------------------------
C1-C2=1.5248         C1-H9=1.0875         C1-H10=1.0871        C1-H11=1.0864        C2-C1=1.5248         C2-C3=1.5281         
C2-H12=1.0917        C2-H13=1.0916        C3-C2=1.5281         C3-C4=1.5265         C3-H14=1.0917        C3-H15=1.0921        
C4-C3=1.5265         C4-C5=1.5051         C4-H16=1.0926        C4-H17=1.0901        C5-C4=1.5051         C5-O6=1.2122         
C5-O7=1.3320         O6-C5=1.2122         O7-C5=1.3320         O7-C8=1.4302         C8-O7=1.4302         C8-H18=1.0906        
C8-H19=1.0906        C8-H20=1.0853        H9-C1=1.0875         H10-C1=1.0871        H11-C1=1.0864        H12-C2=1.0917        
H13-C2=1.0916        H14-C3=1.0917        H15-C3=1.0921        H16-C4=1.0926        H17-C4=1.0901        H18-C8=1.0906        
H19-C8=1.0906        H20-C8=1.0853        
 C  H  Rav=1.0898 sigma=0.0024  Rmin=1.0853  Rmax=1.0926    12
 C  C  Rav=1.5211 sigma=0.0093  Rmin=1.5051  Rmax=1.5281     4
 O  C  Rav=1.3248 sigma=0.0891  Rmin=1.2122  Rmax=1.4302     3
 
 selected bond angles (degree)
 --------------------
H9-C1-C2=110.39                H10-C1-C2=110.15               H10-C1-H9=108.35               H11-C1-C2=111.16               
H11-C1-H9=108.60               H11-C1-H10=108.11              C3-C2-C1=113.07                H12-C2-C1=109.50               
H12-C2-C3=109.33               H13-C2-C1=108.91               H13-C2-C3=108.25               H13-C2-H12=107.62              
C4-C3-C2=112.84                H14-C3-C2=109.70               H14-C3-C4=109.18               H15-C3-C2=109.45               
H15-C3-C4=108.36               H15-C3-H14=107.14              C5-C4-C3=112.11                H16-C4-C3=110.33               
H16-C4-C5=107.23               H17-C4-C3=111.73               H17-C4-C5=107.75               H17-C4-H16=107.46              
O6-C5-C4=125.83                O7-C5-C4=111.24                O7-C5-O6=122.93                C8-O7-C5=117.47                
H18-C8-O7=109.96               H19-C8-O7=110.02               H19-C8-H18=108.97              H20-C8-O7=105.62               
H20-C8-H18=111.08              H20-C8-H19=111.15              
 
 selected dihedral angles (degree)
 ---------------------------------
C3-C2-C1-H9= 54.88            C3-C2-C1-H10=174.49           C3-C2-C1-H11=294.29           H12-C2-C1-H9=177.06           
H12-C2-C1-H10=296.67          H12-C2-C1-H11= 56.48          H13-C2-C1-H9=294.50           H13-C2-C1-H10= 54.11          
H13-C2-C1-H11=173.92          C4-C3-C2-C1= 66.14            C4-C3-C2-H12=303.86           C4-C3-C2-H13=186.89           
H14-C3-C2-C1=304.17           H14-C3-C2-H12=181.89          H14-C3-C2-H13= 64.92          H15-C3-C2-C1=186.88           
H15-C3-C2-H12= 64.60          H15-C3-C2-H13=307.63          C5-C4-C3-C2=171.89            C5-C4-C3-H14=294.15           
C5-C4-C3-H15= 50.53           H16-C4-C3-C2= 52.44           H16-C4-C3-H14=174.70          H16-C4-C3-H15=291.08          
H17-C4-C3-C2=292.97           H17-C4-C3-H14= 55.23          H17-C4-C3-H15=171.61          O6-C5-C4-C3=351.52            
O6-C5-C4-H16=112.77           O6-C5-C4-H17=228.18           O7-C5-C4-C3=171.99            O7-C5-C4-H16=293.24           
O7-C5-C4-H17= 48.65           C8-O7-C5-C4=179.16            C8-O7-C5-O6=359.61            H18-C8-O7-C5= 62.41           
H19-C8-O7-C5=302.38           H20-C8-O7-C5=182.34           
           -------------------------------------------------
          |                Final Singlepoint                |
           -------------------------------------------------

          ...................................................
          :                      SETUP                      :
          :.................................................:
          :  # basis functions                  44          :
          :  # atomic orbitals                  44          :
          :  # shells                           28          :
          :  # electrons                        48          :
          :  max. iterations                   250          :
          :  Hamiltonian                  GFN2-xTB          :
          :  restarted?                      false          :
          :  GBSA solvation                   true          :
          :  PC potential                    false          :
          :  electronic temp.          300.0000000     K    :
          :  accuracy                    1.0000000          :
          :  -> integral cutoff          0.2500000E+02      :
          :  -> integral neglect         0.1000000E-07      :
          :  -> SCF convergence          0.1000000E-05 Eh   :
          :  -> wf. convergence          0.1000000E-03 e    :
          :  Broyden damping             0.4000000          :
          :  net charge                          0          :
          :  unpaired electrons                  0          :
          ...................................................

 iter      E             dE          RMSdq      gap      omega  full diag
   1    -27.4338263 -0.274338E+02  0.133E-05    5.04       0.0  T
   2    -27.4338263 -0.497380E-12  0.852E-06    5.04    2624.4  T
   3    -27.4338263 -0.888178E-13  0.494E-06    5.04    4527.0  T

   *** convergence criteria satisfied after 3 iterations ***

         #    Occupation            Energy/Eh            Energy/eV
      -------------------------------------------------------------
         1        2.0000           -0.7510436             -20.4369
       ...           ...                  ...                  ...
        18        2.0000           -0.4721533             -12.8479
        19        2.0000           -0.4567877             -12.4298
        20        2.0000           -0.4508113             -12.2672
        21        2.0000           -0.4382871             -11.9264
        22        2.0000           -0.4291805             -11.6786
        23        2.0000           -0.4266873             -11.6108
        24        2.0000           -0.4227601             -11.5039 (HOMO)
        25                         -0.2373703              -6.4592 (LUMO)
        26                         -0.0012724              -0.0346
        27                          0.0944042               2.5689
        28                          0.1055179               2.8713
        29                          0.1219193               3.3176
       ...                                ...                  ...
        44                          0.6187416              16.8368
      -------------------------------------------------------------
                  HL-Gap            0.1853898 Eh            5.0447 eV
             Fermi-level           -0.3300652 Eh           -8.9815 eV

 SCC (total)                   0 d,  0 h,  0 min,  0.009 sec
 SCC setup                      ...        0 min,  0.001 sec ( 12.856%)
 Dispersion                     ...        0 min,  0.000 sec (  0.768%)
 classical contributions        ...        0 min,  0.000 sec (  0.215%)
 integral evaluation            ...        0 min,  0.001 sec ( 16.303%)
 iterations                     ...        0 min,  0.002 sec ( 17.057%)
 molecular gradient             ...        0 min,  0.005 sec ( 51.196%)
 printout                       ...        0 min,  0.000 sec (  1.446%)

         :::::::::::::::::::::::::::::::::::::::::::::::::::::
         ::                     SUMMARY                     ::
         :::::::::::::::::::::::::::::::::::::::::::::::::::::
         :: total energy             -27.118340757095 Eh    ::
         :: total w/o Gsasa/hb       -27.118537390337 Eh    ::
         :: gradient norm              0.000032593394 Eh/a0 ::
         :: HOMO-LUMO gap              5.044712052710 eV    ::
         ::.................................................::
         :: SCC energy               -27.433853122748 Eh    ::
         :: -> isotropic ES            0.057658751742 Eh    ::
         :: -> anisotropic ES          0.001983568774 Eh    ::
         :: -> anisotropic XC          0.008291579926 Eh    ::
         :: -> dispersion             -0.011388743945 Eh    ::
         :: -> Gsolv                  -0.008627693627 Eh    ::
         ::    -> Gelec               -0.008824326869 Eh    ::
         ::    -> Gsasa                0.001418645241 Eh    ::
         ::    -> Ghb                 -0.002302771697 Eh    ::
         ::    -> Gshift               0.001080759698 Eh    ::
         :: repulsion energy           0.315512365654 Eh    ::
         :: add. restraining           0.000000000000 Eh    ::
         :: total charge               0.000000000000 e     ::
         :::::::::::::::::::::::::::::::::::::::::::::::::::::

           ------------------------------------------------- 
          |                Numerical Hessian                |
           ------------------------------------------------- 
step length          :   0.00500
SCC accuracy         :   0.30000
Hessian scale factor :   1.00000
frozen atoms in %    :   0.00000    0
RMS gradient         :   0.00003
estimated CPU  time      0.02 min
estimated wall time      0.02 min

writing file <hessian>.

 projected vibrational frequencies (cm⁻¹)
eigval :       -0.00    -0.00    -0.00     0.00     0.00     0.00
eigval :       12.98    41.39    49.00    97.76   134.96   181.35
eigval :      227.86   278.12   281.58   413.59   435.04   568.72
eigval :      679.36   776.73   817.87   912.62   933.27   950.68
eigval :      994.49  1038.99  1078.81  1112.95  1115.88  1129.58
eigval :     1142.30  1152.97  1183.01  1251.23  1255.96  1284.61
eigval :     1346.10  1358.73  1374.03  1410.38  1424.85  1425.16
eigval :     1450.24  1486.67  1492.22  1501.03  1504.85  1705.40
eigval :     2963.14  2969.10  2975.50  2986.26  2986.36  2993.05
eigval :     2996.03  2999.51  3030.79  3036.58  3048.06  3056.88
           -------------------------------------------------
          |                Property Printout                |
           -------------------------------------------------

    * Orbital Energies and Occupations

         #    Occupation            Energy/Eh            Energy/eV
      -------------------------------------------------------------
         1        2.0000           -0.7510436             -20.4369
       ...           ...                  ...                  ...
        12        2.0000           -0.5234800             -14.2446
        13        2.0000           -0.5129637             -13.9585
        14        2.0000           -0.5074312             -13.8079
        15        2.0000           -0.4934913             -13.4286
        16        2.0000           -0.4827801             -13.1371
        17        2.0000           -0.4752859             -12.9332
        18        2.0000           -0.4721532             -12.8479
        19        2.0000           -0.4567877             -12.4298
        20        2.0000           -0.4508113             -12.2672
        21        2.0000           -0.4382871             -11.9264
        22        2.0000           -0.4291805             -11.6786
        23        2.0000           -0.4266873             -11.6108
        24        2.0000           -0.4227601             -11.5039 (HOMO)
        25                         -0.2373703              -6.4592 (LUMO)
        26                         -0.0012723              -0.0346
        27                          0.0944042               2.5689
        28                          0.1055178               2.8713
        29                          0.1219193               3.3176
        30                          0.1391946               3.7877
        31                          0.1402704               3.8170
        32                          0.1442405               3.9250
        33                          0.1465214               3.9870
        34                          0.1770937               4.8190
        35                          0.1946767               5.2974
       ...                                ...                  ...
        44                          0.6187416              16.8368
      -------------------------------------------------------------
                  HL-Gap            0.1853898 Eh            5.0447 eV
             Fermi-level           -0.3300652 Eh           -8.9815 eV

     #   Z          covCN         q      C6AA      α(0)
     1   6 C        3.752    -0.115    22.770     6.805
     2   6 C        3.800    -0.061    21.675     6.629
     3   6 C        3.803    -0.059    21.641     6.623
     4   6 C        3.804    -0.100    22.414     6.740
     5   6 C        2.716     0.362    20.852     7.475
     6   8 O        0.856    -0.480    23.351     6.479
     7   8 O        1.704    -0.275    18.556     5.816
     8   6 C        3.649     0.011    20.721     6.539
     9   1 H        0.925     0.039     2.457     2.451
    10   1 H        0.925     0.041     2.430     2.438
    11   1 H        0.925     0.042     2.428     2.437
    12   1 H        0.924     0.039     2.456     2.451
    13   1 H        0.924     0.040     2.453     2.449
    14   1 H        0.924     0.043     2.407     2.426
    15   1 H        0.924     0.044     2.400     2.423
    16   1 H        0.924     0.091     1.869     2.138
    17   1 H        0.925     0.088     1.898     2.154
    18   1 H        0.924     0.074     2.037     2.232
    19   1 H        0.924     0.074     2.045     2.236
    20   1 H        0.925     0.102     1.763     2.076

 Mol. C6AA /au·bohr⁶  :       3001.075088
 Mol. C8AA /au·bohr⁸  :      63885.231154
 Mol. α(0) /au        :         81.017396


Wiberg/Mayer (AO) data.
largest (>0.10) Wiberg bond orders for each atom

 ---------------------------------------------------------------------------
     #   Z sym  total        # sym  WBO       # sym  WBO       # sym  WBO
 ---------------------------------------------------------------------------
     1   6 C    3.996 --     2 C    1.020     9 H    0.987    10 H    0.987
                            11 H    0.986
     2   6 C    3.996 --     1 C    1.020     3 C    1.007    13 H    0.978
                            12 H    0.977
     3   6 C    3.993 --     2 C    1.007     4 C    1.007    14 H    0.977
                            15 H    0.976
     4   6 C    3.990 --     3 C    1.007     5 C    0.983    17 H    0.950
                            16 H    0.941
     5   6 C    3.904 --     6 O    1.703     7 O    1.152     4 C    0.983
     6   8 O    1.981 --     5 C    1.703     7 O    0.167
     7   8 O    2.303 --     5 C    1.152     8 C    0.939     6 O    0.167
     8   6 C    3.904 --    19 H    0.977    20 H    0.977    18 H    0.976
                             7 O    0.939
     9   1 H    0.998 --     1 C    0.987
    10   1 H    0.998 --     1 C    0.987
    11   1 H    0.998 --     1 C    0.986
    12   1 H    0.998 --     2 C    0.977
    13   1 H    0.998 --     2 C    0.978
    14   1 H    0.998 --     3 C    0.977
    15   1 H    0.998 --     3 C    0.976
    16   1 H    0.992 --     4 C    0.941
    17   1 H    0.992 --     4 C    0.950
    18   1 H    0.994 --     8 C    0.976
    19   1 H    0.995 --     8 C    0.977
    20   1 H    0.989 --     8 C    0.977
 ---------------------------------------------------------------------------

Topologies differ in total number of bonds
Writing topology from bond orders to xtbtopo.mol

molecular dipole:
                 x           y           z       tot (Debye)
 q only:       -0.055      -0.836       0.679
   full:       -0.013      -0.858       0.692       2.801
molecular quadrupole (traceless):
                xx          xy          yy          xz          yz          zz
 q only:        9.212      -2.673      -5.028       3.478       2.393      -4.183
  q+dip:        6.798      -3.014      -3.707       3.399       4.023      -3.091
   full:        7.507      -2.945      -4.264       3.317       4.208      -3.243

           -------------------------------------------------
          |                Geometry Summary                 |
           -------------------------------------------------

      molecular mass/u    :      116.1585142
   center of mass at/Å    :        0.0007574      -0.0064572      -0.0097375
  moments of inertia/u·Å² :        0.8837506E+02   0.6070184E+03   0.6649421E+03
rotational constants/cm⁻¹ :        0.1907510E+00   0.2777121E-01   0.2535203E-01

 * 18 selected distances

     #   Z          #   Z                                           value/Å
     1   6 C        2   6 C                                       1.5248373
     2   6 C        3   6 C                                       1.5281468 (max)
     3   6 C        4   6 C                                       1.5264788
     5   6 C        6   8 O                                       1.2121920
     5   6 C        7   8 O                                       1.3319680
     7   8 O        8   6 C                                       1.4301531
     1   6 C        9   1 H                                       1.0875270
     1   6 C       10   1 H                                       1.0871068
     1   6 C       11   1 H                                       1.0863816
     2   6 C       12   1 H                                       1.0917159
     2   6 C       13   1 H                                       1.0915752
     3   6 C       14   1 H                                       1.0917320
     3   6 C       15   1 H                                       1.0920520
     4   6 C       16   1 H                                       1.0926415
     4   6 C       17   1 H                                       1.0900501
     8   6 C       18   1 H                                       1.0906008
     8   6 C       19   1 H                                       1.0906182
     8   6 C       20   1 H                                       1.0852642 (min)

 * 3 distinct bonds (by element types)

   Z      Z             #   av. dist./Å        max./Å        min./Å
   1 H    6 C          12     1.0897721     1.0926415     1.0852642
   6 C    6 C           3     1.5264876     1.5281468     1.5248373
   6 C    8 O           3     1.3247710     1.4301531     1.2121920

           -------------------------------------------------
          |               Frequency Printout                |
           -------------------------------------------------
 projected vibrational frequencies (cm⁻¹)
eigval :       -0.00    -0.00    -0.00     0.00     0.00     0.00
eigval :       12.98    41.39    49.00    97.76   134.96   181.35
eigval :      227.86   278.12   281.58   413.59   435.04   568.72
eigval :      679.36   776.73   817.87   912.62   933.27   950.68
eigval :      994.49  1038.99  1078.81  1112.95  1115.88  1129.58
eigval :     1142.30  1152.97  1183.01  1251.23  1255.96  1284.61
eigval :     1346.10  1358.73  1374.03  1410.38  1424.85  1425.16
eigval :     1450.24  1486.67  1492.22  1501.03  1504.85  1705.40
eigval :     2963.14  2969.10  2975.50  2986.26  2986.36  2993.05
eigval :     2996.03  2999.51  3030.79  3036.58  3048.06  3056.88
 reduced masses (amu)
   1: 12.17   2: 11.77   3: 10.80   4: 10.20   5: 12.45   6: 10.85   7: 10.72   8:  1.81
   9:  8.77  10:  8.08  11:  7.69  12: 10.35  13:  5.26  14: 12.11  15:  6.92  16: 10.32
  17:  9.13  18:  9.13  19: 11.88  20:  3.96  21:  3.32  22: 10.55  23:  7.17  24:  5.96
  25: 10.22  26:  6.86  27:  4.30  28:  3.83  29:  8.67  30:  7.60  31:  7.85  32:  9.19
  33:  6.09  34:  3.31  35:  3.45  36:  3.90  37:  4.48  38:  5.36  39:  2.65  40:  3.15
  41:  1.55  42:  2.12  43:  1.60  44:  1.88  45:  1.86  46:  1.66  47:  1.55  48: 13.31
  49:  1.83  50:  1.94  51:  1.91  52:  1.61  53:  1.89  54:  1.53  55:  1.39  56:  1.64
  57:  1.89  58:  1.87  59:  1.38  60:  1.80
 IR intensities (km·mol⁻¹)
   1:  0.46   2:  0.04   3:  0.04   4:  0.86   5:  0.26   6:  2.60   7:  1.45   8:  0.23
   9:  0.47  10:  1.01  11:  1.54  12: 11.01  13:  0.99  14: 24.77  15:  3.29  16:  0.97
  17:  0.67  18: 13.84  19: 10.77  20: 31.90  21: 10.82  22: 24.15  23:  9.02  24:  5.47
  25: 14.27  26:  3.15  27:  5.32  28:  2.26  29: 45.12  30:146.96  31: 44.51  32:202.95
  33: 32.85  34: 12.88  35: 49.21  36: 54.72  37: 10.94  38: 18.34  39: 22.40  40:  5.25
  41: 12.18  42: 19.26  43:  2.56  44:  0.27  45:  1.60  46:  0.84  47:  1.03  48:646.50
  49:  2.69  50: 33.06  51: 63.79  52: 49.59  53: 55.23  54: 49.78  55: 15.88  56: 43.28
  57: 80.72  58: 75.76  59: 44.74  60:  2.78
 Raman intensities (Ä⁴*amu⁻¹)
   1:  0.00   2:  0.00   3:  0.00   4:  0.00   5:  0.00   6:  0.00   7:  0.00   8:  0.00
   9:  0.00  10:  0.00  11:  0.00  12:  0.00  13:  0.00  14:  0.00  15:  0.00  16:  0.00
  17:  0.00  18:  0.00  19:  0.00  20:  0.00  21:  0.00  22:  0.00  23:  0.00  24:  0.00
  25:  0.00  26:  0.00  27:  0.00  28:  0.00  29:  0.00  30:  0.00  31:  0.00  32:  0.00
  33:  0.00  34:  0.00  35:  0.00  36:  0.00  37:  0.00  38:  0.00  39:  0.00  40:  0.00
  41:  0.00  42:  0.00  43:  0.00  44:  0.00  45:  0.00  46:  0.00  47:  0.00  48:  0.00
  49:  0.00  50:  0.00  51:  0.00  52:  0.00  53:  0.00  54:  0.00  55:  0.00  56:  0.00
  57:  0.00  58:  0.00  59:  0.00  60:  0.00
 output can be read by thermo (or use thermo option).
 writing <g98.out> molden fake output.
 recommended (thermochemical) frequency scaling factor: 1.0
           -------------------------------------------------
          |             Thermodynamic Functions             |
           -------------------------------------------------

Molecule has no symmetry elements
It seems to be the C1 point group
c1  symmetry found (for desy threshold:  0.10E+00) used in thermo

          ...................................................
          :                      SETUP                      :
          :.................................................:
          :  # frequencies                          54      :
          :  # imaginary freq.                       0      :
          :  linear?                             false      :
          :  only rotor calc.                    false      :
          :  symmetry                               c1      :
          :  rotational number                       1      :
          :  scaling factor                  1.0000000      :
          :  rotor cutoff                    0.0000000 cm⁻¹ :
          :  imag. cutoff                 -100.0000000 cm⁻¹ :
          :.................................................:

    mode    ω/cm⁻¹     T·S(HO)/kcal·mol⁻¹    T·S(FR)/kcal·mol⁻¹   T·S(vib)
   ------------------------------------------------------------------------
       1     12.98    -2.23415 (100.00%)    -1.45530 (  0.00%)    -2.23415
       2     41.39    -1.54781 (100.00%)    -1.11226 (  0.00%)    -1.54781
       3     49.00    -1.44817 (100.00%)    -1.06229 (  0.00%)    -1.44817
       4     97.76    -1.04308 (100.00%)    -0.85781 (  0.00%)    -1.04308
       5    134.96    -0.85693 (100.00%)    -0.76232 (  0.00%)    -0.85693
       6    181.35    -0.69006 (100.00%)    -0.67481 (  0.00%)    -0.69006
       7    227.86    -0.56520 (100.00%)    -0.60718 (  0.00%)    -0.56520
       8    278.12    -0.46070 (100.00%)    -0.54815 (  0.00%)    -0.46070
       9    281.58    -0.45439 (100.00%)    -0.54449 (  0.00%)    -0.45439
   ------------------------------------------------------------------------

   temp. (K)  partition function   enthalpy   heat capacity  entropy
                                   cal/mol     cal/K/mol   cal/K/mol   J/K/mol
 298.15  VIB  0.189E+05             4724.170     28.490     35.419
         ROT  0.456E+06              888.752      2.981     28.876
         INT  0.865E+10             5612.923     31.471     64.295
         TR   0.121E+28             1481.254      4.968     40.146
         TOT                        7094.1765    36.4391   104.4413   436.9822

       T/K    H(0)-H(T)+PV         H(T)/Eh          T*S/Eh         G(T)/Eh
   ------------------------------------------------------------------------
    298.15    0.113053E-01    0.182292E+00    0.496234E-01    0.132669E+00
   ------------------------------------------------------------------------

         :::::::::::::::::::::::::::::::::::::::::::::::::::::
         ::                  THERMODYNAMIC                  ::
         :::::::::::::::::::::::::::::::::::::::::::::::::::::
         :: total free energy         -26.985671899310 Eh   ::
         ::.................................................::
         :: total energy              -27.118340757043 Eh   ::
         :: zero point energy           0.170986982336 Eh   ::
         :: G(RRHO) w/o ZPVE           -0.038318124603 Eh   ::
         :: G(RRHO) contrib.            0.132668857733 Eh   ::
         :::::::::::::::::::::::::::::::::::::::::::::::::::::

optimized geometry written to: xtbopt.coord


           -------------------------------------------------
          | TOTAL ENERGY              -27.118340757043 Eh   |
          | TOTAL ENTHALPY            -26.936048484787 Eh   |
          | TOTAL FREE ENERGY         -26.985671899310 Eh   |
          | GRADIENT NORM               0.000032599681 Eh/α |
          | HOMO-LUMO GAP               5.044713080311 eV   |
           -------------------------------------------------

------------------------------------------------------------------------
 * finished run on 2025/04/11 at 17:15:17.486     
------------------------------------------------------------------------
 total:
 * wall-time:     0 d,  0 h,  0 min,  1.781 sec
 *  cpu-time:     0 d,  0 h,  0 min,  1.624 sec
 * ratio c/w:     0.911 speedup
 SCF:
 * wall-time:     0 d,  0 h,  0 min,  0.033 sec
 *  cpu-time:     0 d,  0 h,  0 min,  0.015 sec
 * ratio c/w:     0.438 speedup
 ANC optimizer:
 * wall-time:     0 d,  0 h,  0 min,  0.461 sec
 *  cpu-time:     0 d,  0 h,  0 min,  0.444 sec
 * ratio c/w:     0.964 speedup
 analytical hessian:
 * wall-time:     0 d,  0 h,  0 min,  1.223 sec
 *  cpu-time:     0 d,  0 h,  0 min,  1.153 sec
 * ratio c/w:     0.943 speedup

