20
 xtb: 6.7.1 (edcfbbe)
C           -3.35927308940776        0.48554080159321        0.72510593186564
C           -2.79977241891045       -0.60674972685567       -0.18386788230524
C           -1.40743027228038       -0.29610237582826       -0.73734477590796
C           -0.35148297374373       -0.17110611496511        0.35658587035490
C            1.03804361170529        0.00385116769730       -0.18190205606366
O            1.32299315719627        0.29769465195603       -1.33065046491016
O            1.97001718633168       -0.18666022194464        0.77673725609626
C            3.34797225162312       -0.00426109217777        0.36271160415463
H           -4.39133818221454        0.26271028704077        1.01434767613367
H           -2.77597885009729        0.58759538402328        1.64596906887032
H           -3.35608242077249        1.45684746835362        0.21689211140974
H           -2.76792101512913       -1.55949280094470        0.36069260746047
H           -3.48069519003169       -0.75513537220664       -1.03036742227293
H           -1.44272223334359        0.63352304113286       -1.31793295619642
H           -1.10712577598507       -1.09120940379661       -1.42961032826458
H           -0.35916841302365       -1.04382951838272        1.01985137847174
H           -0.54542185615968        0.69814344947476        0.99883244211052
H            3.51053930776282        1.02371395510951        0.02949418762908
H            3.59756568397537       -0.70302518629901       -0.43935153830909
H            3.94615709371759       -0.21497795244258        1.24857167747361
