      -----------------------------------------------------------      
     |                   =====================                   |     
     |                           x T B                           |     
     |                   =====================                   |     
     |                         S. Grimme                         |     
     |          Mulliken Center for Theoretical Chemistry        |     
     |                    University of Bonn                     |     
      -----------------------------------------------------------      

   * xtb version 6.7.1 (edcfbbe) compiled by 'albert@albert-system' on 2024-07-22

   xtb is free software: you can redistribute it and/or modify it under
   the terms of the GNU Lesser General Public License as published by
   the Free Software Foundation, either version 3 of the License, or
   (at your option) any later version.
   
   xtb is distributed in the hope that it will be useful,
   but WITHOUT ANY WARRANTY; without even the implied warranty of
   MERCHANTABILITY or FITNESS FOR A PARTICULAR PURPOSE.  See the
   GNU Lesser General Public License for more details.
   
   Cite this work as:
   * C. Bannwarth, E. Caldeweyher, S. Ehlert, A. Hansen, P. Pracht,
     J. Seibert, S. Spicher, S. Grimme, WIREs Comput. Mol. Sci., 2020, 11,
     e01493. DOI: 10.1002/wcms.1493
   
   for GFN2-xTB:
   * C. Bannwarth, S. Ehlert and S. Grimme., J. Chem. Theory Comput., 2019,
     15, 1652-1671. DOI: 10.1021/acs.jctc.8b01176
   for GFN1-xTB:
   * S. Grimme, C. Bannwarth, P. Shushkov, J. Chem. Theory Comput., 2017,
     13, 1989-2009. DOI: 10.1021/acs.jctc.7b00118
   for GFN0-xTB:
   * P. Pracht, E. Caldeweyher, S. Ehlert, S. Grimme, ChemRxiv, 2019, preprint.
     DOI: 10.26434/chemrxiv.8326202.v1
   for GFN-FF:
   * S. Spicher and S. Grimme, Angew. Chem. Int. Ed., 2020, 59, 15665-15673.
     DOI: 10.1002/anie.202004239
   
   for ALPB and GBSA implicit solvation:
   * S. Ehlert, M. Stahn, S. Spicher, S. Grimme, J. Chem. Theory Comput.,
     2021, 17, 4250-4261. DOI: 10.1021/acs.jctc.1c00471
   
   for ddCOSMO and CPCM-X implicit solvation:
   * M. Stahn, S. Ehlert, S. Grimme, J. Phys. Chem. A,
     2023, XX, XXXX-XXXX. DOI: 10.1021/acs.jpca.3c04382
   
   for DFT-D4:
   * E. Caldeweyher, C. Bannwarth and S. Grimme, J. Chem. Phys., 2017,
     147, 034112. DOI: 10.1063/1.4993215
   * E. Caldeweyher, S. Ehlert, A. Hansen, H. Neugebauer, S. Spicher,
     C. Bannwarth and S. Grimme, J. Chem. Phys., 2019, 150, 154122.
     DOI: 10.1063/1.5090222
   * E. Caldeweyher, J.-M. Mewes, S. Ehlert and S. Grimme, Phys. Chem. Chem. Phys.
     2020, 22, 8499-8512. DOI: 10.1039/D0CP00502A
   
   for sTDA-xTB:
   * S. Grimme and C. Bannwarth, J. Chem. Phys., 2016, 145, 054103.
     DOI: 10.1063/1.4959605
   
   in the mass-spec context:
   * V. Asgeirsson, C. Bauer and S. Grimme, Chem. Sci., 2017, 8, 4879.
     DOI: 10.1039/c7sc00601b
   * J. Koopman and S. Grimme, ACS Omega 2019, 4, 12, 15120-15133.
     DOI: 10.1021/acsomega.9b02011
   
   for metadynamics refer to:
   * S. Grimme, J. Chem. Theory Comput., 2019, 155, 2847-2862
     DOI: 10.1021/acs.jctc.9b00143
   
   for SPH calculations refer to:
   * S. Spicher and S. Grimme, J. Chem. Theory Comput., 2021, 17, 1701-1714
     DOI: 10.1021/acs.jctc.0c01306
   
   for ONIOM refer to:
   * C. Plett, A. Katbashev, S. Ehlert, S. Grimme, M. Bursch,
     Phys. Chem. Chem. Phys., 2023, 25, 17860-17868. DOI: 10.1039/D3CP02178E
   
   for DIPRO refer to:
   * J. Kohn, N. Gildemeister, S. Grimme, D. Fazzi, A. Hansen,
     J. Chem. Phys., 2023, just accepted.
   
   for PTB refer to:
   * S. Grimme, M. Mueller, A. Hansen, J. Chem. Phys., 2023, 158, 124111.
     DOI: 10.1063/5.0137838
   
   with help from (in alphabetical order)
   P. Atkinson, C. Bannwarth, F. Bohle, G. Brandenburg, E. Caldeweyher
   M. Checinski, S. Dohm, S. Ehlert, S. Ehrlich, I. Gerasimov, C. Hölzer
   A. Katbashev, J. Kohn, J. Koopman, C. Lavigne, S. Lehtola, F. März, M. Müller,
   F. Musil, H. Neugebauer, J. Pisarek, C. Plett, P. Pracht, F. Pultar,
   J. Seibert, P. Shushkov, S. Spicher, M. Stahn, M. Steiner, T. Strunk,
   J. Stückrath, T. Rose, and J. Unsleber
   
 * started run on 2025/04/11 at 14:34:23.063     
   ID    Z sym.   atoms
    1    6 C      1-4
    2    8 O      5, 7, 8
    3    7 N      6
    4    1 H      9-17

           -------------------------------------------------
          |                Calculation Setup                |
           -------------------------------------------------

          program call               : /software/projects/pawsey0265/mwang1/xtb/bin/xtb xtb_rrho.coord --gfn2 --ohess vtight --chrg 0 --enso --norestart -I rrho-xcontrol-inp --parallel 1 --alpb water
          hostname                   : nid002819
          coordinate file            : xtb_rrho.coord
          omp threads                :                     1


           -------------------------------------------------
          |                 G F N 2 - x T B                 |
           -------------------------------------------------

        Reference                      10.1021/acs.jctc.8b01176
      * Hamiltonian:
        H0-scaling (s, p, d)           1.850000    2.230000    2.230000
        zeta-weighting                 0.500000
      * Dispersion:
        s8                             2.700000
        a1                             0.520000
        a2                             5.000000
        s9                             5.000000
      * Repulsion:
        kExp                           1.500000    1.000000
        rExp                           1.000000
      * Coulomb:
        alpha                          2.000000
        third order                    shell-resolved
        anisotropic                    true
        a3                             3.000000
        a5                             4.000000
        cn-shift                       1.200000
        cn-exp                         4.000000
        max-rad                        5.000000

      * Solvation model:               ALPB
        Solvent                        water
        Parameter file                 internal GFN2-xTB/ALPB
        Dielectric constant                8.0200E+01
        Reference state                gsolv [1 M gas/solution]
        Free energy shift                  1.0808E-03 Eh       6.7819E-01 kcal/mol
        Temperature                        2.9815E+02 K
        Density                            1.0000E+00 kg/L
        Solvent mass                       1.8000E+01 g/mol
        Interaction kernel             P16
        Born radius scaling (c1)           1.4744E+00
        Born radii integrator          GBOBC
        Born offset                        0.0000E+00 a0       0.0000E+00 AA
        H-bond correction              true
        Ion screening                  false
        Surface tension                    1.0000E-05 Eh       1.5569E+01 dyn/cm
        Grid points                               974 per atom

          ...................................................
          :                      SETUP                      :
          :.................................................:
          :  # basis functions                  41          :
          :  # atomic orbitals                  41          :
          :  # shells                           25          :
          :  # electrons                        48          :
          :  max. iterations                   250          :
          :  Hamiltonian                  GFN2-xTB          :
          :  restarted?                      false          :
          :  GBSA solvation                   true          :
          :  PC potential                    false          :
          :  electronic temp.          300.0000000     K    :
          :  accuracy                    1.0000000          :
          :  -> integral cutoff          0.2500000E+02      :
          :  -> integral neglect         0.1000000E-07      :
          :  -> SCF convergence          0.1000000E-05 Eh   :
          :  -> wf. convergence          0.1000000E-03 e    :
          :  Broyden damping             0.4000000          :
          :  net charge                          0          :
          :  unpaired electrons                  0          :
          ...................................................

 iter      E             dE          RMSdq      gap      omega  full diag
   1    -28.2840468 -0.282840E+02  0.505E+00    5.02       0.0  T
   2    -28.3969633 -0.112916E+00  0.203E+00    3.85       1.0  T
   3    -28.4012817 -0.431846E-02  0.104E+00    3.34       1.0  T
   4    -28.4015367 -0.254953E-03  0.141E-01    3.02       1.0  T
   5    -28.4015802 -0.434626E-04  0.623E-02    3.02       1.0  T
   6    -28.4015819 -0.172835E-05  0.182E-02    3.04       1.3  T
   7    -28.4015825 -0.650313E-06  0.503E-03    3.05       4.8  T
   8    -28.4015826 -0.414472E-07  0.262E-03    3.05       9.3  T
   9    -28.4015826 -0.781189E-08  0.474E-04    3.05      51.2  T
  10    -28.4015826 -0.524238E-09  0.179E-04    3.05     135.4  T

   *** convergence criteria satisfied after 10 iterations ***

         #    Occupation            Energy/Eh            Energy/eV
      -------------------------------------------------------------
         1        2.0000           -0.8122751             -22.1031
       ...           ...                  ...                  ...
        18        2.0000           -0.4883973             -13.2900
        19        2.0000           -0.4849624             -13.1965
        20        2.0000           -0.4685601             -12.7502
        21        2.0000           -0.4616488             -12.5621
        22        2.0000           -0.4463581             -12.1460
        23        2.0000           -0.4421534             -12.0316
        24        2.0000           -0.4335783             -11.7983 (HOMO)
        25                         -0.3215766              -8.7505 (LUMO)
        26                         -0.1343503              -3.6559
        27                         -0.0190575              -0.5186
        28                          0.0766269               2.0851
        29                          0.0850010               2.3130
       ...                                ...                  ...
        41                          0.4257573              11.5854
      -------------------------------------------------------------
                  HL-Gap            0.1120017 Eh            3.0477 eV
             Fermi-level           -0.3775775 Eh          -10.2744 eV

 SCC (total)                   0 d,  0 h,  0 min,  0.051 sec
 SCC setup                      ...        0 min,  0.001 sec (  2.084%)
 Dispersion                     ...        0 min,  0.000 sec (  0.198%)
 classical contributions        ...        0 min,  0.000 sec (  0.065%)
 integral evaluation            ...        0 min,  0.001 sec (  2.719%)
 iterations                     ...        0 min,  0.043 sec ( 83.681%)
 molecular gradient             ...        0 min,  0.006 sec ( 10.948%)
 printout                       ...        0 min,  0.000 sec (  0.263%)

         :::::::::::::::::::::::::::::::::::::::::::::::::::::
         ::                     SUMMARY                     ::
         :::::::::::::::::::::::::::::::::::::::::::::::::::::
         :: total energy             -28.169938586156 Eh    ::
         :: total w/o Gsasa/hb       -28.173023322075 Eh    ::
         :: gradient norm              0.061397151706 Eh/a0 ::
         :: HOMO-LUMO gap              3.047721873668 eV    ::
         ::.................................................::
         :: SCC energy               -28.401555123742 Eh    ::
         :: -> isotropic ES            0.069697381762 Eh    ::
         :: -> anisotropic ES          0.017659505156 Eh    ::
         :: -> anisotropic XC          0.001648381733 Eh    ::
         :: -> dispersion             -0.010529597176 Eh    ::
         :: -> Gsolv                  -0.006385493399 Eh    ::
         ::    -> Gelec               -0.009470229318 Eh    ::
         ::    -> Gsasa                0.004421578080 Eh    ::
         ::    -> Ghb                 -0.002417601859 Eh    ::
         ::    -> Gshift               0.001080759698 Eh    ::
         :: repulsion energy           0.231616537587 Eh    ::
         :: add. restraining           0.000000000000 Eh    ::
         :: total charge              -0.000000000000 e     ::
         :::::::::::::::::::::::::::::::::::::::::::::::::::::

      ----------------------------------------------------------- 
     |                   =====================                   |
     |                        A N C O P T                        |
     |                   =====================                   |
     |               Approximate Normal Coordinate               |
     |                Rational Function Optimizer                |
      ----------------------------------------------------------- 
      ----------------------------------------------------------- 
     |                   =====================                   |
     |                        A N C O P T                        |
     |                   =====================                   |
     |               Approximate Normal Coordinate               |
     |                Rational Function Optimizer                |
      ----------------------------------------------------------- 

          ...................................................
          :                      SETUP                      :
          :.................................................:
          :   optimization level         verytight          :
          :   max. optcycles                   340          :
          :   ANC micro-cycles                  20          :
          :   degrees of freedom                45          :
          :.................................................:
          :   RF solver                   davidson          :
          :   write xtbopt.log                true          :
          :   linear?                        false          :
          :   energy convergence         0.1000000E-06 Eh   :
          :   grad. convergence          0.2000000E-03 Eh/α :
          :   maxmium RF displ.          1.0000000          :
          :   Hlow (freq-cutoff)         0.1000000E-01      :
          :   Hmax (freq-cutoff)         5.0000000          :
          :   S6 in model hess.         20.0000000          :
          ...................................................

generating ANC from exact Hessian ...
Using Lindh-Hessian (1995)
 Shifting diagonal of input Hessian by   7.697953334906931E-003
 Lowest  eigenvalues of input Hessian
    0.000000    0.000000    0.000000    0.000000    0.000000    0.000000
    0.010000    0.010982    0.014039    0.016486    0.017016    0.018856
    0.022060    0.025001    0.030135    0.048580    0.059475    0.060202
 Highest eigenvalues
    1.190258    1.225044    1.271478    1.325426    2.134835    2.688654
 

........................................................................
.............................. CYCLE    1 ..............................
........................................................................

 iter      E             dE          RMSdq      gap      omega  full diag
   1    -28.4015826 -0.284016E+02  0.870E-05    3.05       0.0  T
   2    -28.4015826 -0.730793E-11  0.564E-05    3.05     429.8  T
   3    -28.4015826 -0.553868E-11  0.128E-05    3.05    1888.2  T
     SCC iter.                  ...        0 min,  0.001 sec
     gradient                   ...        0 min,  0.006 sec
 * total energy  :   -28.1699386 Eh     change       -0.6690826E-10 Eh
   gradient norm :     0.0613993 Eh/α   predicted     0.0000000E+00 (-100.00%)
   displ. norm   :     0.1208674 α      lambda       -0.4752659E-02
   maximum displ.:     0.0573909 α      in ANC's #8, #34, #5, ...

........................................................................
.............................. CYCLE    2 ..............................
........................................................................

 iter      E             dE          RMSdq      gap      omega  full diag
   1    -28.4166470 -0.284166E+02  0.189E-01    3.38       0.0  T
   2    -28.4168061 -0.159098E-03  0.912E-02    3.34       1.0  T
   3    -28.4168139 -0.777079E-05  0.481E-02    3.33       1.0  T
   4    -28.4168147 -0.738237E-06  0.638E-03    3.32       3.8  T
   5    -28.4168147 -0.365369E-07  0.299E-03    3.32       8.1  T
   6    -28.4168147 -0.100444E-07  0.901E-04    3.32      26.9  T
   7    -28.4168147 -0.140946E-08  0.252E-04    3.32      96.2  T
     SCC iter.                  ...        0 min,  0.003 sec
     gradient                   ...        0 min,  0.004 sec
 * total energy  :   -28.1731182 Eh     change       -0.3179600E-02 Eh
   gradient norm :     0.0231832 Eh/α   predicted    -0.2411045E-02 ( -24.17%)
   displ. norm   :     0.0934909 α      lambda       -0.1109729E-02
   maximum displ.:     0.0512704 α      in ANC's #5, #8, #34, ...

........................................................................
.............................. CYCLE    3 ..............................
........................................................................

 iter      E             dE          RMSdq      gap      omega  full diag
   1    -28.4225332 -0.284225E+02  0.116E-01    3.48       0.0  T
   2    -28.4226106 -0.773717E-04  0.550E-02    3.46       1.0  T
   3    -28.4226134 -0.285062E-05  0.309E-02    3.46       1.0  T
   4    -28.4226138 -0.344099E-06  0.436E-03    3.45       5.6  T
   5    -28.4226138 -0.264992E-07  0.221E-03    3.45      11.0  T
   6    -28.4226138 -0.617873E-08  0.768E-04    3.45      31.6  T
   7    -28.4226138 -0.110044E-08  0.231E-04    3.45     105.2  T
     SCC iter.                  ...        0 min,  0.002 sec
     gradient                   ...        0 min,  0.003 sec
 * total energy  :   -28.1737150 Eh     change       -0.5968193E-03 Eh
   gradient norm :     0.0127567 Eh/α   predicted    -0.5597134E-03 (  -6.22%)
   displ. norm   :     0.0941095 α      lambda       -0.3273757E-03
   maximum displ.:     0.0528459 α      in ANC's #10, #5, #3, ...

........................................................................
.............................. CYCLE    4 ..............................
........................................................................

 iter      E             dE          RMSdq      gap      omega  full diag
   1    -28.4223580 -0.284224E+02  0.741E-02    3.45       0.0  T
   2    -28.4223873 -0.292349E-04  0.353E-02    3.46       1.0  T
   3    -28.4223883 -0.104968E-05  0.181E-02    3.46       1.3  T
   4    -28.4223886 -0.247468E-06  0.321E-03    3.46       7.5  T
   5    -28.4223886 -0.120427E-07  0.180E-03    3.46      13.5  T
   6    -28.4223886 -0.500882E-08  0.485E-04    3.46      50.1  T
   7    -28.4223886 -0.931816E-09  0.220E-04    3.46     110.5  T
     SCC iter.                  ...        0 min,  0.002 sec
     gradient                   ...        0 min,  0.003 sec
 * total energy  :   -28.1736058 Eh     change        0.1091897E-03 Eh
   gradient norm :     0.0150883 Eh/α   predicted    -0.1651358E-03 (-251.24%)
   displ. norm   :     0.0549697 α      lambda       -0.5166922E-03
   maximum displ.:     0.0293069 α      in ANC's #10, #3, #5, ...

........................................................................
.............................. CYCLE    5 ..............................
........................................................................

 iter      E             dE          RMSdq      gap      omega  full diag
   1    -28.4213322 -0.284213E+02  0.359E-02    3.44       0.0  T
   2    -28.4213350 -0.276326E-05  0.191E-02    3.44       1.3  T
   3    -28.4213352 -0.277998E-06  0.641E-03    3.44       3.8  T
   4    -28.4213353 -0.372825E-07  0.178E-03    3.44      13.6  T
   5    -28.4213353 -0.381849E-08  0.878E-04    3.44      27.6  T
   6    -28.4213353 -0.840153E-09  0.267E-04    3.44      90.9  T
     SCC iter.                  ...        0 min,  0.002 sec
     gradient                   ...        0 min,  0.003 sec
 * total energy  :   -28.1738881 Eh     change       -0.2822741E-03 Eh
   gradient norm :     0.0048949 Eh/α   predicted    -0.2591262E-03 (  -8.20%)
   displ. norm   :     0.0365956 α      lambda       -0.3316303E-04
   maximum displ.:     0.0261983 α      in ANC's #5, #3, #2, ...

........................................................................
.............................. CYCLE    6 ..............................
........................................................................

 iter      E             dE          RMSdq      gap      omega  full diag
   1    -28.4207567 -0.284208E+02  0.178E-02    3.43       0.0  T
   2    -28.4207578 -0.108569E-05  0.953E-03    3.43       2.5  T
   3    -28.4207579 -0.864214E-07  0.409E-03    3.44       5.9  T
   4    -28.4207579 -0.169731E-07  0.104E-03    3.44      23.3  T
   5    -28.4207579 -0.207275E-08  0.568E-04    3.44      42.7  T
   6    -28.4207579 -0.410722E-09  0.114E-04    3.44     212.5  T
     SCC iter.                  ...        0 min,  0.002 sec
     gradient                   ...        0 min,  0.003 sec
 * total energy  :   -28.1739133 Eh     change       -0.2517405E-04 Eh
   gradient norm :     0.0029665 Eh/α   predicted    -0.1660321E-04 ( -34.05%)
   displ. norm   :     0.0589700 α      lambda       -0.3314721E-04
   maximum displ.:     0.0433572 α      in ANC's #5, #2, #3, ...

........................................................................
.............................. CYCLE    7 ..............................
........................................................................

 iter      E             dE          RMSdq      gap      omega  full diag
   1    -28.4203397 -0.284203E+02  0.266E-02    3.43       0.0  T
   2    -28.4203419 -0.222952E-05  0.143E-02    3.43       1.7  T
   3    -28.4203421 -0.160679E-06  0.603E-03    3.44       4.0  T
   4    -28.4203421 -0.329063E-07  0.145E-03    3.44      16.7  T
   5    -28.4203421 -0.410440E-08  0.816E-04    3.44      29.7  T
   6    -28.4203421 -0.842061E-09  0.137E-04    3.44     177.6  T
     SCC iter.                  ...        0 min,  0.002 sec
     gradient                   ...        0 min,  0.003 sec
 * total energy  :   -28.1739331 Eh     change       -0.1982424E-04 Eh
   gradient norm :     0.0017073 Eh/α   predicted    -0.1663052E-04 ( -16.11%)
   displ. norm   :     0.0312596 α      lambda       -0.5499068E-05
   maximum displ.:     0.0209010 α      in ANC's #5, #2, #4, ...

........................................................................
.............................. CYCLE    8 ..............................
........................................................................

 iter      E             dE          RMSdq      gap      omega  full diag
   1    -28.4206428 -0.284206E+02  0.131E-02    3.45       0.0  T
   2    -28.4206431 -0.340883E-06  0.724E-03    3.44       3.4  T
   3    -28.4206431 -0.319020E-07  0.264E-03    3.44       9.2  T
   4    -28.4206431 -0.482898E-08  0.598E-04    3.44      40.5  T
   5    -28.4206431 -0.538392E-09  0.321E-04    3.44      75.5  T
     SCC iter.                  ...        0 min,  0.001 sec
     gradient                   ...        0 min,  0.003 sec
 * total energy  :   -28.1739373 Eh     change       -0.4258686E-05 Eh
   gradient norm :     0.0010556 Eh/α   predicted    -0.2751560E-05 ( -35.39%)
   displ. norm   :     0.0091220 α      lambda       -0.1199983E-05
   maximum displ.:     0.0052488 α      in ANC's #2, #1, #4, ...

........................................................................
.............................. CYCLE    9 ..............................
........................................................................

 iter      E             dE          RMSdq      gap      omega  full diag
   1    -28.4207998 -0.284208E+02  0.417E-03    3.45       0.0  T
   2    -28.4207999 -0.519246E-07  0.218E-03    3.45      11.1  T
   3    -28.4207999 -0.259561E-08  0.926E-04    3.45      26.2  T
   4    -28.4207999 -0.489599E-09  0.180E-04    3.45     134.8  T
     SCC iter.                  ...        0 min,  0.001 sec
     gradient                   ...        0 min,  0.003 sec
 * total energy  :   -28.1739386 Eh     change       -0.1273623E-05 Eh
   gradient norm :     0.0005693 Eh/α   predicted    -0.5984818E-06 ( -53.01%)
   displ. norm   :     0.0172055 α      lambda       -0.9528168E-06
   maximum displ.:     0.0090920 α      in ANC's #2, #4, #1, ...

........................................................................
.............................. CYCLE   10 ..............................
........................................................................

 iter      E             dE          RMSdq      gap      omega  full diag
   1    -28.4208359 -0.284208E+02  0.649E-03    3.45       0.0  T
   2    -28.4208360 -0.105546E-06  0.362E-03    3.45       6.7  T
   3    -28.4208360 -0.881083E-08  0.140E-03    3.44      17.3  T
   4    -28.4208360 -0.158575E-08  0.310E-04    3.44      78.2  T
   5    -28.4208360 -0.679492E-10  0.143E-04    3.44     169.8  T
     SCC iter.                  ...        0 min,  0.001 sec
     gradient                   ...        0 min,  0.003 sec
 * total energy  :   -28.1739395 Eh     change       -0.9034263E-06 Eh
   gradient norm :     0.0003372 Eh/α   predicted    -0.4775926E-06 ( -47.14%)
   displ. norm   :     0.0115842 α      lambda       -0.3066809E-06
   maximum displ.:     0.0068260 α      in ANC's #1, #4, #2, ...

........................................................................
.............................. CYCLE   11 ..............................
........................................................................

 iter      E             dE          RMSdq      gap      omega  full diag
   1    -28.4208186 -0.284208E+02  0.427E-03    3.44       0.0  T
   2    -28.4208186 -0.115572E-07  0.255E-03    3.44       9.5  T
   3    -28.4208186 -0.412137E-08  0.458E-04    3.44      52.9  T
   4    -28.4208186 -0.223725E-09  0.205E-04    3.44     118.1  T
     SCC iter.                  ...        0 min,  0.001 sec
     gradient                   ...        0 min,  0.003 sec
 * total energy  :   -28.1739398 Eh     change       -0.2907419E-06 Eh
   gradient norm :     0.0002032 Eh/α   predicted    -0.1522803E-06 ( -47.62%)
   displ. norm   :     0.0062201 α      lambda       -0.1309147E-06
   maximum displ.:     0.0047115 α      in ANC's #1, #4, #2, ...

........................................................................
.............................. CYCLE   12 ..............................
........................................................................

 iter      E             dE          RMSdq      gap      omega  full diag
   1    -28.4208335 -0.284208E+02  0.229E-03    3.44       0.0  T
   2    -28.4208335 -0.831416E-08  0.135E-03    3.44      17.9  T
   3    -28.4208335 -0.105429E-08  0.422E-04    3.44      57.4  T
   4    -28.4208335 -0.197016E-09  0.122E-04    3.44     198.4  T
     SCC iter.                  ...        0 min,  0.001 sec
     gradient                   ...        0 min,  0.003 sec
 * total energy  :   -28.1739399 Eh     change       -0.1289840E-06 Eh
   gradient norm :     0.0001427 Eh/α   predicted    -0.6660071E-07 ( -48.37%)
   displ. norm   :     0.0047811 α      lambda       -0.7043082E-07
   maximum displ.:     0.0040278 α      in ANC's #1, #4, #5, ...

........................................................................
.............................. CYCLE   13 ..............................
........................................................................

 iter      E             dE          RMSdq      gap      omega  full diag
   1    -28.4208092 -0.284208E+02  0.161E-03    3.44       0.0  T
   2    -28.4208092 -0.223806E-08  0.948E-04    3.44      25.6  T
   3    -28.4208092 -0.280135E-09  0.201E-04    3.44     120.4  T
     SCC iter.                  ...        0 min,  0.001 sec
     gradient                   ...        0 min,  0.003 sec
 * total energy  :   -28.1739400 Eh     change       -0.8640387E-07 Eh
   gradient norm :     0.0001221 Eh/α   predicted    -0.3611438E-07 ( -58.20%)
   displ. norm   :     0.0052655 α      lambda       -0.6816014E-07
   maximum displ.:     0.0036758 α      in ANC's #1, #5, #2, ...

   *** GEOMETRY OPTIMIZATION CONVERGED AFTER 13 ITERATIONS ***

------------------------------------------------------------------------
 total energy gain   :        -0.0040014 Eh       -2.5109 kcal/mol
 total RMSD          :         0.0983363 a0        0.0520 Å
 total power (kW/mol):        -0.8081377 (step)  -97.0637 (real)
------------------------------------------------------------------------

 ANCopt (total)                0 d,  0 h,  0 min,  0.108 sec
 optimizer setup                ...        0 min,  0.000 sec (  0.404%)
 model hessian                  ...        0 min,  0.009 sec (  7.980%)
 ANC generation                 ...        0 min,  0.000 sec (  0.454%)
 coordinate transformation      ...        0 min,  0.000 sec (  0.068%)
 single point calculation       ...        0 min,  0.095 sec ( 87.534%)
 optimization log               ...        0 min,  0.002 sec (  1.805%)
 hessian update                 ...        0 min,  0.000 sec (  0.068%)
 rational function              ...        0 min,  0.001 sec (  1.218%)

================
 final structure:
================
$coord
       -2.59281470274995       -1.67410350551239       -2.15087082036956      C
       -3.27879999528134        0.30481441315453       -0.16554832403045      C
       -5.57317153954070       -0.52710089989342        1.37069094739512      C
       -1.06586424329457        0.76618501448584        1.64606848274434      C
        1.07952102604199        1.76345370261315        0.34019094357657      O
        3.03592608358756        0.20438890013733       -0.19043742350092      N
        2.97555060337715       -1.91624715243654        0.56610497844597      O
        4.66779879754194        1.19158179940587       -1.39467521044933      O
       -1.99791838291469       -3.42705602374917       -1.25501431438638      H
       -1.07156678465546       -1.01034576382066       -3.36717702922429      H
       -4.21795036002126       -2.06904344273793       -3.34113094173923      H
       -3.70220943179825        2.08890489716239       -1.12045850986046      H
       -6.06333249641567        0.88843035880761        2.77428307216497      H
       -5.18456012671114       -2.30057635091397        2.33149446639454      H
       -7.18506105661188       -0.79962442784128        0.13043354335790      H
       -1.55157639098773        2.20382285312260        3.04064623625193      H
       -0.52912326082942       -0.98594314004597        2.60024440269583      H
$end
 
 Bond Distances (Angstroems)
 ---------------------------
C1-C2=1.5271         C1-H9=1.0883         C1-H10=1.0889        C1-H11=1.0863        C2-C1=1.5271         C2-C3=1.5260         
C2-C4=1.5330         C2-H12=1.0940        C3-C2=1.5260         C3-H13=1.0863        C3-H14=1.0870        C3-H15=1.0859        
C4-C2=1.5330         C4-O5=1.4300         C4-H16=1.0906        C4-H17=1.0933        O5-C4=1.4300         O5-N6=1.3533         
N6-O5=1.3533         N6-O7=1.1919         N6-O8=1.1936         O7-N6=1.1919         O8-N6=1.1936         H9-C1=1.0883         
H10-C1=1.0889        H11-C1=1.0863        H12-C2=1.0940        H13-C3=1.0863        H14-C3=1.0870        H15-C3=1.0859        
H16-C4=1.0906        H17-C4=1.0933        
 C  H  Rav=1.0889 sigma=0.0029  Rmin=1.0859  Rmax=1.0940     9
 C  C  Rav=1.5287 sigma=0.0030  Rmin=1.5260  Rmax=1.5330     3
 O  C  Rav=1.4300 sigma=0.0000  Rmin=1.4300  Rmax=1.4300     1
 O  N  Rav=1.2463 sigma=0.0757  Rmin=1.1919  Rmax=1.3533     3
 
 selected bond angles (degree)
 --------------------
H9-C1-C2=110.71                H10-C1-C2=111.17               H10-C1-H9=108.58               H11-C1-C2=110.04               
H11-C1-H9=108.52               H11-C1-H10=107.73              C3-C2-C1=110.96                C4-C2-C1=110.97                
C4-C2-C3=108.70                H12-C2-C1=108.83               H12-C2-C3=109.39               H12-C2-C4=107.93               
H13-C3-C2=110.81               H14-C3-C2=110.35               H14-C3-H13=108.71              H15-C3-C2=109.96               
H15-C3-H13=108.50              H15-C3-H14=108.46              O5-C4-C2=111.29                H16-C4-C2=110.75               
H16-C4-O5=104.87               H17-C4-C2=110.62               H17-C4-O5=109.26               H17-C4-H16=109.89              
N6-O5-C4=118.86                O7-N6-O5=118.93                O8-N6-O5=113.42                O8-N6-O7=127.65                
 
 selected dihedral angles (degree)
 ---------------------------------
C3-C2-C1-H9=295.37            C3-C2-C1-H10=174.60           C3-C2-C1-H11= 55.33           C4-C2-C1-H9= 56.34            
C4-C2-C1-H10=295.56           C4-C2-C1-H11=176.29           H12-C2-C1-H9=174.96           H12-C2-C1-H10= 54.18          
H12-C2-C1-H11=294.91          H13-C3-C2-C1=180.31           H13-C3-C2-C4= 58.02           H13-C3-C2-H12=300.40          
H14-C3-C2-C1= 59.86           H14-C3-C2-C4=297.57           H14-C3-C2-H12=179.94          H15-C3-C2-C1=300.26           
H15-C3-C2-C4=177.96           H15-C3-C2-H12= 60.34          O5-C4-C2-C1= 62.78            O5-C4-C2-C3=185.07            
O5-C4-C2-H12=303.62           H16-C4-C2-C1=179.02           H16-C4-C2-C3=301.31           H16-C4-C2-H12= 59.86          
H17-C4-C2-C1=301.11           H17-C4-C2-C3= 63.40           H17-C4-C2-H12=181.96          N6-O5-C4-C2=257.09            
N6-O5-C4-H16=137.30           N6-O5-C4-H17= 19.54           O7-N6-O5-C4=355.92            O8-N6-O5-C4=176.37            
           -------------------------------------------------
          |                Final Singlepoint                |
           -------------------------------------------------

          ...................................................
          :                      SETUP                      :
          :.................................................:
          :  # basis functions                  41          :
          :  # atomic orbitals                  41          :
          :  # shells                           25          :
          :  # electrons                        48          :
          :  max. iterations                   250          :
          :  Hamiltonian                  GFN2-xTB          :
          :  restarted?                      false          :
          :  GBSA solvation                   true          :
          :  PC potential                    false          :
          :  electronic temp.          300.0000000     K    :
          :  accuracy                    1.0000000          :
          :  -> integral cutoff          0.2500000E+02      :
          :  -> integral neglect         0.1000000E-07      :
          :  -> SCF convergence          0.1000000E-05 Eh   :
          :  -> wf. convergence          0.1000000E-03 e    :
          :  Broyden damping             0.4000000          :
          :  net charge                          0          :
          :  unpaired electrons                  0          :
          ...................................................

 iter      E             dE          RMSdq      gap      omega  full diag
   1    -28.4208092 -0.284208E+02  0.555E-05    3.44       0.0  T
   2    -28.4208092 -0.359890E-11  0.342E-05    3.44     709.6  T
   3    -28.4208092 -0.111555E-11  0.117E-05    3.44    2066.7  T

   *** convergence criteria satisfied after 3 iterations ***

         #    Occupation            Energy/Eh            Energy/eV
      -------------------------------------------------------------
         1        2.0000           -0.8201951             -22.3186
       ...           ...                  ...                  ...
        18        2.0000           -0.4887804             -13.3004
        19        2.0000           -0.4837190             -13.1627
        20        2.0000           -0.4692473             -12.7689
        21        2.0000           -0.4625564             -12.5868
        22        2.0000           -0.4462676             -12.1436
        23        2.0000           -0.4413205             -12.0089
        24        2.0000           -0.4342833             -11.8175 (HOMO)
        25                         -0.3077346              -8.3739 (LUMO)
        26                         -0.0840947              -2.2883
        27                          0.0278498               0.7578
        28                          0.0784603               2.1350
        29                          0.0913276               2.4852
       ...                                ...                  ...
        41                          0.4776810              12.9984
      -------------------------------------------------------------
                  HL-Gap            0.1265487 Eh            3.4436 eV
             Fermi-level           -0.3710089 Eh          -10.0957 eV

 SCC (total)                   0 d,  0 h,  0 min,  0.006 sec
 SCC setup                      ...        0 min,  0.001 sec ( 13.739%)
 Dispersion                     ...        0 min,  0.000 sec (  0.645%)
 classical contributions        ...        0 min,  0.000 sec (  0.251%)
 integral evaluation            ...        0 min,  0.001 sec ( 19.948%)
 iterations                     ...        0 min,  0.001 sec ( 14.196%)
 molecular gradient             ...        0 min,  0.003 sec ( 49.355%)
 printout                       ...        0 min,  0.000 sec (  1.604%)

         :::::::::::::::::::::::::::::::::::::::::::::::::::::
         ::                     SUMMARY                     ::
         :::::::::::::::::::::::::::::::::::::::::::::::::::::
         :: total energy             -28.173940030388 Eh    ::
         :: total w/o Gsasa/hb       -28.176863957852 Eh    ::
         :: gradient norm              0.000121578488 Eh/a0 ::
         :: HOMO-LUMO gap              3.443566205198 eV    ::
         ::.................................................::
         :: SCC energy               -28.420782540380 Eh    ::
         :: -> isotropic ES            0.072230922349 Eh    ::
         :: -> anisotropic ES          0.019472889911 Eh    ::
         :: -> anisotropic XC         -0.001003104841 Eh    ::
         :: -> dispersion             -0.010568177237 Eh    ::
         :: -> Gsolv                  -0.007061138504 Eh    ::
         ::    -> Gelec               -0.009985065967 Eh    ::
         ::    -> Gsasa                0.004364676376 Eh    ::
         ::    -> Ghb                 -0.002521508610 Eh    ::
         ::    -> Gshift               0.001080759698 Eh    ::
         :: repulsion energy           0.246842509992 Eh    ::
         :: add. restraining           0.000000000000 Eh    ::
         :: total charge              -0.000000000000 e     ::
         :::::::::::::::::::::::::::::::::::::::::::::::::::::

           ------------------------------------------------- 
          |                Numerical Hessian                |
           ------------------------------------------------- 
step length          :   0.00500
SCC accuracy         :   0.30000
Hessian scale factor :   1.00000
frozen atoms in %    :   0.00000    0
RMS gradient         :   0.00012
estimated CPU  time      0.01 min
estimated wall time      0.01 min

writing file <hessian>.

 projected vibrational frequencies (cm⁻¹)
eigval :       -0.00    -0.00     0.00     0.00     0.00     0.00
eigval :       52.54    64.25    87.90   206.97   238.15   251.65
eigval :      319.73   344.88   427.30   433.43   628.49   689.21
eigval :      737.35   828.56   862.12   918.16   953.01   973.48
eigval :      990.55  1020.64  1150.79  1160.08  1177.77  1230.08
eigval :     1278.34  1281.88  1323.32  1329.18  1406.96  1410.92
eigval :     1423.48  1486.06  1490.29  1496.90  1510.49  1709.34
eigval :     2952.06  2971.65  2995.91  3016.14  3030.78  3041.60
eigval :     3047.34  3052.15  3057.96
           -------------------------------------------------
          |                Property Printout                |
           -------------------------------------------------

    * Orbital Energies and Occupations

         #    Occupation            Energy/Eh            Energy/eV
      -------------------------------------------------------------
         1        2.0000           -0.8201952             -22.3186
       ...           ...                  ...                  ...
        12        2.0000           -0.5587550             -15.2045
        13        2.0000           -0.5414102             -14.7325
        14        2.0000           -0.5231304             -14.2351
        15        2.0000           -0.5050197             -13.7423
        16        2.0000           -0.4977586             -13.5447
        17        2.0000           -0.4913931             -13.3715
        18        2.0000           -0.4887804             -13.3004
        19        2.0000           -0.4837190             -13.1627
        20        2.0000           -0.4692474             -12.7689
        21        2.0000           -0.4625564             -12.5868
        22        2.0000           -0.4462676             -12.1436
        23        2.0000           -0.4413205             -12.0089
        24        2.0000           -0.4342833             -11.8175 (HOMO)
        25                         -0.3077346              -8.3739 (LUMO)
        26                         -0.0840948              -2.2883
        27                          0.0278497               0.7578
        28                          0.0784603               2.1350
        29                          0.0913276               2.4852
        30                          0.1301730               3.5422
        31                          0.1343496               3.6558
        32                          0.1604686               4.3666
        33                          0.1888913               5.1400
        34                          0.2017917               5.4910
        35                          0.2179963               5.9320
       ...                                ...                  ...
        41                          0.4776810              12.9984
      -------------------------------------------------------------
                  HL-Gap            0.1265487 Eh            3.4436 eV
             Fermi-level           -0.3710090 Eh          -10.0957 eV

     #   Z          covCN         q      C6AA      α(0)
     1   6 C        3.755    -0.116    22.778     6.805
     2   6 C        3.848    -0.017    20.837     6.493
     3   6 C        3.758    -0.131    23.061     6.846
     4   6 C        3.685     0.049    19.949     6.395
     5   8 O        1.769    -0.253    18.175     5.757
     6   7 N        2.771     0.773    11.319     4.997
     7   8 O        0.925    -0.422    22.086     6.303
     8   8 O        0.927    -0.431    22.265     6.328
     9   1 H        0.925     0.048     2.342     2.393
    10   1 H        0.925     0.029     2.598     2.520
    11   1 H        0.925     0.054     2.271     2.357
    12   1 H        0.924     0.058     2.227     2.334
    13   1 H        0.925     0.053     2.288     2.365
    14   1 H        0.925     0.053     2.278     2.360
    15   1 H        0.925     0.061     2.188     2.313
    16   1 H        0.924     0.102     1.764     2.077
    17   1 H        0.924     0.088     1.899     2.155

 Mol. C6AA /au·bohr⁶  :       2388.397330
 Mol. C8AA /au·bohr⁸  :      49832.248648
 Mol. α(0) /au        :         70.798137


Wiberg/Mayer (AO) data.
largest (>0.10) Wiberg bond orders for each atom

 ---------------------------------------------------------------------------
     #   Z sym  total        # sym  WBO       # sym  WBO       # sym  WBO
 ---------------------------------------------------------------------------
     1   6 C    3.994 --     2 C    1.010    10 H    0.987     9 H    0.985
                            11 H    0.984
     2   6 C    3.989 --     1 C    1.010     3 C    1.005     4 C    0.979
                            12 H    0.966
     3   6 C    3.990 --     2 C    1.005    14 H    0.985    13 H    0.985
                            15 H    0.983
     4   6 C    3.879 --     2 C    0.979    17 H    0.959    16 H    0.955
                             5 O    0.915
     5   8 O    2.260 --     6 N    1.008     4 C    0.915     7 O    0.162
                             8 O    0.146
     6   7 N    3.963 --     7 O    1.459     8 O    1.455     5 O    1.008
     7   8 O    1.937 --     6 N    1.459     8 O    0.290     5 O    0.162
     8   8 O    1.925 --     6 N    1.455     7 O    0.290     5 O    0.146
     9   1 H    0.998 --     1 C    0.985
    10   1 H    0.999 --     1 C    0.987
    11   1 H    0.997 --     1 C    0.984
    12   1 H    0.997 --     2 C    0.966
    13   1 H    0.997 --     3 C    0.985
    14   1 H    0.997 --     3 C    0.985
    15   1 H    0.995 --     3 C    0.983
    16   1 H    0.990 --     4 C    0.955
    17   1 H    0.992 --     4 C    0.959
 ---------------------------------------------------------------------------

Topologies differ in total number of bonds
Writing topology from bond orders to xtbtopo.mol

molecular dipole:
                 x           y           z       tot (Debye)
 q only:       -1.966       0.131       0.696
   full:       -1.885       0.128       0.718       5.138
molecular quadrupole (traceless):
                xx          xy          yy          xz          yz          zz
 q only:       -2.714      -0.173      -0.831       1.265       2.358       3.545
  q+dip:       -4.597      -0.902      -0.443       3.413       3.055       5.040
   full:       -4.156      -0.484      -1.015       3.090       3.226       5.171

           -------------------------------------------------
          |                Geometry Summary                 |
           -------------------------------------------------

      molecular mass/u    :      119.1193283
   center of mass at/Å    :        0.0003042       0.0020160      -0.0011640
  moments of inertia/u·Å² :        0.1092470E+03   0.4397364E+03   0.4625470E+03
rotational constants/cm⁻¹ :        0.1543075E+00   0.3833577E-01   0.3644523E-01

 * 16 selected distances

     #   Z          #   Z                                           value/Å
     1   6 C        2   6 C                                       1.5271324
     2   6 C        3   6 C                                       1.5260370
     2   6 C        4   6 C                                       1.5329620 (max)
     4   6 C        5   8 O                                       1.4300068
     5   8 O        6   7 N                                       1.3532637
     6   7 N        7   8 O                                       1.1918946
     6   7 N        8   8 O                                       1.1936141
     1   6 C        9   1 H                                       1.0882673
     1   6 C       10   1 H                                       1.0888933
     1   6 C       11   1 H                                       1.0862660
     2   6 C       12   1 H                                       1.0940166
     3   6 C       13   1 H                                       1.0863040
     3   6 C       14   1 H                                       1.0869895
     3   6 C       15   1 H                                       1.0858706 (min)
     4   6 C       16   1 H                                       1.0906144
     4   6 C       17   1 H                                       1.0932981

 * 4 distinct bonds (by element types)

   Z      Z             #   av. dist./Å        max./Å        min./Å
   1 H    6 C           9     1.0889467     1.0940166     1.0858706
   6 C    6 C           3     1.5287105     1.5329620     1.5260370
   6 C    8 O           1     1.4300068     1.4300068     1.4300068
   7 N    8 O           3     1.2462574     1.3532637     1.1918946

           -------------------------------------------------
          |               Frequency Printout                |
           -------------------------------------------------
 projected vibrational frequencies (cm⁻¹)
eigval :       -0.00    -0.00     0.00     0.00     0.00     0.00
eigval :       52.54    64.25    87.90   206.97   238.15   251.65
eigval :      319.73   344.88   427.30   433.43   628.49   689.21
eigval :      737.35   828.56   862.12   918.16   953.01   973.48
eigval :      990.55  1020.64  1150.79  1160.08  1177.77  1230.08
eigval :     1278.34  1281.88  1323.32  1329.18  1406.96  1410.92
eigval :     1423.48  1486.06  1490.29  1496.90  1510.49  1709.34
eigval :     2952.06  2971.65  2995.91  3016.14  3030.78  3041.60
eigval :     3047.34  3052.15  3057.96
 reduced masses (amu)
   1: 11.72   2: 12.51   3: 12.54   4: 13.78   5: 11.88   6: 12.38   7: 10.73   8: 12.87
   9: 13.48  10:  1.55  11:  4.69  12:  8.35  13: 10.61  14: 10.25  15: 10.51  16:  6.69
  17: 12.94  18: 14.46  19: 14.46  20: 13.16  21:  9.09  22:  5.16  23:  2.73  24:  6.60
  25:  4.92  26: 12.54  27:  7.20  28:  7.21  29:  6.09  30:  3.62  31:  3.72  32: 15.10
  33:  4.86  34:  4.25  35:  3.19  36:  2.17  37:  2.93  38:  1.58  39:  1.55  40:  1.59
  41:  1.53  42: 14.65  43:  1.74  44:  1.72  45:  1.78  46:  1.86  47:  1.72  48:  1.88
  49:  1.81  50:  1.56  51:  1.48
 IR intensities (km·mol⁻¹)
   1:  0.26   2:  0.55   3:  1.63   4:  0.80   5:  1.57   6:  0.85   7:  1.07   8:  1.31
   9:  0.82  10:  0.00  11:  0.09  12:  0.52  13:  2.22  14:  3.38  15:  1.48  16:  4.53
  17: 12.25  18:  3.05  19: 96.49  20:525.18  21: 55.42  22: 70.06  23:  1.89  24: 11.47
  25:  1.28  26: 98.22  27:  1.47  28:  2.60  29: 11.62  30: 23.22  31: 17.75  32:641.02
  33: 15.14  34:  7.05  35: 10.10  36:  7.65  37:  2.16  38:  1.62  39:  2.67  40:  5.69
  41:  2.40  42:946.89  43: 34.72  44: 18.89  45:  5.62  46: 75.01  47: 36.81  48: 65.56
  49: 35.86  50: 37.01  51: 41.49
 Raman intensities (Ä⁴*amu⁻¹)
   1:  0.00   2:  0.00   3:  0.00   4:  0.00   5:  0.00   6:  0.00   7:  0.00   8:  0.00
   9:  0.00  10:  0.00  11:  0.00  12:  0.00  13:  0.00  14:  0.00  15:  0.00  16:  0.00
  17:  0.00  18:  0.00  19:  0.00  20:  0.00  21:  0.00  22:  0.00  23:  0.00  24:  0.00
  25:  0.00  26:  0.00  27:  0.00  28:  0.00  29:  0.00  30:  0.00  31:  0.00  32:  0.00
  33:  0.00  34:  0.00  35:  0.00  36:  0.00  37:  0.00  38:  0.00  39:  0.00  40:  0.00
  41:  0.00  42:  0.00  43:  0.00  44:  0.00  45:  0.00  46:  0.00  47:  0.00  48:  0.00
  49:  0.00  50:  0.00  51:  0.00
 output can be read by thermo (or use thermo option).
 writing <g98.out> molden fake output.
 recommended (thermochemical) frequency scaling factor: 1.0
           -------------------------------------------------
          |             Thermodynamic Functions             |
           -------------------------------------------------

Molecule has no symmetry elements
It seems to be the C1 point group
c1  symmetry found (for desy threshold:  0.10E+00) used in thermo

          ...................................................
          :                      SETUP                      :
          :.................................................:
          :  # frequencies                          45      :
          :  # imaginary freq.                       0      :
          :  linear?                             false      :
          :  only rotor calc.                    false      :
          :  symmetry                               c1      :
          :  rotational number                       1      :
          :  scaling factor                  1.0000000      :
          :  rotor cutoff                    0.0000000 cm⁻¹ :
          :  imag. cutoff                 -100.0000000 cm⁻¹ :
          :.................................................:

    mode    ω/cm⁻¹     T·S(HO)/kcal·mol⁻¹    T·S(FR)/kcal·mol⁻¹   T·S(vib)
   ------------------------------------------------------------------------
       1     52.54    -1.40708 (100.00%)    -1.04158 (  0.00%)    -1.40708
       2     64.25    -1.28864 (100.00%)    -0.98202 (  0.00%)    -1.28864
       3     87.90    -1.10504 (100.00%)    -0.88926 (  0.00%)    -1.10504
       4    206.97    -0.61724 (100.00%)    -0.63565 (  0.00%)    -0.61724
       5    238.15    -0.54165 (100.00%)    -0.59410 (  0.00%)    -0.54165
       6    251.65    -0.51252 (100.00%)    -0.57776 (  0.00%)    -0.51252
   ------------------------------------------------------------------------

   temp. (K)  partition function   enthalpy   heat capacity  entropy
                                   cal/mol     cal/K/mol   cal/K/mol   J/K/mol
 298.15  VIB   410.                 3838.619     25.215     24.829
         ROT  0.360E+06              888.752      2.981     28.406
         INT  0.147E+09             4727.372     28.196     53.235
         TR   0.126E+28             1481.254      4.968     40.221
         TOT                        6208.6256    33.1639    93.4560   391.0197

       T/K    H(0)-H(T)+PV         H(T)/Eh          T*S/Eh         G(T)/Eh
   ------------------------------------------------------------------------
    298.15    0.989407E-02    0.146721E+00    0.444039E-01    0.102317E+00
   ------------------------------------------------------------------------

         :::::::::::::::::::::::::::::::::::::::::::::::::::::
         ::                  THERMODYNAMIC                  ::
         :::::::::::::::::::::::::::::::::::::::::::::::::::::
         :: total free energy         -28.071623453029 Eh   ::
         ::.................................................::
         :: total energy              -28.173940030378 Eh   ::
         :: zero point energy           0.136826445370 Eh   ::
         :: G(RRHO) w/o ZPVE           -0.034509868020 Eh   ::
         :: G(RRHO) contrib.            0.102316577350 Eh   ::
         :::::::::::::::::::::::::::::::::::::::::::::::::::::

optimized geometry written to: xtbopt.coord


           -------------------------------------------------
          | TOTAL ENERGY              -28.173940030378 Eh   |
          | TOTAL ENTHALPY            -28.027219510335 Eh   |
          | TOTAL FREE ENERGY         -28.071623453029 Eh   |
          | GRADIENT NORM               0.000121366677 Eh/α |
          | HOMO-LUMO GAP               3.443566141079 eV   |
           -------------------------------------------------

------------------------------------------------------------------------
 * finished run on 2025/04/11 at 14:34:23.955     
------------------------------------------------------------------------
 total:
 * wall-time:     0 d,  0 h,  0 min,  0.891 sec
 *  cpu-time:     0 d,  0 h,  0 min,  0.847 sec
 * ratio c/w:     0.951 speedup
 SCF:
 * wall-time:     0 d,  0 h,  0 min,  0.051 sec
 *  cpu-time:     0 d,  0 h,  0 min,  0.022 sec
 * ratio c/w:     0.431 speedup
 ANC optimizer:
 * wall-time:     0 d,  0 h,  0 min,  0.117 sec
 *  cpu-time:     0 d,  0 h,  0 min,  0.115 sec
 * ratio c/w:     0.979 speedup
 analytical hessian:
 * wall-time:     0 d,  0 h,  0 min,  0.699 sec
 *  cpu-time:     0 d,  0 h,  0 min,  0.698 sec
 * ratio c/w:     0.998 speedup

