      -----------------------------------------------------------      
     |                   =====================                   |     
     |                           x T B                           |     
     |                   =====================                   |     
     |                         S. Grimme                         |     
     |          Mulliken Center for Theoretical Chemistry        |     
     |                    University of Bonn                     |     
      -----------------------------------------------------------      

   * xtb version 6.7.1 (edcfbbe) compiled by 'albert@albert-system' on 2024-07-22

   xtb is free software: you can redistribute it and/or modify it under
   the terms of the GNU Lesser General Public License as published by
   the Free Software Foundation, either version 3 of the License, or
   (at your option) any later version.
   
   xtb is distributed in the hope that it will be useful,
   but WITHOUT ANY WARRANTY; without even the implied warranty of
   MERCHANTABILITY or FITNESS FOR A PARTICULAR PURPOSE.  See the
   GNU Lesser General Public License for more details.
   
   Cite this work as:
   * C. Bannwarth, E. Caldeweyher, S. Ehlert, A. Hansen, P. Pracht,
     J. Seibert, S. Spicher, S. Grimme, WIREs Comput. Mol. Sci., 2020, 11,
     e01493. DOI: 10.1002/wcms.1493
   
   for GFN2-xTB:
   * C. Bannwarth, S. Ehlert and S. Grimme., J. Chem. Theory Comput., 2019,
     15, 1652-1671. DOI: 10.1021/acs.jctc.8b01176
   for GFN1-xTB:
   * S. Grimme, C. Bannwarth, P. Shushkov, J. Chem. Theory Comput., 2017,
     13, 1989-2009. DOI: 10.1021/acs.jctc.7b00118
   for GFN0-xTB:
   * P. Pracht, E. Caldeweyher, S. Ehlert, S. Grimme, ChemRxiv, 2019, preprint.
     DOI: 10.26434/chemrxiv.8326202.v1
   for GFN-FF:
   * S. Spicher and S. Grimme, Angew. Chem. Int. Ed., 2020, 59, 15665-15673.
     DOI: 10.1002/anie.202004239
   
   for ALPB and GBSA implicit solvation:
   * S. Ehlert, M. Stahn, S. Spicher, S. Grimme, J. Chem. Theory Comput.,
     2021, 17, 4250-4261. DOI: 10.1021/acs.jctc.1c00471
   
   for ddCOSMO and CPCM-X implicit solvation:
   * M. Stahn, S. Ehlert, S. Grimme, J. Phys. Chem. A,
     2023, XX, XXXX-XXXX. DOI: 10.1021/acs.jpca.3c04382
   
   for DFT-D4:
   * E. Caldeweyher, C. Bannwarth and S. Grimme, J. Chem. Phys., 2017,
     147, 034112. DOI: 10.1063/1.4993215
   * E. Caldeweyher, S. Ehlert, A. Hansen, H. Neugebauer, S. Spicher,
     C. Bannwarth and S. Grimme, J. Chem. Phys., 2019, 150, 154122.
     DOI: 10.1063/1.5090222
   * E. Caldeweyher, J.-M. Mewes, S. Ehlert and S. Grimme, Phys. Chem. Chem. Phys.
     2020, 22, 8499-8512. DOI: 10.1039/D0CP00502A
   
   for sTDA-xTB:
   * S. Grimme and C. Bannwarth, J. Chem. Phys., 2016, 145, 054103.
     DOI: 10.1063/1.4959605
   
   in the mass-spec context:
   * V. Asgeirsson, C. Bauer and S. Grimme, Chem. Sci., 2017, 8, 4879.
     DOI: 10.1039/c7sc00601b
   * J. Koopman and S. Grimme, ACS Omega 2019, 4, 12, 15120-15133.
     DOI: 10.1021/acsomega.9b02011
   
   for metadynamics refer to:
   * S. Grimme, J. Chem. Theory Comput., 2019, 155, 2847-2862
     DOI: 10.1021/acs.jctc.9b00143
   
   for SPH calculations refer to:
   * S. Spicher and S. Grimme, J. Chem. Theory Comput., 2021, 17, 1701-1714
     DOI: 10.1021/acs.jctc.0c01306
   
   for ONIOM refer to:
   * C. Plett, A. Katbashev, S. Ehlert, S. Grimme, M. Bursch,
     Phys. Chem. Chem. Phys., 2023, 25, 17860-17868. DOI: 10.1039/D3CP02178E
   
   for DIPRO refer to:
   * J. Kohn, N. Gildemeister, S. Grimme, D. Fazzi, A. Hansen,
     J. Chem. Phys., 2023, just accepted.
   
   for PTB refer to:
   * S. Grimme, M. Mueller, A. Hansen, J. Chem. Phys., 2023, 158, 124111.
     DOI: 10.1063/5.0137838
   
   with help from (in alphabetical order)
   P. Atkinson, C. Bannwarth, F. Bohle, G. Brandenburg, E. Caldeweyher
   M. Checinski, S. Dohm, S. Ehlert, S. Ehrlich, I. Gerasimov, C. Hölzer
   A. Katbashev, J. Kohn, J. Koopman, C. Lavigne, S. Lehtola, F. März, M. Müller,
   F. Musil, H. Neugebauer, J. Pisarek, C. Plett, P. Pracht, F. Pultar,
   J. Seibert, P. Shushkov, S. Spicher, M. Stahn, M. Steiner, T. Strunk,
   J. Stückrath, T. Rose, and J. Unsleber
   
 * started run on 2025/04/11 at 16:11:56.902     
   ID    Z sym.   atoms
    1    6 C      1-5
    2    8 O      6, 7
    3    1 H      8-17

           -------------------------------------------------
          |                Calculation Setup                |
           -------------------------------------------------

          program call               : /srv/scratch/z5358697/.xtb/bin/xtb gas.coord --gfn2 --sp --chrg 0 --norestart --parallel 1
          hostname                   : k018
          coordinate file            : gas.coord
          omp threads                :                     1


           -------------------------------------------------
          |                 G F N 2 - x T B                 |
           -------------------------------------------------

        Reference                      10.1021/acs.jctc.8b01176
      * Hamiltonian:
        H0-scaling (s, p, d)           1.850000    2.230000    2.230000
        zeta-weighting                 0.500000
      * Dispersion:
        s8                             2.700000
        a1                             0.520000
        a2                             5.000000
        s9                             5.000000
      * Repulsion:
        kExp                           1.500000    1.000000
        rExp                           1.000000
      * Coulomb:
        alpha                          2.000000
        third order                    shell-resolved
        anisotropic                    true
        a3                             3.000000
        a5                             4.000000
        cn-shift                       1.200000
        cn-exp                         4.000000
        max-rad                        5.000000


          ...................................................
          :                      SETUP                      :
          :.................................................:
          :  # basis functions                  38          :
          :  # atomic orbitals                  38          :
          :  # shells                           24          :
          :  # electrons                        42          :
          :  max. iterations                   250          :
          :  Hamiltonian                  GFN2-xTB          :
          :  restarted?                      false          :
          :  GBSA solvation                  false          :
          :  PC potential                    false          :
          :  electronic temp.          300.0000000     K    :
          :  accuracy                    1.0000000          :
          :  -> integral cutoff          0.2500000E+02      :
          :  -> integral neglect         0.1000000E-07      :
          :  -> SCF convergence          0.1000000E-05 Eh   :
          :  -> wf. convergence          0.1000000E-03 e    :
          :  Broyden damping             0.4000000          :
          :  net charge                          0          :
          :  unpaired electrons                  0          :
          ...................................................

 iter      E             dE          RMSdq      gap      omega  full diag
   1    -24.1516475 -0.241516E+02  0.377E+00    5.78       0.0  T
   2    -24.2079418 -0.562943E-01  0.195E+00    4.57       1.0  T
   3    -24.2115027 -0.356095E-02  0.113E+00    5.04       1.0  T
   4    -24.2137348 -0.223214E-02  0.173E-01    4.76       1.0  T
   5    -24.2139516 -0.216782E-03  0.785E-02    4.82       1.0  T
   6    -24.2139552 -0.355862E-05  0.155E-02    4.82       1.6  T
   7    -24.2139558 -0.658185E-06  0.649E-03    4.82       3.7  T
   8    -24.2139559 -0.544641E-07  0.154E-03    4.82      15.7  T
   9    -24.2139559 -0.560135E-08  0.747E-04    4.82      32.5  T
  10    -24.2139559 -0.133760E-08  0.182E-04    4.82     133.6  T

   *** convergence criteria satisfied after 10 iterations ***

         #    Occupation            Energy/Eh            Energy/eV
      -------------------------------------------------------------
         1        2.0000           -0.7479618             -20.3531
       ...           ...                  ...                  ...
        15        2.0000           -0.4913785             -13.3711
        16        2.0000           -0.4759782             -12.9520
        17        2.0000           -0.4686854             -12.7536
        18        2.0000           -0.4560086             -12.4086
        19        2.0000           -0.4479454             -12.1892
        20        2.0000           -0.4439714             -12.0811
        21        2.0000           -0.4132449             -11.2450 (HOMO)
        22                         -0.2360095              -6.4221 (LUMO)
        23                          0.0489261               1.3313
        24                          0.0716673               1.9502
        25                          0.0838217               2.2809
        26                          0.1016704               2.7666
       ...                                ...                  ...
        38                          0.6045660              16.4511
      -------------------------------------------------------------
                  HL-Gap            0.1772354 Eh            4.8228 eV
             Fermi-level           -0.3246272 Eh           -8.8336 eV

 SCC (total)                   0 d,  0 h,  0 min,  0.052 sec
 SCC setup                      ...        0 min,  0.000 sec (  0.398%)
 Dispersion                     ...        0 min,  0.000 sec (  0.185%)
 classical contributions        ...        0 min,  0.000 sec (  0.046%)
 integral evaluation            ...        0 min,  0.001 sec (  2.522%)
 iterations                     ...        0 min,  0.047 sec ( 89.329%)
 molecular gradient             ...        0 min,  0.004 sec (  7.172%)
 printout                       ...        0 min,  0.000 sec (  0.323%)

         :::::::::::::::::::::::::::::::::::::::::::::::::::::
         ::                     SUMMARY                     ::
         :::::::::::::::::::::::::::::::::::::::::::::::::::::
         :: total energy             -23.941420830211 Eh    ::
         :: gradient norm              0.036361080552 Eh/a0 ::
         :: HOMO-LUMO gap              4.822821557013 eV    ::
         ::.................................................::
         :: SCC energy               -24.213933299133 Eh    ::
         :: -> isotropic ES            0.050977591234 Eh    ::
         :: -> anisotropic ES          0.005239590785 Eh    ::
         :: -> anisotropic XC          0.005652694970 Eh    ::
         :: -> dispersion             -0.009601485906 Eh    ::
         :: repulsion energy           0.272512468923 Eh    ::
         :: add. restraining           0.000000000000 Eh    ::
         :: total charge              -0.000000000000 e     ::
         :::::::::::::::::::::::::::::::::::::::::::::::::::::

           -------------------------------------------------
          |                Property Printout                |
           -------------------------------------------------

    * Orbital Energies and Occupations

         #    Occupation            Energy/Eh            Energy/eV
      -------------------------------------------------------------
         1        2.0000           -0.7479618             -20.3531
       ...           ...                  ...                  ...
         9        2.0000           -0.5660837             -15.4039
        10        2.0000           -0.5570433             -15.1579
        11        2.0000           -0.5272608             -14.3475
        12        2.0000           -0.5207768             -14.1711
        13        2.0000           -0.5059093             -13.7665
        14        2.0000           -0.4973304             -13.5330
        15        2.0000           -0.4913785             -13.3711
        16        2.0000           -0.4759782             -12.9520
        17        2.0000           -0.4686854             -12.7536
        18        2.0000           -0.4560086             -12.4086
        19        2.0000           -0.4479454             -12.1892
        20        2.0000           -0.4439714             -12.0811
        21        2.0000           -0.4132449             -11.2450 (HOMO)
        22                         -0.2360095              -6.4221 (LUMO)
        23                          0.0489261               1.3313
        24                          0.0716673               1.9502
        25                          0.0838217               2.2809
        26                          0.1016704               2.7666
        27                          0.1207932               3.2870
        28                          0.1236223               3.3639
        29                          0.1309735               3.5640
        30                          0.1625832               4.4241
        31                          0.1811287               4.9288
        32                          0.2045956               5.5673
       ...                                ...                  ...
        38                          0.6045660              16.4511
      -------------------------------------------------------------
                  HL-Gap            0.1772354 Eh            4.8228 eV
             Fermi-level           -0.3246272 Eh           -8.8336 eV

     #   Z          covCN         q      C6AA      α(0)
     1   6 C        3.751    -0.105    22.565     6.774
     2   6 C        3.800    -0.056    21.577     6.614
     3   6 C        3.804    -0.053    21.519     6.604
     4   6 C        3.802    -0.101    22.425     6.742
     5   6 C        2.692     0.356    20.962     7.493
     6   8 O        0.857    -0.381    21.307     6.189
     7   8 O        1.659    -0.364    20.159     6.061
     8   1 H        0.925     0.035     2.518     2.482
     9   1 H        0.925     0.035     2.522     2.483
    10   1 H        0.925     0.039     2.466     2.456
    11   1 H        0.924     0.039     2.467     2.456
    12   1 H        0.924     0.039     2.459     2.452
    13   1 H        0.924     0.047     2.361     2.403
    14   1 H        0.924     0.034     2.532     2.489
    15   1 H        0.925     0.070     2.086     2.259
    16   1 H        0.925     0.047     2.362     2.403
    17   1 H        0.804     0.320     0.663     1.279

 Mol. C6AA /au·bohr⁶  :       2221.725579
 Mol. C8AA /au·bohr⁸  :      47273.713117
 Mol. α(0) /au        :         69.639204


Wiberg/Mayer (AO) data.
largest (>0.10) Wiberg bond orders for each atom

 ---------------------------------------------------------------------------
     #   Z sym  total        # sym  WBO       # sym  WBO       # sym  WBO
 ---------------------------------------------------------------------------
     1   6 C    3.997 --     2 C    1.020     9 H    0.988    10 H    0.987
                             8 H    0.986
     2   6 C    3.997 --     1 C    1.020     3 C    1.005    12 H    0.978
                            11 H    0.976
     3   6 C    3.993 --     2 C    1.005     4 C    0.980    14 H    0.977
                            13 H    0.977
     4   6 C    3.995 --     3 C    0.980     5 C    0.977    15 H    0.970
                            16 H    0.966
     5   6 C    3.916 --     6 O    1.776     7 O    1.131     4 C    0.977
     6   8 O    2.050 --     5 C    1.776     7 O    0.162
     7   8 O    2.212 --     5 C    1.131    17 H    0.873     6 O    0.162
     8   1 H    0.999 --     1 C    0.986
     9   1 H    0.999 --     1 C    0.988
    10   1 H    0.998 --     1 C    0.987
    11   1 H    0.999 --     2 C    0.976
    12   1 H    0.998 --     2 C    0.978
    13   1 H    0.998 --     3 C    0.977
    14   1 H    0.999 --     3 C    0.977
    15   1 H    0.995 --     4 C    0.970
    16   1 H    0.998 --     4 C    0.966
    17   1 H    0.897 --     7 O    0.873
 ---------------------------------------------------------------------------

Topologies differ in total number of bonds
Writing topology from bond orders to xtbtopo.mol

molecular dipole:
                 x           y           z       tot (Debye)
 q only:       -1.328       0.384       0.962
   full:       -1.585       0.461       1.221       5.219
molecular quadrupole (traceless):
                xx          xy          yy          xz          yz          zz
 q only:       -6.273       2.148       2.712       4.985      -0.154       3.560
  q+dip:       -8.932       2.473       4.301       6.138      -0.465       4.631
   full:       -8.928       2.212       4.239       6.269      -0.881       4.689


           -------------------------------------------------
          | TOTAL ENERGY              -23.941420830211 Eh   |
          | GRADIENT NORM               0.036361080552 Eh/α |
          | HOMO-LUMO GAP               4.822821557013 eV   |
           -------------------------------------------------

------------------------------------------------------------------------
 * finished run on 2025/04/11 at 16:11:56.985     
------------------------------------------------------------------------
 total:
 * wall-time:     0 d,  0 h,  0 min,  0.082 sec
 *  cpu-time:     0 d,  0 h,  0 min,  0.019 sec
 * ratio c/w:     0.231 speedup
 SCF:
 * wall-time:     0 d,  0 h,  0 min,  0.053 sec
 *  cpu-time:     0 d,  0 h,  0 min,  0.011 sec
 * ratio c/w:     0.216 speedup

