! r2scan-3c def2/J RI DEFGRID2 scfconv6 printgap
%output
    printlevel normal
end
%cpcm
    smd true
    smdsolvent "water"
end
* xyz 0 1
C -2.6112022247 -0.209824218 1.2461285329
C -2.524909026 0.0724891084 -0.2489501572
C -1.2514271103 -0.5189388133 -0.8616122124
C -0.0257743682 0.1808621375 -0.332142281
O 0.1477167292 1.3817893927 -0.3481781221
O 0.8487419855 -0.6823087584 0.1702036287
C 2.0904200981 -0.1804800565 0.6921231196
C 3.1432750802 -0.0850518687 -0.4013750399
H -3.531038806 0.1981467239 1.6564648963
H -2.5918141813 -1.2805322654 1.4347692426
H -1.771924809 0.2465880976 1.7679530254
H -2.525608595 1.1506955905 -0.4197157916
H -3.3906636637 -0.3566479131 -0.7538641056
H -1.267646863 -0.3726600222 -1.9430397198
H -1.1672237553 -1.5825428739 -0.6422083124
H 1.9093215991 0.8014566788 1.1400621703
H 2.3784916874 -0.9001214264 1.4590577386
H 4.0861493973 0.2301301688 0.0333702674
H 3.2731956239 -1.0516968863 -0.8803961738
H 2.8383147457 0.643351851 -1.1495207293
*
