! r2scan-3c def2/J RI DEFGRID2 scfconv6 printgap
%output
    printlevel normal
end
%cpcm
    smd true
    smdsolvent "water"
end
* xyz 0 1
C 1.9237544752 -0.7278447577 -0.1629099029
C 1.1272887924 0.3432959213 0.5739711482
C 0.0246794509 0.9709272735 -0.2818342748
C -1.1134370688 0.0068819826 -0.6564803776
N -1.8892419105 -0.5173010359 0.4567561182
H 2.7403155361 -1.0840724535 0.460739337
H 1.2963473162 -1.5781864076 -0.4175144713
H 2.3431275405 -0.3229555402 -1.0812136832
H 0.6927189761 -0.0857511374 1.4804977831
H 1.8090479628 1.1369779563 0.8888091373
H -0.4040196352 1.8178878268 0.2619498787
H 0.4639204446 1.3569762062 -1.2037160859
H -0.7136036365 -0.8455716867 -1.2096575062
H -1.8103174378 0.5326656237 -1.3160800056
H -1.2887145574 -1.0616725654 1.0667865154
H -2.2584665916 0.2527908962 1.0051018026
*
