      -----------------------------------------------------------      
     |                   =====================                   |     
     |                           x T B                           |     
     |                   =====================                   |     
     |                         S. Grimme                         |     
     |          Mulliken Center for Theoretical Chemistry        |     
     |                    University of Bonn                     |     
      -----------------------------------------------------------      

   * xtb version 6.7.1 (edcfbbe) compiled by 'albert@albert-system' on 2024-07-22

   xtb is free software: you can redistribute it and/or modify it under
   the terms of the GNU Lesser General Public License as published by
   the Free Software Foundation, either version 3 of the License, or
   (at your option) any later version.
   
   xtb is distributed in the hope that it will be useful,
   but WITHOUT ANY WARRANTY; without even the implied warranty of
   MERCHANTABILITY or FITNESS FOR A PARTICULAR PURPOSE.  See the
   GNU Lesser General Public License for more details.
   
   Cite this work as:
   * C. Bannwarth, E. Caldeweyher, S. Ehlert, A. Hansen, P. Pracht,
     J. Seibert, S. Spicher, S. Grimme, WIREs Comput. Mol. Sci., 2020, 11,
     e01493. DOI: 10.1002/wcms.1493
   
   for GFN2-xTB:
   * C. Bannwarth, S. Ehlert and S. Grimme., J. Chem. Theory Comput., 2019,
     15, 1652-1671. DOI: 10.1021/acs.jctc.8b01176
   for GFN1-xTB:
   * S. Grimme, C. Bannwarth, P. Shushkov, J. Chem. Theory Comput., 2017,
     13, 1989-2009. DOI: 10.1021/acs.jctc.7b00118
   for GFN0-xTB:
   * P. Pracht, E. Caldeweyher, S. Ehlert, S. Grimme, ChemRxiv, 2019, preprint.
     DOI: 10.26434/chemrxiv.8326202.v1
   for GFN-FF:
   * S. Spicher and S. Grimme, Angew. Chem. Int. Ed., 2020, 59, 15665-15673.
     DOI: 10.1002/anie.202004239
   
   for ALPB and GBSA implicit solvation:
   * S. Ehlert, M. Stahn, S. Spicher, S. Grimme, J. Chem. Theory Comput.,
     2021, 17, 4250-4261. DOI: 10.1021/acs.jctc.1c00471
   
   for ddCOSMO and CPCM-X implicit solvation:
   * M. Stahn, S. Ehlert, S. Grimme, J. Phys. Chem. A,
     2023, XX, XXXX-XXXX. DOI: 10.1021/acs.jpca.3c04382
   
   for DFT-D4:
   * E. Caldeweyher, C. Bannwarth and S. Grimme, J. Chem. Phys., 2017,
     147, 034112. DOI: 10.1063/1.4993215
   * E. Caldeweyher, S. Ehlert, A. Hansen, H. Neugebauer, S. Spicher,
     C. Bannwarth and S. Grimme, J. Chem. Phys., 2019, 150, 154122.
     DOI: 10.1063/1.5090222
   * E. Caldeweyher, J.-M. Mewes, S. Ehlert and S. Grimme, Phys. Chem. Chem. Phys.
     2020, 22, 8499-8512. DOI: 10.1039/D0CP00502A
   
   for sTDA-xTB:
   * S. Grimme and C. Bannwarth, J. Chem. Phys., 2016, 145, 054103.
     DOI: 10.1063/1.4959605
   
   in the mass-spec context:
   * V. Asgeirsson, C. Bauer and S. Grimme, Chem. Sci., 2017, 8, 4879.
     DOI: 10.1039/c7sc00601b
   * J. Koopman and S. Grimme, ACS Omega 2019, 4, 12, 15120-15133.
     DOI: 10.1021/acsomega.9b02011
   
   for metadynamics refer to:
   * S. Grimme, J. Chem. Theory Comput., 2019, 155, 2847-2862
     DOI: 10.1021/acs.jctc.9b00143
   
   for SPH calculations refer to:
   * S. Spicher and S. Grimme, J. Chem. Theory Comput., 2021, 17, 1701-1714
     DOI: 10.1021/acs.jctc.0c01306
   
   for ONIOM refer to:
   * C. Plett, A. Katbashev, S. Ehlert, S. Grimme, M. Bursch,
     Phys. Chem. Chem. Phys., 2023, 25, 17860-17868. DOI: 10.1039/D3CP02178E
   
   for DIPRO refer to:
   * J. Kohn, N. Gildemeister, S. Grimme, D. Fazzi, A. Hansen,
     J. Chem. Phys., 2023, just accepted.
   
   for PTB refer to:
   * S. Grimme, M. Mueller, A. Hansen, J. Chem. Phys., 2023, 158, 124111.
     DOI: 10.1063/5.0137838
   
   with help from (in alphabetical order)
   P. Atkinson, C. Bannwarth, F. Bohle, G. Brandenburg, E. Caldeweyher
   M. Checinski, S. Dohm, S. Ehlert, S. Ehrlich, I. Gerasimov, C. Hölzer
   A. Katbashev, J. Kohn, J. Koopman, C. Lavigne, S. Lehtola, F. März, M. Müller,
   F. Musil, H. Neugebauer, J. Pisarek, C. Plett, P. Pracht, F. Pultar,
   J. Seibert, P. Shushkov, S. Spicher, M. Stahn, M. Steiner, T. Strunk,
   J. Stückrath, T. Rose, and J. Unsleber
   
 * started run on 2025/04/11 at 14:48:45.697     
   ID    Z sym.   atoms
    1    6 C      1-6
    2    1 H      7-18

           -------------------------------------------------
          |                Calculation Setup                |
           -------------------------------------------------

          program call               : /software/projects/pawsey0265/mwang1/xtb/bin/xtb xtb_rrho.coord --gfn2 --ohess vtight --chrg 0 --enso --norestart -I rrho-xcontrol-inp --parallel 1 --alpb water
          hostname                   : nid002549
          coordinate file            : xtb_rrho.coord
          omp threads                :                     1


           -------------------------------------------------
          |                 G F N 2 - x T B                 |
           -------------------------------------------------

        Reference                      10.1021/acs.jctc.8b01176
      * Hamiltonian:
        H0-scaling (s, p, d)           1.850000    2.230000    2.230000
        zeta-weighting                 0.500000
      * Dispersion:
        s8                             2.700000
        a1                             0.520000
        a2                             5.000000
        s9                             5.000000
      * Repulsion:
        kExp                           1.500000    1.000000
        rExp                           1.000000
      * Coulomb:
        alpha                          2.000000
        third order                    shell-resolved
        anisotropic                    true
        a3                             3.000000
        a5                             4.000000
        cn-shift                       1.200000
        cn-exp                         4.000000
        max-rad                        5.000000

      * Solvation model:               ALPB
        Solvent                        water
        Parameter file                 internal GFN2-xTB/ALPB
        Dielectric constant                8.0200E+01
        Reference state                gsolv [1 M gas/solution]
        Free energy shift                  1.0808E-03 Eh       6.7819E-01 kcal/mol
        Temperature                        2.9815E+02 K
        Density                            1.0000E+00 kg/L
        Solvent mass                       1.8000E+01 g/mol
        Interaction kernel             P16
        Born radius scaling (c1)           1.4744E+00
        Born radii integrator          GBOBC
        Born offset                        0.0000E+00 a0       0.0000E+00 AA
        H-bond correction              true
        Ion screening                  false
        Surface tension                    1.0000E-05 Eh       1.5569E+01 dyn/cm
        Grid points                               974 per atom

          ...................................................
          :                      SETUP                      :
          :.................................................:
          :  # basis functions                  36          :
          :  # atomic orbitals                  36          :
          :  # shells                           24          :
          :  # electrons                        36          :
          :  max. iterations                   250          :
          :  Hamiltonian                  GFN2-xTB          :
          :  restarted?                      false          :
          :  GBSA solvation                   true          :
          :  PC potential                    false          :
          :  electronic temp.          300.0000000     K    :
          :  accuracy                    1.0000000          :
          :  -> integral cutoff          0.2500000E+02      :
          :  -> integral neglect         0.1000000E-07      :
          :  -> SCF convergence          0.1000000E-05 Eh   :
          :  -> wf. convergence          0.1000000E-03 e    :
          :  Broyden damping             0.4000000          :
          :  net charge                          0          :
          :  unpaired electrons                  0          :
          ...................................................

 iter      E             dE          RMSdq      gap      omega  full diag
   1    -19.2065597 -0.192066E+02  0.306E+00    5.34       0.0  T
   2    -19.2331227 -0.265630E-01  0.178E+00    5.28       1.0  T
   3    -19.2322017  0.920983E-03  0.796E-01    5.27       1.0  T
   4    -19.2336625 -0.146080E-02  0.420E-01    5.22       1.0  T
   5    -19.2354089 -0.174636E-02  0.633E-02    5.24       1.0  T
   6    -19.2354130 -0.410657E-05  0.295E-02    5.24       1.0  T
   7    -19.2354137 -0.692308E-06  0.554E-03    5.24       4.3  T
   8    -19.2354137 -0.509234E-07  0.143E-03    5.24      16.5  T
   9    -19.2354137 -0.149050E-08  0.570E-04    5.24      41.4  T
  10    -19.2354137 -0.785526E-09  0.152E-04    5.24     154.6  T

   *** convergence criteria satisfied after 10 iterations ***

         #    Occupation            Energy/Eh            Energy/eV
      -------------------------------------------------------------
         1        2.0000           -0.6219272             -16.9235
       ...           ...                  ...                  ...
        12        2.0000           -0.4492474             -12.2246
        13        2.0000           -0.4474046             -12.1745
        14        2.0000           -0.4393465             -11.9552
        15        2.0000           -0.4279719             -11.6457
        16        2.0000           -0.4245723             -11.5532
        17        2.0000           -0.4163066             -11.3283
        18        2.0000           -0.3938410             -10.7170 (HOMO)
        19                         -0.2013467              -5.4789 (LUMO)
        20                          0.0747746               2.0347
        21                          0.1033396               2.8120
        22                          0.1113000               3.0286
        23                          0.1329744               3.6184
       ...                                ...                  ...
        36                          0.5911013              16.0847
      -------------------------------------------------------------
                  HL-Gap            0.1924942 Eh            5.2380 eV
             Fermi-level           -0.2975938 Eh           -8.0979 eV

 SCC (total)                   0 d,  0 h,  0 min,  0.048 sec
 SCC setup                      ...        0 min,  0.002 sec (  3.353%)
 Dispersion                     ...        0 min,  0.000 sec (  0.281%)
 classical contributions        ...        0 min,  0.000 sec (  0.088%)
 integral evaluation            ...        0 min,  0.001 sec (  3.100%)
 iterations                     ...        0 min,  0.039 sec ( 82.700%)
 molecular gradient             ...        0 min,  0.005 sec ( 10.159%)
 printout                       ...        0 min,  0.000 sec (  0.266%)

         :::::::::::::::::::::::::::::::::::::::::::::::::::::
         ::                     SUMMARY                     ::
         :::::::::::::::::::::::::::::::::::::::::::::::::::::
         :: total energy             -18.935056118795 Eh    ::
         :: total w/o Gsasa/hb       -18.934590559891 Eh    ::
         :: gradient norm              0.024199443322 Eh/a0 ::
         :: HOMO-LUMO gap              5.238034567001 eV    ::
         ::.................................................::
         :: SCC energy               -19.235386217598 Eh    ::
         :: -> isotropic ES            0.004033198360 Eh    ::
         :: -> anisotropic ES          0.005885277894 Eh    ::
         :: -> anisotropic XC          0.014436358139 Eh    ::
         :: -> dispersion             -0.009974807245 Eh    ::
         :: -> Gsolv                  -0.000720889050 Eh    ::
         ::    -> Gelec               -0.000255330147 Eh    ::
         ::    -> Gsasa               -0.001055109555 Eh    ::
         ::    -> Ghb                 -0.000491209047 Eh    ::
         ::    -> Gshift               0.001080759698 Eh    ::
         :: repulsion energy           0.300330098803 Eh    ::
         :: add. restraining           0.000000000000 Eh    ::
         :: total charge              -0.000000000000 e     ::
         :::::::::::::::::::::::::::::::::::::::::::::::::::::

      ----------------------------------------------------------- 
     |                   =====================                   |
     |                        A N C O P T                        |
     |                   =====================                   |
     |               Approximate Normal Coordinate               |
     |                Rational Function Optimizer                |
      ----------------------------------------------------------- 
      ----------------------------------------------------------- 
     |                   =====================                   |
     |                        A N C O P T                        |
     |                   =====================                   |
     |               Approximate Normal Coordinate               |
     |                Rational Function Optimizer                |
      ----------------------------------------------------------- 

          ...................................................
          :                      SETUP                      :
          :.................................................:
          :   optimization level         verytight          :
          :   max. optcycles                   360          :
          :   ANC micro-cycles                  20          :
          :   degrees of freedom                48          :
          :.................................................:
          :   RF solver                   davidson          :
          :   write xtbopt.log                true          :
          :   linear?                        false          :
          :   energy convergence         0.1000000E-06 Eh   :
          :   grad. convergence          0.2000000E-03 Eh/α :
          :   maxmium RF displ.          1.0000000          :
          :   Hlow (freq-cutoff)         0.1000000E-01      :
          :   Hmax (freq-cutoff)         5.0000000          :
          :   S6 in model hess.         20.0000000          :
          ...................................................

generating ANC from exact Hessian ...
Using Lindh-Hessian (1995)
 Shifting diagonal of input Hessian by   8.143016586079698E-003
 Lowest  eigenvalues of input Hessian
    0.000000    0.000000    0.000000    0.000000    0.000000    0.000000
    0.010000    0.010621    0.011481    0.016811    0.017438    0.018594
    0.023120    0.027312    0.035421    0.045544    0.048044    0.056508
 Highest eigenvalues
    1.166445    1.176410    1.208500    1.271871    1.468356    1.889105
 

........................................................................
.............................. CYCLE    1 ..............................
........................................................................

 iter      E             dE          RMSdq      gap      omega  full diag
   1    -19.2354137 -0.192354E+02  0.569E-05    5.24       0.0  T
   2    -19.2354137 -0.895639E-11  0.414E-05    5.24     569.7  T
   3    -19.2354137 -0.169074E-10  0.214E-05    5.24    1103.0  T
     SCC iter.                  ...        0 min,  0.001 sec
     gradient                   ...        0 min,  0.005 sec
 * total energy  :   -18.9350561 Eh     change       -0.3485567E-10 Eh
   gradient norm :     0.0241993 Eh/α   predicted     0.0000000E+00 (-100.00%)
   displ. norm   :     0.1150721 α      lambda       -0.1284946E-02
   maximum displ.:     0.0618979 α      in ANC's #7, #8, #32, ...

........................................................................
.............................. CYCLE    2 ..............................
........................................................................

 iter      E             dE          RMSdq      gap      omega  full diag
   1    -19.2483765 -0.192484E+02  0.956E-02    5.35       0.0  T
   2    -19.2483801 -0.360526E-05  0.546E-02    5.35       1.0  T
   3    -19.2483766  0.350471E-05  0.204E-02    5.35       1.2  T
   4    -19.2483808 -0.424495E-05  0.341E-03    5.35       6.9  T
   5    -19.2483809 -0.933923E-07  0.137E-03    5.35      17.3  T
   6    -19.2483809 -0.225911E-08  0.545E-04    5.35      43.3  T
   7    -19.2483809 -0.318042E-09  0.765E-05    5.35     307.9  T
     SCC iter.                  ...        0 min,  0.003 sec
     gradient                   ...        0 min,  0.005 sec
 * total energy  :   -18.9358310 Eh     change       -0.7748652E-03 Eh
   gradient norm :     0.0067205 Eh/α   predicted    -0.6509808E-03 ( -15.99%)
   displ. norm   :     0.0631861 α      lambda       -0.1558939E-03
   maximum displ.:     0.0372702 α      in ANC's #1, #7, #5, ...

........................................................................
.............................. CYCLE    3 ..............................
........................................................................

 iter      E             dE          RMSdq      gap      omega  full diag
   1    -19.2524771 -0.192525E+02  0.461E-02    5.37       0.0  T
   2    -19.2524779 -0.789663E-06  0.269E-02    5.37       1.0  T
   3    -19.2524777  0.202081E-06  0.572E-03    5.37       4.1  T
   4    -19.2524779 -0.265228E-06  0.209E-03    5.37      11.3  T
   5    -19.2524780 -0.489979E-07  0.685E-04    5.37      34.4  T
   6    -19.2524780 -0.500258E-09  0.242E-04    5.37      97.5  T
     SCC iter.                  ...        0 min,  0.002 sec
     gradient                   ...        0 min,  0.006 sec
 * total energy  :   -18.9359020 Eh     change       -0.7100476E-04 Eh
   gradient norm :     0.0021573 Eh/α   predicted    -0.7825816E-04 (  10.22%)
   displ. norm   :     0.0371852 α      lambda       -0.4077824E-04
   maximum displ.:     0.0167295 α      in ANC's #1, #4, #7, ...

........................................................................
.............................. CYCLE    4 ..............................
........................................................................

 iter      E             dE          RMSdq      gap      omega  full diag
   1    -19.2527554 -0.192528E+02  0.267E-02    5.37       0.0  T
   2    -19.2527555 -0.767829E-07  0.159E-02    5.37       1.5  T
   3    -19.2527555 -0.111814E-07  0.816E-04    5.37      28.9  T
   4    -19.2527555 -0.166390E-08  0.468E-04    5.37      50.3  T
     SCC iter.                  ...        0 min,  0.001 sec
     gradient                   ...        0 min,  0.005 sec
 * total energy  :   -18.9359189 Eh     change       -0.1694071E-04 Eh
   gradient norm :     0.0013624 Eh/α   predicted    -0.2041690E-04 (  20.52%)
   displ. norm   :     0.0254815 α      lambda       -0.9894987E-05
   maximum displ.:     0.0173364 α      in ANC's #1, #4, #3, ...

........................................................................
.............................. CYCLE    5 ..............................
........................................................................

 iter      E             dE          RMSdq      gap      omega  full diag
   1    -19.2516263 -0.192516E+02  0.189E-02    5.36       0.0  T
   2    -19.2516263 -0.315953E-07  0.112E-02    5.36       2.1  T
   3    -19.2516263  0.344157E-07  0.190E-03    5.36      12.4  T
   4    -19.2516263 -0.446218E-07  0.380E-04    5.36      62.1  T
   5    -19.2516263 -0.632451E-09  0.194E-04    5.36     121.4  T
     SCC iter.                  ...        0 min,  0.002 sec
     gradient                   ...        0 min,  0.005 sec
 * total energy  :   -18.9359262 Eh     change       -0.7250539E-05 Eh
   gradient norm :     0.0005913 Eh/α   predicted    -0.4948544E-05 ( -31.75%)
   displ. norm   :     0.0180801 α      lambda       -0.1810875E-05
   maximum displ.:     0.0123925 α      in ANC's #1, #3, #4, ...

........................................................................
.............................. CYCLE    6 ..............................
........................................................................

 iter      E             dE          RMSdq      gap      omega  full diag
   1    -19.2517907 -0.192518E+02  0.879E-03    5.37       0.0  T
   2    -19.2517907 -0.362810E-08  0.521E-03    5.37       4.5  T
   3    -19.2517907  0.406040E-08  0.651E-04    5.37      36.2  T
   4    -19.2517907 -0.553240E-08  0.131E-04    5.37     179.9  T
     SCC iter.                  ...        0 min,  0.001 sec
     gradient                   ...        0 min,  0.005 sec
 * total energy  :   -18.9359278 Eh     change       -0.1605575E-05 Eh
   gradient norm :     0.0002921 Eh/α   predicted    -0.9061646E-06 ( -43.56%)
   displ. norm   :     0.0158756 α      lambda       -0.8470105E-06
   maximum displ.:     0.0102107 α      in ANC's #3, #1, #5, ...

........................................................................
.............................. CYCLE    7 ..............................
........................................................................

 iter      E             dE          RMSdq      gap      omega  full diag
   1    -19.2519261 -0.192519E+02  0.756E-03    5.37       0.0  T
   2    -19.2519261 -0.269371E-08  0.448E-03    5.37       5.3  T
   3    -19.2519261  0.192725E-07  0.126E-03    5.37      18.7  T
   4    -19.2519261 -0.220623E-07  0.883E-05    5.37     266.8  T
   5    -19.2519261 -0.803624E-11  0.493E-05    5.37     478.1  T
     SCC iter.                  ...        0 min,  0.002 sec
     gradient                   ...        0 min,  0.005 sec
 * total energy  :   -18.9359286 Eh     change       -0.8105524E-06 Eh
   gradient norm :     0.0002143 Eh/α   predicted    -0.4218040E-06 ( -47.96%)
   displ. norm   :     0.0140168 α      lambda       -0.4984366E-06
   maximum displ.:     0.0090059 α      in ANC's #3, #1, #2, ...

........................................................................
.............................. CYCLE    8 ..............................
........................................................................

 iter      E             dE          RMSdq      gap      omega  full diag
   1    -19.2519034 -0.192519E+02  0.533E-03    5.37       0.0  T
   2    -19.2519034 -0.172912E-08  0.316E-03    5.37       7.5  T
   3    -19.2519034  0.981194E-08  0.898E-04    5.37      26.2  T
   4    -19.2519034 -0.112196E-07  0.671E-05    5.37     351.1  T
     SCC iter.                  ...        0 min,  0.001 sec
     gradient                   ...        0 min,  0.005 sec
 * total energy  :   -18.9359292 Eh     change       -0.5722809E-06 Eh
   gradient norm :     0.0002136 Eh/α   predicted    -0.2506290E-06 ( -56.21%)
   displ. norm   :     0.0183714 α      lambda       -0.4999983E-06
   maximum displ.:     0.0119828 α      in ANC's #3, #2, #1, ...

........................................................................
.............................. CYCLE    9 ..............................
........................................................................

 iter      E             dE          RMSdq      gap      omega  full diag
   1    -19.2518841 -0.192519E+02  0.700E-03    5.37       0.0  T
   2    -19.2518841 -0.133770E-08  0.415E-03    5.37       5.7  T
   3    -19.2518841  0.129045E-08  0.378E-04    5.37      62.3  T
   4    -19.2518841 -0.195363E-08  0.880E-05    5.37     267.9  T
     SCC iter.                  ...        0 min,  0.001 sec
     gradient                   ...        0 min,  0.005 sec
 * total energy  :   -18.9359297 Eh     change       -0.5348448E-06 Eh
   gradient norm :     0.0001344 Eh/α   predicted    -0.2483092E-06 ( -53.57%)
   displ. norm   :     0.0139865 α      lambda       -0.2233866E-06
   maximum displ.:     0.0087487 α      in ANC's #3, #2, #1, ...

........................................................................
.............................. CYCLE   10 ..............................
........................................................................

 iter      E             dE          RMSdq      gap      omega  full diag
   1    -19.2518624 -0.192519E+02  0.516E-03    5.37       0.0  T
   2    -19.2518624 -0.638188E-09  0.306E-03    5.37       7.7  T
   3    -19.2518624 -0.294882E-09  0.824E-05    5.37     286.2  T
   4    -19.2518624 -0.186873E-11  0.406E-05    5.37     579.9  T
     SCC iter.                  ...        0 min,  0.001 sec
     gradient                   ...        0 min,  0.005 sec
 * total energy  :   -18.9359299 Eh     change       -0.2158902E-06 Eh
   gradient norm :     0.0000742 Eh/α   predicted    -0.1128716E-06 ( -47.72%)
   displ. norm   :     0.0061703 α      lambda       -0.6052331E-07
   maximum displ.:     0.0041441 α      in ANC's #2, #3, #1, ...

........................................................................
.............................. CYCLE   11 ..............................
........................................................................

 iter      E             dE          RMSdq      gap      omega  full diag
   1    -19.2518633 -0.192519E+02  0.249E-03    5.37       0.0  T
   2    -19.2518633 -0.177675E-09  0.147E-03    5.37      16.0  T
   3    -19.2518633  0.348159E-09  0.181E-04    5.37     129.9  T
   4    -19.2518633 -0.450569E-09  0.296E-05    5.37     797.1  T
     SCC iter.                  ...        0 min,  0.001 sec
     gradient                   ...        0 min,  0.005 sec
 * total energy  :   -18.9359300 Eh     change       -0.4953235E-07 Eh
   gradient norm :     0.0000354 Eh/α   predicted    -0.2923425E-07 ( -40.98%)
   displ. norm   :     0.0019081 α      lambda       -0.1715150E-07
   maximum displ.:     0.0016948 α      in ANC's #2, #3, #6, ...

   *** GEOMETRY OPTIMIZATION CONVERGED AFTER 11 ITERATIONS ***

------------------------------------------------------------------------
 total energy gain   :        -0.0008738 Eh       -0.5483 kcal/mol
 total RMSD          :         0.0567319 a0        0.0300 Å
 total power (kW/mol):        -0.2085721 (step)  -19.4562 (real)
------------------------------------------------------------------------

 ANCopt (total)                0 d,  0 h,  0 min,  0.118 sec
 optimizer setup                ...        0 min,  0.000 sec (  0.349%)
 model hessian                  ...        0 min,  0.006 sec (  5.059%)
 ANC generation                 ...        0 min,  0.001 sec (  0.463%)
 coordinate transformation      ...        0 min,  0.000 sec (  0.071%)
 single point calculation       ...        0 min,  0.107 sec ( 90.614%)
 optimization log               ...        0 min,  0.002 sec (  1.529%)
 hessian update                 ...        0 min,  0.000 sec (  0.071%)
 rational function              ...        0 min,  0.002 sec (  1.394%)

================
 final structure:
================
$coord
        5.15020683332597        0.99680682069647       -0.25708781810596      C
        2.38341849982626        0.82226171989257        0.52292444143687      C
        1.21344674831589       -1.70463577482437       -0.23269276121226      C
       -1.57280463451223       -1.88495743301085        0.53383879891832      C
       -3.16474505896590       -0.00328677796850       -0.84720310413107      C
       -4.61100804428824        1.71173862395833        0.24273626880492      C
        6.24489724025247       -0.49777432159102        0.63395279756504      H
        5.94577832119255        2.80674786353168        0.30151300827149      H
        5.33660564540764        0.80686092961942       -2.29538791198509      H
        2.23017164736386        1.05603195196330        2.56824373140213      H
        1.31658656102532        2.35327113838418       -0.35982897225543      H
        1.37561846089289       -1.94681456207915       -2.27657910615431      H
        2.26291101202060       -3.23665417663382        0.66816871346095      H
       -2.25782759261004       -3.78347213498057        0.08784288741409      H
       -1.75456450659696       -1.59729520540371        2.56839086173863      H
       -3.06618581018376       -0.11585030656657       -2.88813925886414      H
       -5.73158104834897        3.02566408896845       -0.83354876250990      H
       -4.74004958886919        1.86808574350350        2.26947775668474      H
$end
 
 Bond Distances (Angstroems)
 ---------------------------
C1-C2=1.5240         C1-H7=1.0879         C1-H8=1.0872         C1-H9=1.0878         C2-C1=1.5240         C2-C3=1.5268         
C2-H10=1.0924        C2-H11=1.0924        C3-C2=1.5268         C3-C4=1.5322         C3-H12=1.0925        C3-H13=1.0922        
C4-C3=1.5322         C4-C5=1.4951         C4-H14=1.0938        C4-H15=1.0916        C5-C4=1.4951         C5-C6=1.3199         
C5-H16=1.0829        C6-C5=1.3199         C6-H17=1.0768        C6-H18=1.0779        H7-C1=1.0879         H8-C1=1.0872         
H9-C1=1.0878         H10-C2=1.0924        H11-C2=1.0924        H12-C3=1.0925        H13-C3=1.0922        H14-C4=1.0938        
H15-C4=1.0916        H16-C5=1.0829        H17-C6=1.0768        H18-C6=1.0779        
 C  H  Rav=1.0879 sigma=0.0056  Rmin=1.0768  Rmax=1.0938    12
 C  C  Rav=1.4796 sigma=0.0809  Rmin=1.3199  Rmax=1.5322     5
 
 selected bond angles (degree)
 --------------------
H7-C1-C2=110.50                H8-C1-C2=110.60                H8-C1-H7=108.45                H9-C1-C2=110.49                
H9-C1-H7=108.32                H9-C1-H8=108.42                C3-C2-C1=111.82                H10-C2-C1=109.44               
H10-C2-C3=109.18               H11-C2-C1=109.62               H11-C2-C3=109.15               H11-C2-H10=107.54              
C4-C3-C2=112.05                H12-C3-C2=109.28               H12-C3-C4=109.29               H13-C3-C2=109.24               
H13-C3-C4=109.12               H13-C3-H12=107.76              C5-C4-C3=111.80                H14-C4-C3=108.60               
H14-C4-C5=108.63               H15-C4-C3=109.71               H15-C4-C5=109.85               H15-C4-H14=108.16              
C6-C5-C4=124.83                H16-C5-C4=115.07               H16-C5-C6=120.10               H17-C6-C5=122.15               
H18-C6-C5=121.62               H18-C6-H17=116.22              
 
 selected dihedral angles (degree)
 ---------------------------------
C3-C2-C1-H7=300.20            C3-C2-C1-H8=180.11            C3-C2-C1-H9= 60.06            H10-C2-C1-H7= 61.31           
H10-C2-C1-H8=301.22           H10-C2-C1-H9=181.17           H11-C2-C1-H7=179.02           H11-C2-C1-H8= 58.93           
H11-C2-C1-H9=298.88           C4-C3-C2-C1=180.32            C4-C3-C2-H10= 59.06           C4-C3-C2-H11=301.77           
H12-C3-C2-C1=301.60           H12-C3-C2-H10=180.35          H12-C3-C2-H11= 63.06          H13-C3-C2-C1= 59.28           
H13-C3-C2-H10=298.02          H13-C3-C2-H11=180.73          C5-C4-C3-C2= 64.82            C5-C4-C3-H12=303.54           
C5-C4-C3-H13=185.93           H14-C4-C3-C2=184.66           H14-C4-C3-H12= 63.39          H14-C4-C3-H13=305.78          
H15-C4-C3-C2=302.69           H15-C4-C3-H12=181.42          H15-C4-C3-H13= 63.81          C6-C5-C4-C3=236.67            
C6-C5-C4-H14=116.84           C6-C5-C4-H15=358.71           H16-C5-C4-C3= 56.49           H16-C5-C4-H14=296.66          
H16-C5-C4-H15=178.53          H17-C6-C5-C4=180.22           H17-C6-C5-H16=  0.41          H18-C6-C5-C4=359.97           
H18-C6-C5-H16=180.16          
           -------------------------------------------------
          |                Final Singlepoint                |
           -------------------------------------------------

          ...................................................
          :                      SETUP                      :
          :.................................................:
          :  # basis functions                  36          :
          :  # atomic orbitals                  36          :
          :  # shells                           24          :
          :  # electrons                        36          :
          :  max. iterations                   250          :
          :  Hamiltonian                  GFN2-xTB          :
          :  restarted?                      false          :
          :  GBSA solvation                   true          :
          :  PC potential                    false          :
          :  electronic temp.          300.0000000     K    :
          :  accuracy                    1.0000000          :
          :  -> integral cutoff          0.2500000E+02      :
          :  -> integral neglect         0.1000000E-07      :
          :  -> SCF convergence          0.1000000E-05 Eh   :
          :  -> wf. convergence          0.1000000E-03 e    :
          :  Broyden damping             0.4000000          :
          :  net charge                          0          :
          :  unpaired electrons                  0          :
          ...................................................

 iter      E             dE          RMSdq      gap      omega  full diag
   1    -19.2518633 -0.192519E+02  0.135E-05    5.37       0.0  T
   2    -19.2518633 -0.994760E-13  0.808E-06    5.37    2918.6  T
   3    -19.2518633  0.106581E-12  0.409E-06    5.37    5767.6  T

   *** convergence criteria satisfied after 3 iterations ***

         #    Occupation            Energy/Eh            Energy/eV
      -------------------------------------------------------------
         1        2.0000           -0.6232754             -16.9602
       ...           ...                  ...                  ...
        12        2.0000           -0.4495060             -12.2317
        13        2.0000           -0.4470649             -12.1653
        14        2.0000           -0.4381566             -11.9228
        15        2.0000           -0.4285966             -11.6627
        16        2.0000           -0.4244202             -11.5491
        17        2.0000           -0.4167413             -11.3401
        18        2.0000           -0.3949295             -10.7466 (HOMO)
        19                         -0.1976716              -5.3789 (LUMO)
        20                          0.0842777               2.2933
        21                          0.1091648               2.9705
        22                          0.1205402               3.2801
        23                          0.1371113               3.7310
       ...                                ...                  ...
        36                          0.6280405              17.0899
      -------------------------------------------------------------
                  HL-Gap            0.1972579 Eh            5.3677 eV
             Fermi-level           -0.2963006 Eh           -8.0627 eV

 SCC (total)                   0 d,  0 h,  0 min,  0.009 sec
 SCC setup                      ...        0 min,  0.001 sec ( 15.387%)
 Dispersion                     ...        0 min,  0.000 sec (  0.684%)
 classical contributions        ...        0 min,  0.000 sec (  0.228%)
 integral evaluation            ...        0 min,  0.002 sec ( 18.802%)
 iterations                     ...        0 min,  0.001 sec ( 12.289%)
 molecular gradient             ...        0 min,  0.005 sec ( 51.326%)
 printout                       ...        0 min,  0.000 sec (  1.055%)

         :::::::::::::::::::::::::::::::::::::::::::::::::::::
         ::                     SUMMARY                     ::
         :::::::::::::::::::::::::::::::::::::::::::::::::::::
         :: total energy             -18.935929968764 Eh    ::
         :: total w/o Gsasa/hb       -18.935452652063 Eh    ::
         :: gradient norm              0.000035436117 Eh/a0 ::
         :: HOMO-LUMO gap              5.367660606615 eV    ::
         ::.................................................::
         :: SCC energy               -19.251835581625 Eh    ::
         :: -> isotropic ES            0.004222852978 Eh    ::
         :: -> anisotropic ES          0.005506327007 Eh    ::
         :: -> anisotropic XC          0.014064487563 Eh    ::
         :: -> dispersion             -0.010045438042 Eh    ::
         :: -> Gsolv                  -0.000726918676 Eh    ::
         ::    -> Gelec               -0.000249601974 Eh    ::
         ::    -> Gsasa               -0.001050440168 Eh    ::
         ::    -> Ghb                 -0.000507636231 Eh    ::
         ::    -> Gshift               0.001080759698 Eh    ::
         :: repulsion energy           0.315905612860 Eh    ::
         :: add. restraining           0.000000000000 Eh    ::
         :: total charge               0.000000000000 e     ::
         :::::::::::::::::::::::::::::::::::::::::::::::::::::

           ------------------------------------------------- 
          |                Numerical Hessian                |
           ------------------------------------------------- 
step length          :   0.00500
SCC accuracy         :   0.30000
Hessian scale factor :   1.00000
frozen atoms in %    :   0.00000    0
RMS gradient         :   0.00004
estimated CPU  time      0.02 min
estimated wall time      0.02 min

writing file <hessian>.

 projected vibrational frequencies (cm⁻¹)
eigval :       -0.00    -0.00    -0.00    -0.00     0.00     0.00
eigval :       64.67    78.21   116.02   230.58   246.83   305.84
eigval :      400.63   461.49   639.78   782.52   866.87   875.26
eigval :      897.15   930.28   963.12  1019.73  1026.66  1073.26
eigval :     1097.26  1125.30  1177.00  1205.25  1234.64  1277.34
eigval :     1287.59  1302.29  1326.73  1367.75  1411.75  1413.69
eigval :     1469.32  1489.16  1497.93  1500.71  1503.18  1718.57
eigval :     2944.35  2955.76  2965.16  2976.10  2979.50  2983.13
eigval :     3023.74  3027.57  3037.84  3042.96  3094.42  3114.26
           -------------------------------------------------
          |                Property Printout                |
           -------------------------------------------------

    * Orbital Energies and Occupations

         #    Occupation            Energy/Eh            Energy/eV
      -------------------------------------------------------------
         1        2.0000           -0.6232754             -16.9602
       ...           ...                  ...                  ...
         6        2.0000           -0.5417729             -14.7424
         7        2.0000           -0.5090368             -13.8516
         8        2.0000           -0.5048457             -13.7376
         9        2.0000           -0.4934318             -13.4270
        10        2.0000           -0.4809719             -13.0879
        11        2.0000           -0.4776027             -12.9962
        12        2.0000           -0.4495060             -12.2317
        13        2.0000           -0.4470649             -12.1653
        14        2.0000           -0.4381566             -11.9228
        15        2.0000           -0.4285966             -11.6627
        16        2.0000           -0.4244202             -11.5491
        17        2.0000           -0.4167413             -11.3401
        18        2.0000           -0.3949295             -10.7466 (HOMO)
        19                         -0.1976716              -5.3789 (LUMO)
        20                          0.0842777               2.2933
        21                          0.1091649               2.9705
        22                          0.1205402               3.2801
        23                          0.1371113               3.7310
        24                          0.1552655               4.2250
        25                          0.1596618               4.3446
        26                          0.1693486               4.6082
        27                          0.1904679               5.1829
        28                          0.1982635               5.3950
        29                          0.2047020               5.5702
       ...                                ...                  ...
        36                          0.6280405              17.0899
      -------------------------------------------------------------
                  HL-Gap            0.1972579 Eh            5.3677 eV
             Fermi-level           -0.2963006 Eh           -8.0627 eV

     #   Z          covCN         q      C6AA      α(0)
     1   6 C        3.752    -0.111    22.685     6.792
     2   6 C        3.801    -0.057    21.593     6.616
     3   6 C        3.804    -0.060    21.650     6.624
     4   6 C        3.806    -0.065    21.745     6.638
     5   6 C        2.887    -0.031    28.759     8.792
     6   6 C        2.837    -0.105    30.650     9.073
     7   1 H        0.925     0.037     2.491     2.468
     8   1 H        0.925     0.037     2.487     2.466
     9   1 H        0.925     0.036     2.502     2.474
    10   1 H        0.924     0.031     2.574     2.509
    11   1 H        0.924     0.030     2.592     2.518
    12   1 H        0.924     0.034     2.526     2.485
    13   1 H        0.924     0.034     2.529     2.487
    14   1 H        0.924     0.046     2.368     2.406
    15   1 H        0.924     0.040     2.454     2.450
    16   1 H        0.925     0.033     2.540     2.492
    17   1 H        0.926     0.034     2.527     2.486
    18   1 H        0.926     0.036     2.498     2.472

 Mol. C6AA /au·bohr⁶  :       2357.158744
 Mol. C8AA /au·bohr⁸  :      50638.429181
 Mol. α(0) /au        :         74.247890


Wiberg/Mayer (AO) data.
largest (>0.10) Wiberg bond orders for each atom

 ---------------------------------------------------------------------------
     #   Z sym  total        # sym  WBO       # sym  WBO       # sym  WBO
 ---------------------------------------------------------------------------
     1   6 C    3.997 --     2 C    1.019     9 H    0.988     7 H    0.988
                             8 H    0.987
     2   6 C    3.998 --     1 C    1.019     3 C    1.009    10 H    0.978
                            11 H    0.977
     3   6 C    3.997 --     2 C    1.009     4 C    0.992    12 H    0.977
                            13 H    0.977
     4   6 C    3.998 --     5 C    1.028     3 C    0.992    15 H    0.975
                            14 H    0.959
     5   6 C    3.991 --     6 C    1.976     4 C    1.028    16 H    0.966
     6   6 C    3.991 --     5 C    1.976    17 H    0.977    18 H    0.975
     7   1 H    0.999 --     1 C    0.988
     8   1 H    0.998 --     1 C    0.987
     9   1 H    0.999 --     1 C    0.988
    10   1 H    0.999 --     2 C    0.978
    11   1 H    0.999 --     2 C    0.977
    12   1 H    0.999 --     3 C    0.977
    13   1 H    0.998 --     3 C    0.977
    14   1 H    0.998 --     4 C    0.959
    15   1 H    0.998 --     4 C    0.975
    16   1 H    0.999 --     5 C    0.966
    17   1 H    0.998 --     6 C    0.977
    18   1 H    0.999 --     6 C    0.975
 ---------------------------------------------------------------------------

Topologies differ in total number of bonds
Writing topology from bond orders to xtbtopo.mol

molecular dipole:
                 x           y           z       tot (Debye)
 q only:        0.136      -0.143       0.007
   full:        0.129      -0.143      -0.004       0.490
molecular quadrupole (traceless):
                xx          xy          yy          xz          yz          zz
 q only:       -0.548       0.250       0.323      -0.087      -0.010       0.225
  q+dip:       -2.365      -1.154       0.291       0.128       0.124       2.075
   full:       -1.475      -0.266       0.307       0.089       0.008       1.168

           -------------------------------------------------
          |                Geometry Summary                 |
           -------------------------------------------------

      molecular mass/u    :       84.1597044
   center of mass at/Å    :       -0.0000318      -0.0000055      -0.0000162
  moments of inertia/u·Å² :        0.6978540E+02   0.2961339E+03   0.3341666E+03
rotational constants/cm⁻¹ :        0.2415639E+00   0.5692571E-01   0.5044679E-01

 * 16 selected distances

     #   Z          #   Z                                           value/Å
     1   6 C        2   6 C                                       1.5239940
     2   6 C        3   6 C                                       1.5268394
     3   6 C        4   6 C                                       1.5321746 (max)
     5   6 C        6   6 C                                       1.3198657
     1   6 C        7   1 H                                       1.0878517
     1   6 C        8   1 H                                       1.0871799
     1   6 C        9   1 H                                       1.0877768
     2   6 C       10   1 H                                       1.0923972
     2   6 C       11   1 H                                       1.0923857
     3   6 C       12   1 H                                       1.0925200
     3   6 C       13   1 H                                       1.0922105
     4   6 C       14   1 H                                       1.0938142
     4   6 C       15   1 H                                       1.0915926
     5   6 C       16   1 H                                       1.0829151
     6   6 C       17   1 H                                       1.0767780 (min)
     6   6 C       18   1 H                                       1.0778572

 * 2 distinct bonds (by element types)

   Z      Z             #   av. dist./Å        max./Å        min./Å
   1 H    6 C          12     1.0879399     1.0938142     1.0767780
   6 C    6 C           4     1.4757184     1.5321746     1.3198657

           -------------------------------------------------
          |               Frequency Printout                |
           -------------------------------------------------
 projected vibrational frequencies (cm⁻¹)
eigval :       -0.00    -0.00    -0.00    -0.00     0.00     0.00
eigval :       64.67    78.21   116.02   230.58   246.83   305.84
eigval :      400.63   461.49   639.78   782.52   866.87   875.26
eigval :      897.15   930.28   963.12  1019.73  1026.66  1073.26
eigval :     1097.26  1125.30  1177.00  1205.25  1234.64  1277.34
eigval :     1287.59  1302.29  1326.73  1367.75  1411.75  1413.69
eigval :     1469.32  1489.16  1497.93  1500.71  1503.18  1718.57
eigval :     2944.35  2955.76  2965.16  2976.10  2979.50  2983.13
eigval :     3023.74  3027.57  3037.84  3042.96  3094.42  3114.26
 reduced masses (amu)
   1: 10.38   2:  9.98   3:  9.59   4:  9.81   5: 10.01   6:  8.48   7:  8.38   8:  6.45
   9:  6.90  10:  2.52  11:  7.38  12:  7.40  13:  7.39  14:  7.61  15:  5.25  16:  2.30
  17:  5.56  18:  5.55  19:  4.02  20:  3.64  21:  5.22  22:  2.64  23:  2.40  24:  8.28
  25:  7.53  26:  7.34  27:  7.20  28:  4.35  29:  4.14  30:  2.77  31:  2.23  32:  3.74
  33:  4.09  34:  5.15  35:  3.21  36:  2.41  37:  2.06  38:  1.99  39:  1.78  40:  1.53
  41:  1.68  42: 11.21  43:  1.80  44:  1.92  45:  2.00  46:  1.47  47:  1.52  48:  1.65
  49:  1.95  50:  1.89  51:  1.30  52:  1.81  53:  1.55  54:  2.07
 IR intensities (km·mol⁻¹)
   1:  0.00   2:  0.02   3:  0.03   4:  0.02   5:  0.00   6:  0.05   7:  0.02   8:  0.01
   9:  0.10  10:  0.01  11:  0.20  12:  0.71  13:  0.51  14:  0.61  15:  2.16  16: 10.09
  17:  2.45  18:  1.53  19: 15.07  20:  0.48  21: 11.49  22:  3.58  23: 12.08  24:  3.63
  25:  0.35  26:  0.77  27:  0.85  28:  2.42  29:  0.53  30:  2.46  31:  2.92  32:  5.13
  33:  0.16  34:  0.06  35:  0.23  36: 10.41  37:  0.54  38:  1.33  39:  1.22  40:  1.07
  41:  0.39  42: 18.29  43: 65.07  44:  1.74  45:138.36  46: 32.99  47:106.41  48:115.63
  49: 92.25  50: 88.46  51: 45.47  52: 97.27  53: 49.98  54:107.94
 Raman intensities (Ä⁴*amu⁻¹)
   1:  0.00   2:  0.00   3:  0.00   4:  0.00   5:  0.00   6:  0.00   7:  0.00   8:  0.00
   9:  0.00  10:  0.00  11:  0.00  12:  0.00  13:  0.00  14:  0.00  15:  0.00  16:  0.00
  17:  0.00  18:  0.00  19:  0.00  20:  0.00  21:  0.00  22:  0.00  23:  0.00  24:  0.00
  25:  0.00  26:  0.00  27:  0.00  28:  0.00  29:  0.00  30:  0.00  31:  0.00  32:  0.00
  33:  0.00  34:  0.00  35:  0.00  36:  0.00  37:  0.00  38:  0.00  39:  0.00  40:  0.00
  41:  0.00  42:  0.00  43:  0.00  44:  0.00  45:  0.00  46:  0.00  47:  0.00  48:  0.00
  49:  0.00  50:  0.00  51:  0.00  52:  0.00  53:  0.00  54:  0.00
 output can be read by thermo (or use thermo option).
 writing <g98.out> molden fake output.
 recommended (thermochemical) frequency scaling factor: 1.0
           -------------------------------------------------
          |             Thermodynamic Functions             |
           -------------------------------------------------

Molecule has no symmetry elements
It seems to be the C1 point group
c1  symmetry found (for desy threshold:  0.10E+00) used in thermo

          ...................................................
          :                      SETUP                      :
          :.................................................:
          :  # frequencies                          48      :
          :  # imaginary freq.                       0      :
          :  linear?                             false      :
          :  only rotor calc.                    false      :
          :  symmetry                               c1      :
          :  rotational number                       1      :
          :  scaling factor                  1.0000000      :
          :  rotor cutoff                    0.0000000 cm⁻¹ :
          :  imag. cutoff                 -100.0000000 cm⁻¹ :
          :.................................................:

    mode    ω/cm⁻¹     T·S(HO)/kcal·mol⁻¹    T·S(FR)/kcal·mol⁻¹   T·S(vib)
   ------------------------------------------------------------------------
       1     64.67    -1.28483 (100.00%)    -0.98000 (  0.00%)    -1.28483
       2     78.21    -1.17332 (100.00%)    -0.92375 (  0.00%)    -1.17332
       3    116.02    -0.94382 (100.00%)    -0.80700 (  0.00%)    -0.94382
       4    230.58    -0.55886 (100.00%)    -0.60363 (  0.00%)    -0.55886
       5    246.83    -0.52268 (100.00%)    -0.58346 (  0.00%)    -0.52268
   ------------------------------------------------------------------------

   temp. (K)  partition function   enthalpy   heat capacity  entropy
                                   cal/mol     cal/K/mol   cal/K/mol   J/K/mol
 298.15  VIB   121.                 3164.744     21.488     20.152
         ROT  0.201E+06              888.752      2.981     27.245
         INT  0.244E+08             4053.496     24.469     47.397
         TR   0.747E+27             1481.254      4.968     39.186
         TOT                        5534.7502    29.4375    86.5827   362.2621

       T/K    H(0)-H(T)+PV         H(T)/Eh          T*S/Eh         G(T)/Eh
   ------------------------------------------------------------------------
    298.15    0.882019E-02    0.171776E+00    0.411382E-01    0.130637E+00
   ------------------------------------------------------------------------

         :::::::::::::::::::::::::::::::::::::::::::::::::::::
         ::                  THERMODYNAMIC                  ::
         :::::::::::::::::::::::::::::::::::::::::::::::::::::
         :: total free energy         -18.805292596838 Eh   ::
         ::.................................................::
         :: total energy              -18.935929968742 Eh   ::
         :: zero point energy           0.162955425005 Eh   ::
         :: G(RRHO) w/o ZPVE           -0.032318053101 Eh   ::
         :: G(RRHO) contrib.            0.130637371904 Eh   ::
         :::::::::::::::::::::::::::::::::::::::::::::::::::::

optimized geometry written to: xtbopt.coord


           -------------------------------------------------
          | TOTAL ENERGY              -18.935929968742 Eh   |
          | TOTAL ENTHALPY            -18.764154357908 Eh   |
          | TOTAL FREE ENERGY         -18.805292596838 Eh   |
          | GRADIENT NORM               0.000035423122 Eh/α |
          | HOMO-LUMO GAP               5.367660844559 eV   |
           -------------------------------------------------

------------------------------------------------------------------------
 * finished run on 2025/04/11 at 14:48:46.857     
------------------------------------------------------------------------
 total:
 * wall-time:     0 d,  0 h,  0 min,  1.160 sec
 *  cpu-time:     0 d,  0 h,  0 min,  1.083 sec
 * ratio c/w:     0.934 speedup
 SCF:
 * wall-time:     0 d,  0 h,  0 min,  0.048 sec
 *  cpu-time:     0 d,  0 h,  0 min,  0.022 sec
 * ratio c/w:     0.462 speedup
 ANC optimizer:
 * wall-time:     0 d,  0 h,  0 min,  0.132 sec
 *  cpu-time:     0 d,  0 h,  0 min,  0.128 sec
 * ratio c/w:     0.972 speedup
 analytical hessian:
 * wall-time:     0 d,  0 h,  0 min,  0.922 sec
 *  cpu-time:     0 d,  0 h,  0 min,  0.918 sec
 * ratio c/w:     0.996 speedup

