! pbe def2-sv(p) def2/J RI DEFGRID1 loosescf d4 GCP(DFT/SV(P)) printgap
%output
    printlevel normal
end
* xyz 0 1
C -4.5691782477 -1.1088329877 0.1919384746
C -3.8301519104 -2.2666550144 -0.007963965
C -2.4570471652 -2.1953393818 -0.1526090154
C -1.7982477574 -0.968585904 -0.101046322
C -2.5450244415 0.1977068979 0.1003708058
C -3.928707731 0.114677638 0.2457373351
C -1.8877206592 1.5089890945 0.1619277072
O -2.5291884706 2.5412526389 0.3476854744
C -0.4243046533 1.5285587328 -0.0096609822
C 0.1957131994 2.7645005443 0.0490645272
C 1.5764498308 2.8676231907 -0.0991361541
C 2.3325048389 1.7456866225 -0.3077297745
C 1.7427638605 0.4599752324 -0.3840825735
C 0.3263913597 0.3480069263 -0.2228361669
C -0.3315933875 -0.9401484615 -0.2632124409
O 0.2759677038 -2.0145158197 -0.4203618676
N 2.4886858811 -0.6289942346 -0.6144275116
C 3.9232591436 -0.6734388851 -0.7463349917
C 4.6430540749 -0.6483619133 0.6158567158
O 4.5510327634 -1.8740074075 1.3053458461
H -5.6404604551 -1.1616867323 0.3054351024
H -4.3253285499 -3.22401318 -0.0507761559
H -1.8649702055 -3.0848823522 -0.3090267031
H -4.4780379622 1.0315674732 0.400551926
H -0.4166129949 3.6374736559 0.2146156904
H 2.04852434 3.8359949316 -0.0465108408
H 3.3997258509 1.8404600373 -0.4149572028
H 1.9747403234 -1.5072783175 -0.6326776202
H 4.277448794 0.161235536 -1.3539717122
H 4.1816098374 -1.6042839686 -1.2526019756
H 4.2461592737 0.1676884247 1.2327510522
H 5.7107447835 -0.4865095455 0.456824975
H 3.6233715298 -2.0631242013 1.500902958
*
