      -----------------------------------------------------------      
     |                   =====================                   |     
     |                           x T B                           |     
     |                   =====================                   |     
     |                         S. Grimme                         |     
     |          Mulliken Center for Theoretical Chemistry        |     
     |                    University of Bonn                     |     
      -----------------------------------------------------------      

   * xtb version 6.7.1 (edcfbbe) compiled by 'albert@albert-system' on 2024-07-22

   xtb is free software: you can redistribute it and/or modify it under
   the terms of the GNU Lesser General Public License as published by
   the Free Software Foundation, either version 3 of the License, or
   (at your option) any later version.
   
   xtb is distributed in the hope that it will be useful,
   but WITHOUT ANY WARRANTY; without even the implied warranty of
   MERCHANTABILITY or FITNESS FOR A PARTICULAR PURPOSE.  See the
   GNU Lesser General Public License for more details.
   
   Cite this work as:
   * C. Bannwarth, E. Caldeweyher, S. Ehlert, A. Hansen, P. Pracht,
     J. Seibert, S. Spicher, S. Grimme, WIREs Comput. Mol. Sci., 2020, 11,
     e01493. DOI: 10.1002/wcms.1493
   
   for GFN2-xTB:
   * C. Bannwarth, S. Ehlert and S. Grimme., J. Chem. Theory Comput., 2019,
     15, 1652-1671. DOI: 10.1021/acs.jctc.8b01176
   for GFN1-xTB:
   * S. Grimme, C. Bannwarth, P. Shushkov, J. Chem. Theory Comput., 2017,
     13, 1989-2009. DOI: 10.1021/acs.jctc.7b00118
   for GFN0-xTB:
   * P. Pracht, E. Caldeweyher, S. Ehlert, S. Grimme, ChemRxiv, 2019, preprint.
     DOI: 10.26434/chemrxiv.8326202.v1
   for GFN-FF:
   * S. Spicher and S. Grimme, Angew. Chem. Int. Ed., 2020, 59, 15665-15673.
     DOI: 10.1002/anie.202004239
   
   for ALPB and GBSA implicit solvation:
   * S. Ehlert, M. Stahn, S. Spicher, S. Grimme, J. Chem. Theory Comput.,
     2021, 17, 4250-4261. DOI: 10.1021/acs.jctc.1c00471
   
   for ddCOSMO and CPCM-X implicit solvation:
   * M. Stahn, S. Ehlert, S. Grimme, J. Phys. Chem. A,
     2023, XX, XXXX-XXXX. DOI: 10.1021/acs.jpca.3c04382
   
   for DFT-D4:
   * E. Caldeweyher, C. Bannwarth and S. Grimme, J. Chem. Phys., 2017,
     147, 034112. DOI: 10.1063/1.4993215
   * E. Caldeweyher, S. Ehlert, A. Hansen, H. Neugebauer, S. Spicher,
     C. Bannwarth and S. Grimme, J. Chem. Phys., 2019, 150, 154122.
     DOI: 10.1063/1.5090222
   * E. Caldeweyher, J.-M. Mewes, S. Ehlert and S. Grimme, Phys. Chem. Chem. Phys.
     2020, 22, 8499-8512. DOI: 10.1039/D0CP00502A
   
   for sTDA-xTB:
   * S. Grimme and C. Bannwarth, J. Chem. Phys., 2016, 145, 054103.
     DOI: 10.1063/1.4959605
   
   in the mass-spec context:
   * V. Asgeirsson, C. Bauer and S. Grimme, Chem. Sci., 2017, 8, 4879.
     DOI: 10.1039/c7sc00601b
   * J. Koopman and S. Grimme, ACS Omega 2019, 4, 12, 15120-15133.
     DOI: 10.1021/acsomega.9b02011
   
   for metadynamics refer to:
   * S. Grimme, J. Chem. Theory Comput., 2019, 155, 2847-2862
     DOI: 10.1021/acs.jctc.9b00143
   
   for SPH calculations refer to:
   * S. Spicher and S. Grimme, J. Chem. Theory Comput., 2021, 17, 1701-1714
     DOI: 10.1021/acs.jctc.0c01306
   
   for ONIOM refer to:
   * C. Plett, A. Katbashev, S. Ehlert, S. Grimme, M. Bursch,
     Phys. Chem. Chem. Phys., 2023, 25, 17860-17868. DOI: 10.1039/D3CP02178E
   
   for DIPRO refer to:
   * J. Kohn, N. Gildemeister, S. Grimme, D. Fazzi, A. Hansen,
     J. Chem. Phys., 2023, just accepted.
   
   for PTB refer to:
   * S. Grimme, M. Mueller, A. Hansen, J. Chem. Phys., 2023, 158, 124111.
     DOI: 10.1063/5.0137838
   
   with help from (in alphabetical order)
   P. Atkinson, C. Bannwarth, F. Bohle, G. Brandenburg, E. Caldeweyher
   M. Checinski, S. Dohm, S. Ehlert, S. Ehrlich, I. Gerasimov, C. Hölzer
   A. Katbashev, J. Kohn, J. Koopman, C. Lavigne, S. Lehtola, F. März, M. Müller,
   F. Musil, H. Neugebauer, J. Pisarek, C. Plett, P. Pracht, F. Pultar,
   J. Seibert, P. Shushkov, S. Spicher, M. Stahn, M. Steiner, T. Strunk,
   J. Stückrath, T. Rose, and J. Unsleber
   
 * started run on 2025/04/11 at 16:15:24.366     
   ID    Z sym.   atoms
    1    6 C      1-4, 7, 10, 12
    2    7 N      5, 9
    3    8 O      6, 8
    4   16 S      11
    5    1 H      13-26

           -------------------------------------------------
          |                Calculation Setup                |
           -------------------------------------------------

          program call               : /srv/scratch/z5358697/.xtb/bin/xtb gas.coord --gfn2 --sp --chrg 0 --norestart --parallel 1
          hostname                   : k073
          coordinate file            : gas.coord
          omp threads                :                     1


           -------------------------------------------------
          |                 G F N 2 - x T B                 |
           -------------------------------------------------

        Reference                      10.1021/acs.jctc.8b01176
      * Hamiltonian:
        H0-scaling (s, p, d)           1.850000    2.230000    2.230000
        zeta-weighting                 0.500000
      * Dispersion:
        s8                             2.700000
        a1                             0.520000
        a2                             5.000000
        s9                             5.000000
      * Repulsion:
        kExp                           1.500000    1.000000
        rExp                           1.000000
      * Coulomb:
        alpha                          2.000000
        third order                    shell-resolved
        anisotropic                    true
        a3                             3.000000
        a5                             4.000000
        cn-shift                       1.200000
        cn-exp                         4.000000
        max-rad                        5.000000


          ...................................................
          :                      SETUP                      :
          :.................................................:
          :  # basis functions                  68          :
          :  # atomic orbitals                  67          :
          :  # shells                           39          :
          :  # electrons                        70          :
          :  max. iterations                   250          :
          :  Hamiltonian                  GFN2-xTB          :
          :  restarted?                      false          :
          :  GBSA solvation                  false          :
          :  PC potential                    false          :
          :  electronic temp.          300.0000000     K    :
          :  accuracy                    1.0000000          :
          :  -> integral cutoff          0.2500000E+02      :
          :  -> integral neglect         0.1000000E-07      :
          :  -> SCF convergence          0.1000000E-05 Eh   :
          :  -> wf. convergence          0.1000000E-03 e    :
          :  Broyden damping             0.4000000          :
          :  net charge                          0          :
          :  unpaired electrons                  0          :
          ...................................................

 iter      E             dE          RMSdq      gap      omega  full diag
   1    -39.6312895 -0.396313E+02  0.459E+00    3.78       0.0  T
   2    -39.7381687 -0.106879E+00  0.257E+00    2.82       1.0  T
   3    -39.7408931 -0.272445E-02  0.116E+00    2.36       1.0  T
   4    -39.7435610 -0.266788E-02  0.574E-01    2.37       1.0  T
   5    -39.7472544 -0.369342E-02  0.189E-01    2.29       1.0  T
   6    -39.7472736 -0.192258E-04  0.692E-02    2.33       1.0  T
   7    -39.7473006 -0.270216E-04  0.286E-02    2.33       1.0  T
   8    -39.7473041 -0.341554E-05  0.142E-02    2.33       1.4  T
   9    -39.7473044 -0.323770E-06  0.404E-03    2.33       4.9  T
  10    -39.7473045 -0.682967E-07  0.195E-03    2.33      10.1  T
  11    -39.7473045 -0.799280E-08  0.819E-04    2.33      23.9  T
  12    -39.7473045 -0.148359E-08  0.284E-04    2.33      69.1  T

   *** convergence criteria satisfied after 12 iterations ***

         #    Occupation            Energy/Eh            Energy/eV
      -------------------------------------------------------------
         1        2.0000           -0.7440912             -20.2478
       ...           ...                  ...                  ...
        29        2.0000           -0.4576901             -12.4544
        30        2.0000           -0.4432810             -12.0623
        31        2.0000           -0.4275407             -11.6340
        32        2.0000           -0.4192232             -11.4076
        33        2.0000           -0.4069676             -11.0742
        34        2.0000           -0.4058482             -11.0437
        35        2.0000           -0.3561858              -9.6923 (HOMO)
        36                         -0.2706692              -7.3653 (LUMO)
        37                         -0.1942541              -5.2859
        38                         -0.1836822              -4.9982
        39                         -0.1471072              -4.0030
        40                         -0.0857148              -2.3324
       ...                                ...                  ...
        67                          0.6409835              17.4420
      -------------------------------------------------------------
                  HL-Gap            0.0855166 Eh            2.3270 eV
             Fermi-level           -0.3134275 Eh           -8.5288 eV

 SCC (total)                   0 d,  0 h,  0 min,  0.043 sec
 SCC setup                      ...        0 min,  0.000 sec (  0.514%)
 Dispersion                     ...        0 min,  0.000 sec (  0.416%)
 classical contributions        ...        0 min,  0.000 sec (  0.078%)
 integral evaluation            ...        0 min,  0.019 sec ( 44.891%)
 iterations                     ...        0 min,  0.014 sec ( 31.322%)
 molecular gradient             ...        0 min,  0.010 sec ( 22.299%)
 printout                       ...        0 min,  0.000 sec (  0.435%)

         :::::::::::::::::::::::::::::::::::::::::::::::::::::
         ::                     SUMMARY                     ::
         :::::::::::::::::::::::::::::::::::::::::::::::::::::
         :: total energy             -39.315488923106 Eh    ::
         :: gradient norm              0.044209057502 Eh/a0 ::
         :: HOMO-LUMO gap              2.327024478554 eV    ::
         ::.................................................::
         :: SCC energy               -39.747196911816 Eh    ::
         :: -> isotropic ES            0.062014695058 Eh    ::
         :: -> anisotropic ES         -0.000696058803 Eh    ::
         :: -> anisotropic XC          0.023498833300 Eh    ::
         :: -> dispersion             -0.021730165139 Eh    ::
         :: repulsion energy           0.431707988710 Eh    ::
         :: add. restraining           0.000000000000 Eh    ::
         :: total charge               0.000000000000 e     ::
         :::::::::::::::::::::::::::::::::::::::::::::::::::::

           -------------------------------------------------
          |                Property Printout                |
           -------------------------------------------------

    * Orbital Energies and Occupations

         #    Occupation            Energy/Eh            Energy/eV
      -------------------------------------------------------------
         1        2.0000           -0.7440912             -20.2478
       ...           ...                  ...                  ...
        23        2.0000           -0.4960115             -13.4972
        24        2.0000           -0.4924364             -13.3999
        25        2.0000           -0.4841545             -13.1745
        26        2.0000           -0.4780777             -13.0092
        27        2.0000           -0.4733866             -12.8815
        28        2.0000           -0.4633170             -12.6075
        29        2.0000           -0.4576901             -12.4544
        30        2.0000           -0.4432810             -12.0623
        31        2.0000           -0.4275407             -11.6340
        32        2.0000           -0.4192232             -11.4076
        33        2.0000           -0.4069676             -11.0742
        34        2.0000           -0.4058482             -11.0437
        35        2.0000           -0.3561858              -9.6923 (HOMO)
        36                         -0.2706692              -7.3653 (LUMO)
        37                         -0.1942541              -5.2859
        38                         -0.1836822              -4.9982
        39                         -0.1471072              -4.0030
        40                         -0.0857148              -2.3324
        41                         -0.0088558              -0.2410
        42                         -0.0000921              -0.0025
        43                          0.0013883               0.0378
        44                          0.0201286               0.5477
        45                          0.0707651               1.9256
        46                          0.0978934               2.6638
       ...                                ...                  ...
        67                          0.6409835              17.4420
      -------------------------------------------------------------
                  HL-Gap            0.0855166 Eh            2.3270 eV
             Fermi-level           -0.3134275 Eh           -8.5288 eV

     #   Z          covCN         q      C6AA      α(0)
     1   6 C        3.812    -0.105    22.492     6.751
     2   6 C        3.891     0.066    19.422     6.265
     3   6 C        3.784    -0.111    22.637     6.777
     4   6 C        2.878     0.063    26.591     8.454
     5   7 N        1.836    -0.121    24.408     7.321
     6   8 O        1.771    -0.213    17.522     5.652
     7   6 C        2.642     0.398    20.285     7.368
     8   8 O        0.858    -0.441    22.519     6.362
     9   7 N        2.681    -0.181    24.920     7.414
    10   6 C        3.692    -0.046    21.592     6.649
    11  16 S        2.066    -0.179   148.661    20.521
    12   6 C        3.744    -0.053    21.602     6.630
    13   1 H        0.925     0.042     2.428     2.437
    14   1 H        0.925     0.075     2.037     2.232
    15   1 H        0.925     0.055     2.264     2.353
    16   1 H        0.925     0.039     2.464     2.455
    17   1 H        0.925     0.056     2.252     2.347
    18   1 H        0.925     0.043     2.403     2.424
    19   1 H        0.925     0.058     2.217     2.328
    20   1 H        0.860     0.197     1.124     1.661
    21   1 H        0.925     0.089     1.887     2.148
    22   1 H        0.925     0.057     2.235     2.338
    23   1 H        0.925     0.057     2.240     2.341
    24   1 H        0.925     0.050     2.319     2.381
    25   1 H        0.925     0.044     2.392     2.419
    26   1 H        0.925     0.064     2.158     2.297

 Mol. C6AA /au·bohr⁶  :       7096.028900
 Mol. C8AA /au·bohr⁸  :     175619.210202
 Mol. α(0) /au        :        128.325449


Wiberg/Mayer (AO) data.
largest (>0.10) Wiberg bond orders for each atom

 ---------------------------------------------------------------------------
     #   Z sym  total        # sym  WBO       # sym  WBO       # sym  WBO
 ---------------------------------------------------------------------------
     1   6 C    3.989 --     2 C    0.984    15 H    0.981    13 H    0.981
                            14 H    0.978
     2   6 C    3.977 --     4 C    1.014     3 C    1.006     1 C    0.984
                            11 S    0.910
     3   6 C    3.994 --     2 C    1.006    17 H    0.984    16 H    0.983
                            18 H    0.979
     4   6 C    3.969 --     5 N    1.843     2 C    1.014    19 H    0.947
     5   7 N    3.011 --     4 C    1.843     6 O    0.994
     6   8 O    2.293 --     7 C    1.003     5 N    0.994     8 O    0.105
     7   6 C    3.940 --     8 O    1.632     9 N    1.260     6 O    1.003
     8   8 O    1.988 --     7 C    1.632     9 N    0.182     6 O    0.105
     9   7 N    3.436 --     7 C    1.260    10 C    1.002    20 H    0.921
                             8 O    0.182
    10   6 C    3.959 --     9 N    1.002    22 H    0.978    23 H    0.978
                            21 H    0.976
    11  16 S    2.098 --    12 C    1.014     2 C    0.910
    12   6 C    3.983 --    11 S    1.014    25 H    0.985    24 H    0.983
                            26 H    0.978
    13   1 H    0.998 --     1 C    0.981
    14   1 H    0.994 --     1 C    0.978
    15   1 H    0.997 --     1 C    0.981
    16   1 H    0.998 --     3 C    0.983
    17   1 H    0.997 --     3 C    0.984
    18   1 H    0.998 --     3 C    0.979
    19   1 H    0.995 --     4 C    0.947
    20   1 H    0.961 --     9 N    0.921
    21   1 H    0.992 --    10 C    0.976
    22   1 H    0.997 --    10 C    0.978
    23   1 H    0.997 --    10 C    0.978
    24   1 H    0.997 --    12 C    0.983
    25   1 H    0.998 --    12 C    0.985
    26   1 H    0.996 --    12 C    0.978
 ---------------------------------------------------------------------------

Topologies differ in total number of bonds
Writing topology from bond orders to xtbtopo.mol

molecular dipole:
                 x           y           z       tot (Debye)
 q only:        0.429      -1.148       1.669
   full:        0.780      -1.472       2.110       6.833
molecular quadrupole (traceless):
                xx          xy          yy          xz          yz          zz
 q only:        7.786       2.767      -4.519      -9.138       3.565      -3.268
  q+dip:        6.452       2.996      -3.196      -9.130       5.257      -3.256
   full:        5.359       2.971      -2.438      -8.402       6.207      -2.921


           -------------------------------------------------
          | TOTAL ENERGY              -39.315488923106 Eh   |
          | GRADIENT NORM               0.044209057502 Eh/α |
          | HOMO-LUMO GAP               2.327024478554 eV   |
           -------------------------------------------------

------------------------------------------------------------------------
 * finished run on 2025/04/11 at 16:15:24.515     
------------------------------------------------------------------------
 total:
 * wall-time:     0 d,  0 h,  0 min,  0.148 sec
 *  cpu-time:     0 d,  0 h,  0 min,  0.054 sec
 * ratio c/w:     0.363 speedup
 SCF:
 * wall-time:     0 d,  0 h,  0 min,  0.043 sec
 *  cpu-time:     0 d,  0 h,  0 min,  0.028 sec
 * ratio c/w:     0.649 speedup

