! pbe def2-sv(p) def2/J RI DEFGRID1 loosescf d4 GCP(DFT/SV(P)) printgap
%output
    printlevel normal
end
* xyz 0 1
C -3.6385185758 -0.6185266138 0.2375514181
C -2.3054495897 -0.3086111021 -0.4308431212
C -1.1983463514 -0.1031416377 0.6002116888
C 0.1062073482 0.3009524247 -0.0346700549
O 0.2344301347 0.7280116929 -1.1622966867
O 1.1187787885 0.1524090381 0.8146020449
C 2.4401788961 0.5065705881 0.3719752128
C 3.1035419681 -0.649926278 -0.3601489421
H -4.4092352757 -0.7708467987 -0.5128169572
H -3.5616114076 -1.5197309725 0.8406224613
H -3.9425697334 0.2029154892 0.8814321737
H -2.3910130203 0.592655138 -1.0405379977
H -2.0257001823 -1.1257538789 -1.0983956425
H -1.0289497765 -1.0050041227 1.1893884402
H -1.4767985932 0.6938366278 1.2943571698
H 2.3667893417 1.3826226118 -0.2795780391
H 2.9769673163 0.7578328906 1.2871343708
H 4.1202854818 -0.3747270748 -0.620636896
H 3.1208232404 -1.5329967246 0.2728074781
H 2.5547342642 -0.8769640235 -1.2714545087
*
