! pbe def2-sv(p) def2/J RI DEFGRID1 loosescf d4 GCP(DFT/SV(P)) printgap
%output
    printlevel normal
end
* xyz 0 1
C -2.5798088871 -0.5370280373 1.0905338408
C -2.0946463148 -0.8195930079 -0.3260988828
C -1.3700870032 0.3900241708 -0.9303064215
C -0.1030636049 0.6976223736 -0.1740573846
O 0.1100045846 1.7274126813 0.4343585645
O 0.766510083 -0.2983497368 -0.2533310148
C 2.0333769377 -0.1675769855 0.4119149222
C 3.0651134718 -0.9762206744 -0.3526897266
H -3.0804160234 -1.4093607295 1.5020468314
H -1.7444266949 -0.279745065 1.7394617543
H -3.2773573017 0.2972281663 1.0954950222
H -2.9473710426 -1.0648248213 -0.9599262715
H -1.4143186117 -1.6722399677 -0.3219643231
H -2.0069759903 1.273871543 -0.8992683837
H -1.0985290768 0.1701855736 -1.9631908645
H 2.2951474532 0.8946105285 0.4560293126
H 1.9145416553 -0.5411597283 1.4338969833
H 4.0214041961 -0.9093905867 0.1554905725
H 2.7568261209 -2.0162091442 -0.4032128871
H 3.1698435103 -0.5921008533 -1.3633830044
*
