17
 xtb: 6.7.1 (edcfbbe)
C           -3.37544454964135       -1.32958095516421        0.10285141248996
C           -3.20435465008255        0.14985472699576       -0.24281119921723
C           -2.30621725123062        0.92522148380019        0.73640941823789
C           -0.82938379696688        1.03866504095411        0.32115080439302
C           -0.15898013701730       -0.30988753029282        0.20566479119807
Br           1.78627012309458       -0.10506333937850       -0.22479519257361
H           -2.41940560460465       -1.86139054567026        0.13599547881301
H           -4.01005920988269       -1.83514564481190       -0.63280912309677
H           -3.84843214934554       -1.44177340486349        1.08465709003139
H           -2.80440807226753        0.25276199185177       -1.26028277604308
H           -4.19756577283795        0.61319288683691       -0.25875576932479
H           -2.67750426329346        1.95079414330045        0.84083433301642
H           -2.37104888636084        0.46969442441836        1.73330646131444
H           -0.76257884126036        1.56357417460323       -0.63859715070141
H           -0.29914638932230        1.64492774697472        1.06344756310347
H           -0.54705118475153       -0.91675227642577       -0.61072718592903
H           -0.17831023845062       -0.87345086283954        1.13896985272086
