      -----------------------------------------------------------      
     |                   =====================                   |     
     |                           x T B                           |     
     |                   =====================                   |     
     |                         S. Grimme                         |     
     |          Mulliken Center for Theoretical Chemistry        |     
     |                    University of Bonn                     |     
      -----------------------------------------------------------      

   * xtb version 6.7.1 (edcfbbe) compiled by 'albert@albert-system' on 2024-07-22

   xtb is free software: you can redistribute it and/or modify it under
   the terms of the GNU Lesser General Public License as published by
   the Free Software Foundation, either version 3 of the License, or
   (at your option) any later version.
   
   xtb is distributed in the hope that it will be useful,
   but WITHOUT ANY WARRANTY; without even the implied warranty of
   MERCHANTABILITY or FITNESS FOR A PARTICULAR PURPOSE.  See the
   GNU Lesser General Public License for more details.
   
   Cite this work as:
   * C. Bannwarth, E. Caldeweyher, S. Ehlert, A. Hansen, P. Pracht,
     J. Seibert, S. Spicher, S. Grimme, WIREs Comput. Mol. Sci., 2020, 11,
     e01493. DOI: 10.1002/wcms.1493
   
   for GFN2-xTB:
   * C. Bannwarth, S. Ehlert and S. Grimme., J. Chem. Theory Comput., 2019,
     15, 1652-1671. DOI: 10.1021/acs.jctc.8b01176
   for GFN1-xTB:
   * S. Grimme, C. Bannwarth, P. Shushkov, J. Chem. Theory Comput., 2017,
     13, 1989-2009. DOI: 10.1021/acs.jctc.7b00118
   for GFN0-xTB:
   * P. Pracht, E. Caldeweyher, S. Ehlert, S. Grimme, ChemRxiv, 2019, preprint.
     DOI: 10.26434/chemrxiv.8326202.v1
   for GFN-FF:
   * S. Spicher and S. Grimme, Angew. Chem. Int. Ed., 2020, 59, 15665-15673.
     DOI: 10.1002/anie.202004239
   
   for ALPB and GBSA implicit solvation:
   * S. Ehlert, M. Stahn, S. Spicher, S. Grimme, J. Chem. Theory Comput.,
     2021, 17, 4250-4261. DOI: 10.1021/acs.jctc.1c00471
   
   for ddCOSMO and CPCM-X implicit solvation:
   * M. Stahn, S. Ehlert, S. Grimme, J. Phys. Chem. A,
     2023, XX, XXXX-XXXX. DOI: 10.1021/acs.jpca.3c04382
   
   for DFT-D4:
   * E. Caldeweyher, C. Bannwarth and S. Grimme, J. Chem. Phys., 2017,
     147, 034112. DOI: 10.1063/1.4993215
   * E. Caldeweyher, S. Ehlert, A. Hansen, H. Neugebauer, S. Spicher,
     C. Bannwarth and S. Grimme, J. Chem. Phys., 2019, 150, 154122.
     DOI: 10.1063/1.5090222
   * E. Caldeweyher, J.-M. Mewes, S. Ehlert and S. Grimme, Phys. Chem. Chem. Phys.
     2020, 22, 8499-8512. DOI: 10.1039/D0CP00502A
   
   for sTDA-xTB:
   * S. Grimme and C. Bannwarth, J. Chem. Phys., 2016, 145, 054103.
     DOI: 10.1063/1.4959605
   
   in the mass-spec context:
   * V. Asgeirsson, C. Bauer and S. Grimme, Chem. Sci., 2017, 8, 4879.
     DOI: 10.1039/c7sc00601b
   * J. Koopman and S. Grimme, ACS Omega 2019, 4, 12, 15120-15133.
     DOI: 10.1021/acsomega.9b02011
   
   for metadynamics refer to:
   * S. Grimme, J. Chem. Theory Comput., 2019, 155, 2847-2862
     DOI: 10.1021/acs.jctc.9b00143
   
   for SPH calculations refer to:
   * S. Spicher and S. Grimme, J. Chem. Theory Comput., 2021, 17, 1701-1714
     DOI: 10.1021/acs.jctc.0c01306
   
   for ONIOM refer to:
   * C. Plett, A. Katbashev, S. Ehlert, S. Grimme, M. Bursch,
     Phys. Chem. Chem. Phys., 2023, 25, 17860-17868. DOI: 10.1039/D3CP02178E
   
   for DIPRO refer to:
   * J. Kohn, N. Gildemeister, S. Grimme, D. Fazzi, A. Hansen,
     J. Chem. Phys., 2023, just accepted.
   
   for PTB refer to:
   * S. Grimme, M. Mueller, A. Hansen, J. Chem. Phys., 2023, 158, 124111.
     DOI: 10.1063/5.0137838
   
   with help from (in alphabetical order)
   P. Atkinson, C. Bannwarth, F. Bohle, G. Brandenburg, E. Caldeweyher
   M. Checinski, S. Dohm, S. Ehlert, S. Ehrlich, I. Gerasimov, C. Hölzer
   A. Katbashev, J. Kohn, J. Koopman, C. Lavigne, S. Lehtola, F. März, M. Müller,
   F. Musil, H. Neugebauer, J. Pisarek, C. Plett, P. Pracht, F. Pultar,
   J. Seibert, P. Shushkov, S. Spicher, M. Stahn, M. Steiner, T. Strunk,
   J. Stückrath, T. Rose, and J. Unsleber
   
 * started run on 2025/04/11 at 16:11:23.408     
   ID    Z sym.   atoms
    1    6 C      1, 2, 5, 6, 8, 10
    2    8 O      3, 4, 7, 9
    3    1 H      11-20

           -------------------------------------------------
          |                Calculation Setup                |
           -------------------------------------------------

          program call               : /srv/scratch/z5358697/.xtb/bin/xtb gas.coord --gfn2 --sp --chrg 0 --norestart --parallel 1
          hostname                   : k133
          coordinate file            : gas.coord
          omp threads                :                     1


           -------------------------------------------------
          |                 G F N 2 - x T B                 |
           -------------------------------------------------

        Reference                      10.1021/acs.jctc.8b01176
      * Hamiltonian:
        H0-scaling (s, p, d)           1.850000    2.230000    2.230000
        zeta-weighting                 0.500000
      * Dispersion:
        s8                             2.700000
        a1                             0.520000
        a2                             5.000000
        s9                             5.000000
      * Repulsion:
        kExp                           1.500000    1.000000
        rExp                           1.000000
      * Coulomb:
        alpha                          2.000000
        third order                    shell-resolved
        anisotropic                    true
        a3                             3.000000
        a5                             4.000000
        cn-shift                       1.200000
        cn-exp                         4.000000
        max-rad                        5.000000


          ...................................................
          :                      SETUP                      :
          :.................................................:
          :  # basis functions                  50          :
          :  # atomic orbitals                  50          :
          :  # shells                           30          :
          :  # electrons                        58          :
          :  max. iterations                   250          :
          :  Hamiltonian                  GFN2-xTB          :
          :  restarted?                      false          :
          :  GBSA solvation                  false          :
          :  PC potential                    false          :
          :  electronic temp.          300.0000000     K    :
          :  accuracy                    1.0000000          :
          :  -> integral cutoff          0.2500000E+02      :
          :  -> integral neglect         0.1000000E-07      :
          :  -> SCF convergence          0.1000000E-05 Eh   :
          :  -> wf. convergence          0.1000000E-03 e    :
          :  Broyden damping             0.4000000          :
          :  net charge                          0          :
          :  unpaired electrons                  0          :
          ...................................................

 iter      E             dE          RMSdq      gap      omega  full diag
   1    -34.4654326 -0.344654E+02  0.463E+00    5.97       0.0  T
   2    -34.5542277 -0.887951E-01  0.237E+00    4.73       1.0  T
   3    -34.5600161 -0.578835E-02  0.136E+00    5.24       1.0  T
   4    -34.5644372 -0.442113E-02  0.149E-01    4.98       1.0  T
   5    -34.5646324 -0.195180E-03  0.704E-02    5.02       1.0  T
   6    -34.5646352 -0.281692E-05  0.129E-02    5.02       1.7  T
   7    -34.5646357 -0.488446E-06  0.511E-03    5.02       4.4  T
   8    -34.5646358 -0.574420E-07  0.151E-03    5.02      14.8  T
   9    -34.5646358 -0.628366E-08  0.567E-04    5.02      39.4  T
  10    -34.5646358 -0.702627E-09  0.146E-04    5.02     153.1  T

   *** convergence criteria satisfied after 10 iterations ***

         #    Occupation            Energy/Eh            Energy/eV
      -------------------------------------------------------------
         1        2.0000           -0.7527797             -20.4842
       ...           ...                  ...                  ...
        23        2.0000           -0.4863224             -13.2335
        24        2.0000           -0.4806799             -13.0800
        25        2.0000           -0.4761793             -12.9575
        26        2.0000           -0.4715730             -12.8322
        27        2.0000           -0.4458915             -12.1333
        28        2.0000           -0.4254792             -11.5779
        29        2.0000           -0.4226319             -11.5004 (HOMO)
        30                         -0.2381165              -6.4795 (LUMO)
        31                         -0.2347081              -6.3867
        32                         -0.0190303              -0.5178
        33                          0.0135421               0.3685
        34                          0.0913645               2.4862
       ...                                ...                  ...
        50                          0.6210643              16.9000
      -------------------------------------------------------------
                  HL-Gap            0.1845155 Eh            5.0209 eV
             Fermi-level           -0.3303742 Eh           -8.9899 eV

 SCC (total)                   0 d,  0 h,  0 min,  0.052 sec
 SCC setup                      ...        0 min,  0.000 sec (  0.438%)
 Dispersion                     ...        0 min,  0.000 sec (  0.246%)
 classical contributions        ...        0 min,  0.000 sec (  0.050%)
 integral evaluation            ...        0 min,  0.002 sec (  3.589%)
 iterations                     ...        0 min,  0.043 sec ( 84.065%)
 molecular gradient             ...        0 min,  0.006 sec ( 11.248%)
 printout                       ...        0 min,  0.000 sec (  0.335%)

         :::::::::::::::::::::::::::::::::::::::::::::::::::::
         ::                     SUMMARY                     ::
         :::::::::::::::::::::::::::::::::::::::::::::::::::::
         :: total energy             -34.235999390842 Eh    ::
         :: gradient norm              0.034488976458 Eh/a0 ::
         :: HOMO-LUMO gap              5.020921787616 eV    ::
         ::.................................................::
         :: SCC energy               -34.564581947038 Eh    ::
         :: -> isotropic ES            0.091178462101 Eh    ::
         :: -> anisotropic ES          0.001007670445 Eh    ::
         :: -> anisotropic XC          0.002345514949 Eh    ::
         :: -> dispersion             -0.012486211432 Eh    ::
         :: repulsion energy           0.328582556196 Eh    ::
         :: add. restraining           0.000000000000 Eh    ::
         :: total charge              -0.000000000000 e     ::
         :::::::::::::::::::::::::::::::::::::::::::::::::::::

           -------------------------------------------------
          |                Property Printout                |
           -------------------------------------------------

    * Orbital Energies and Occupations

         #    Occupation            Energy/Eh            Energy/eV
      -------------------------------------------------------------
         1        2.0000           -0.7527797             -20.4842
       ...           ...                  ...                  ...
        17        2.0000           -0.5344932             -14.5443
        18        2.0000           -0.5186954             -14.1144
        19        2.0000           -0.5025614             -13.6754
        20        2.0000           -0.4962824             -13.5045
        21        2.0000           -0.4952897             -13.4775
        22        2.0000           -0.4907952             -13.3552
        23        2.0000           -0.4863224             -13.2335
        24        2.0000           -0.4806799             -13.0800
        25        2.0000           -0.4761793             -12.9575
        26        2.0000           -0.4715730             -12.8322
        27        2.0000           -0.4458915             -12.1333
        28        2.0000           -0.4254792             -11.5779
        29        2.0000           -0.4226319             -11.5004 (HOMO)
        30                         -0.2381165              -6.4795 (LUMO)
        31                         -0.2347081              -6.3867
        32                         -0.0190303              -0.5178
        33                          0.0135421               0.3685
        34                          0.0913645               2.4862
        35                          0.1110644               3.0222
        36                          0.1251532               3.4056
        37                          0.1478335               4.0228
        38                          0.1515629               4.1242
        39                          0.1552792               4.2254
        40                          0.1611949               4.3863
       ...                                ...                  ...
        50                          0.6210643              16.9000
      -------------------------------------------------------------
                  HL-Gap            0.1845155 Eh            5.0209 eV
             Fermi-level           -0.3303742 Eh           -8.9899 eV

     #   Z          covCN         q      C6AA      α(0)
     1   6 C        3.754    -0.147    23.406     6.899
     2   6 C        2.712     0.361    20.868     7.478
     3   8 O        0.856    -0.420    22.076     6.299
     4   8 O        1.704    -0.257    18.264     5.770
     5   6 C        3.697     0.069    19.588     6.331
     6   6 C        3.697     0.069    19.587     6.331
     7   8 O        1.704    -0.258    18.273     5.771
     8   6 C        2.712     0.361    20.868     7.478
     9   8 O        0.856    -0.419    22.056     6.297
    10   6 C        3.754    -0.147    23.402     6.898
    11   1 H        0.925     0.083     1.943     2.180
    12   1 H        0.925     0.074     2.037     2.232
    13   1 H        0.925     0.085     1.928     2.171
    14   1 H        0.924     0.082     1.962     2.191
    15   1 H        0.924     0.069     2.098     2.265
    16   1 H        0.924     0.082     1.957     2.187
    17   1 H        0.924     0.069     2.095     2.264
    18   1 H        0.925     0.076     2.019     2.222
    19   1 H        0.925     0.082     1.960     2.189
    20   1 H        0.925     0.085     1.932     2.173

 Mol. C6AA /au·bohr⁶  :       3545.072725
 Mol. C8AA /au·bohr⁸  :      77103.773029
 Mol. α(0) /au        :         87.625119


Wiberg/Mayer (AO) data.
largest (>0.10) Wiberg bond orders for each atom

 ---------------------------------------------------------------------------
     #   Z sym  total        # sym  WBO       # sym  WBO       # sym  WBO
 ---------------------------------------------------------------------------
     1   6 C    3.991 --     2 C    0.995    12 H    0.982    11 H    0.967
                            13 H    0.955
     2   6 C    3.916 --     3 O    1.743     4 O    1.131     1 C    0.995
     3   8 O    2.023 --     2 C    1.743     4 O    0.170
     4   8 O    2.314 --     2 C    1.131     5 C    0.949     3 O    0.170
     5   6 C    3.933 --     6 C    0.992    14 H    0.967    15 H    0.964
                             4 O    0.949
     6   6 C    3.933 --     5 C    0.992    16 H    0.967    17 H    0.964
                             7 O    0.950
     7   8 O    2.312 --     8 C    1.130     6 C    0.950     9 O    0.170
     8   6 C    3.916 --     9 O    1.744     7 O    1.130    10 C    0.995
     9   8 O    2.024 --     8 C    1.744     7 O    0.170
    10   6 C    3.990 --     8 C    0.995    18 H    0.977    19 H    0.975
                            20 H    0.952
    11   1 H    0.993 --     1 C    0.967
    12   1 H    0.994 --     1 C    0.982
    13   1 H    0.993 --     1 C    0.955
    14   1 H    0.993 --     5 C    0.967
    15   1 H    0.995 --     5 C    0.964
    16   1 H    0.993 --     6 C    0.967
    17   1 H    0.995 --     6 C    0.964
    18   1 H    0.994 --    10 C    0.977
    19   1 H    0.993 --    10 C    0.975
    20   1 H    0.993 --    10 C    0.952
 ---------------------------------------------------------------------------

Topologies differ in total number of bonds
Writing topology from bond orders to xtbtopo.mol

molecular dipole:
                 x           y           z       tot (Debye)
 q only:        0.034      -1.017       0.014
   full:        0.057      -1.123       0.024       2.859
molecular quadrupole (traceless):
                xx          xy          yy          xz          yz          zz
 q only:        0.273      -0.038       4.544       6.800      -0.053      -4.817
  q+dip:        0.124      -0.040       4.028       8.816      -0.110      -4.152
   full:        0.528      -0.040       3.994       9.540      -0.105      -4.523


           -------------------------------------------------
          | TOTAL ENERGY              -34.235999390842 Eh   |
          | GRADIENT NORM               0.034488976458 Eh/α |
          | HOMO-LUMO GAP               5.020921787616 eV   |
           -------------------------------------------------

------------------------------------------------------------------------
 * finished run on 2025/04/11 at 16:11:23.604     
------------------------------------------------------------------------
 total:
 * wall-time:     0 d,  0 h,  0 min,  0.195 sec
 *  cpu-time:     0 d,  0 h,  0 min,  0.025 sec
 * ratio c/w:     0.127 speedup
 SCF:
 * wall-time:     0 d,  0 h,  0 min,  0.052 sec
 *  cpu-time:     0 d,  0 h,  0 min,  0.017 sec
 * ratio c/w:     0.323 speedup

