! r2scan-3c def2/J RI DEFGRID2 scfconv6 printgap
%output
    printlevel normal
end
* xyz 0 1
C -3.2626869103 -0.8899111952 0.3360288298
C -1.8709579913 -0.6241383035 -0.2249683414
C -1.5013037915 0.854882166 -0.1333010683
C -0.1201474944 1.1377443152 -0.7342502482
C 0.9574084482 0.4746035089 0.0834320566
O 1.147961091 0.6666909574 1.2664014358
O 1.6771746754 -0.3661919275 -0.6502947505
C 2.7482552529 -1.0845896631 -0.030164467
H -4.0084262278 -0.3220827278 -0.2149373318
H -3.5086223699 -1.9459561856 0.2618921434
H -3.3122206277 -0.5974607489 1.3823218122
H -1.1366378648 -1.2135962106 0.3300934546
H -1.8316616783 -0.9426244878 -1.2687274291
H -1.4976522808 1.1654477323 0.9135980994
H -2.2457673319 1.4490808093 -0.6643900447
H 0.0668179453 2.2124246813 -0.7169034208
H -0.0569412737 0.7723931417 -1.7583965273
H 2.7257509299 -2.0916043071 -0.4383917588
H 2.6097860574 -1.0961978176 1.0515988716
H 3.6890328177 -0.5939598222 -0.2776219255
*
