      -----------------------------------------------------------      
     |                   =====================                   |     
     |                           x T B                           |     
     |                   =====================                   |     
     |                         S. Grimme                         |     
     |          Mulliken Center for Theoretical Chemistry        |     
     |                    University of Bonn                     |     
      -----------------------------------------------------------      

   * xtb version 6.7.1 (edcfbbe) compiled by 'albert@albert-system' on 2024-07-22

   xtb is free software: you can redistribute it and/or modify it under
   the terms of the GNU Lesser General Public License as published by
   the Free Software Foundation, either version 3 of the License, or
   (at your option) any later version.
   
   xtb is distributed in the hope that it will be useful,
   but WITHOUT ANY WARRANTY; without even the implied warranty of
   MERCHANTABILITY or FITNESS FOR A PARTICULAR PURPOSE.  See the
   GNU Lesser General Public License for more details.
   
   Cite this work as:
   * C. Bannwarth, E. Caldeweyher, S. Ehlert, A. Hansen, P. Pracht,
     J. Seibert, S. Spicher, S. Grimme, WIREs Comput. Mol. Sci., 2020, 11,
     e01493. DOI: 10.1002/wcms.1493
   
   for GFN2-xTB:
   * C. Bannwarth, S. Ehlert and S. Grimme., J. Chem. Theory Comput., 2019,
     15, 1652-1671. DOI: 10.1021/acs.jctc.8b01176
   for GFN1-xTB:
   * S. Grimme, C. Bannwarth, P. Shushkov, J. Chem. Theory Comput., 2017,
     13, 1989-2009. DOI: 10.1021/acs.jctc.7b00118
   for GFN0-xTB:
   * P. Pracht, E. Caldeweyher, S. Ehlert, S. Grimme, ChemRxiv, 2019, preprint.
     DOI: 10.26434/chemrxiv.8326202.v1
   for GFN-FF:
   * S. Spicher and S. Grimme, Angew. Chem. Int. Ed., 2020, 59, 15665-15673.
     DOI: 10.1002/anie.202004239
   
   for ALPB and GBSA implicit solvation:
   * S. Ehlert, M. Stahn, S. Spicher, S. Grimme, J. Chem. Theory Comput.,
     2021, 17, 4250-4261. DOI: 10.1021/acs.jctc.1c00471
   
   for ddCOSMO and CPCM-X implicit solvation:
   * M. Stahn, S. Ehlert, S. Grimme, J. Phys. Chem. A,
     2023, XX, XXXX-XXXX. DOI: 10.1021/acs.jpca.3c04382
   
   for DFT-D4:
   * E. Caldeweyher, C. Bannwarth and S. Grimme, J. Chem. Phys., 2017,
     147, 034112. DOI: 10.1063/1.4993215
   * E. Caldeweyher, S. Ehlert, A. Hansen, H. Neugebauer, S. Spicher,
     C. Bannwarth and S. Grimme, J. Chem. Phys., 2019, 150, 154122.
     DOI: 10.1063/1.5090222
   * E. Caldeweyher, J.-M. Mewes, S. Ehlert and S. Grimme, Phys. Chem. Chem. Phys.
     2020, 22, 8499-8512. DOI: 10.1039/D0CP00502A
   
   for sTDA-xTB:
   * S. Grimme and C. Bannwarth, J. Chem. Phys., 2016, 145, 054103.
     DOI: 10.1063/1.4959605
   
   in the mass-spec context:
   * V. Asgeirsson, C. Bauer and S. Grimme, Chem. Sci., 2017, 8, 4879.
     DOI: 10.1039/c7sc00601b
   * J. Koopman and S. Grimme, ACS Omega 2019, 4, 12, 15120-15133.
     DOI: 10.1021/acsomega.9b02011
   
   for metadynamics refer to:
   * S. Grimme, J. Chem. Theory Comput., 2019, 155, 2847-2862
     DOI: 10.1021/acs.jctc.9b00143
   
   for SPH calculations refer to:
   * S. Spicher and S. Grimme, J. Chem. Theory Comput., 2021, 17, 1701-1714
     DOI: 10.1021/acs.jctc.0c01306
   
   for ONIOM refer to:
   * C. Plett, A. Katbashev, S. Ehlert, S. Grimme, M. Bursch,
     Phys. Chem. Chem. Phys., 2023, 25, 17860-17868. DOI: 10.1039/D3CP02178E
   
   for DIPRO refer to:
   * J. Kohn, N. Gildemeister, S. Grimme, D. Fazzi, A. Hansen,
     J. Chem. Phys., 2023, just accepted.
   
   for PTB refer to:
   * S. Grimme, M. Mueller, A. Hansen, J. Chem. Phys., 2023, 158, 124111.
     DOI: 10.1063/5.0137838
   
   with help from (in alphabetical order)
   P. Atkinson, C. Bannwarth, F. Bohle, G. Brandenburg, E. Caldeweyher
   M. Checinski, S. Dohm, S. Ehlert, S. Ehrlich, I. Gerasimov, C. Hölzer
   A. Katbashev, J. Kohn, J. Koopman, C. Lavigne, S. Lehtola, F. März, M. Müller,
   F. Musil, H. Neugebauer, J. Pisarek, C. Plett, P. Pracht, F. Pultar,
   J. Seibert, P. Shushkov, S. Spicher, M. Stahn, M. Steiner, T. Strunk,
   J. Stückrath, T. Rose, and J. Unsleber
   
 * started run on 2025/04/11 at 14:13:37.456     
   ID    Z sym.   atoms
    1    6 C      1-7
    2    1 H      8-23

           -------------------------------------------------
          |                Calculation Setup                |
           -------------------------------------------------

          program call               : /software/projects/pawsey0265/mwang1/xtb/bin/xtb gas.coord --gfn2 --sp --chrg 0 --norestart --parallel 1
          hostname                   : nid001220
          coordinate file            : gas.coord
          omp threads                :                     1


           -------------------------------------------------
          |                 G F N 2 - x T B                 |
           -------------------------------------------------

        Reference                      10.1021/acs.jctc.8b01176
      * Hamiltonian:
        H0-scaling (s, p, d)           1.850000    2.230000    2.230000
        zeta-weighting                 0.500000
      * Dispersion:
        s8                             2.700000
        a1                             0.520000
        a2                             5.000000
        s9                             5.000000
      * Repulsion:
        kExp                           1.500000    1.000000
        rExp                           1.000000
      * Coulomb:
        alpha                          2.000000
        third order                    shell-resolved
        anisotropic                    true
        a3                             3.000000
        a5                             4.000000
        cn-shift                       1.200000
        cn-exp                         4.000000
        max-rad                        5.000000


          ...................................................
          :                      SETUP                      :
          :.................................................:
          :  # basis functions                  44          :
          :  # atomic orbitals                  44          :
          :  # shells                           30          :
          :  # electrons                        44          :
          :  max. iterations                   250          :
          :  Hamiltonian                  GFN2-xTB          :
          :  restarted?                      false          :
          :  GBSA solvation                  false          :
          :  PC potential                    false          :
          :  electronic temp.          300.0000000     K    :
          :  accuracy                    1.0000000          :
          :  -> integral cutoff          0.2500000E+02      :
          :  -> integral neglect         0.1000000E-07      :
          :  -> SCF convergence          0.1000000E-05 Eh   :
          :  -> wf. convergence          0.1000000E-03 e    :
          :  Broyden damping             0.4000000          :
          :  net charge                          0          :
          :  unpaired electrons                  0          :
          ...................................................

 iter      E             dE          RMSdq      gap      omega  full diag
   1    -23.4459804 -0.234460E+02  0.243E+00   13.29       0.0  T
   2    -23.5056408 -0.596604E-01  0.129E+00   13.15       1.0  T
   3    -23.5064676 -0.826795E-03  0.679E-01   13.15       1.0  T
   4    -23.5066103 -0.142650E-03  0.122E-01   13.15       1.0  T
   5    -23.5067002 -0.899046E-04  0.551E-02   13.15       1.0  T
   6    -23.5067005 -0.327880E-06  0.477E-03   13.15       4.4  T
   7    -23.5067006 -0.159263E-06  0.162E-03   13.15      12.9  T
   8    -23.5067007 -0.674054E-08  0.339E-04   13.15      61.5  T
   9    -23.5067007 -0.396724E-09  0.126E-04   13.15     165.5  T

   *** convergence criteria satisfied after 9 iterations ***

         #    Occupation            Energy/Eh            Energy/eV
      -------------------------------------------------------------
         1        2.0000           -0.6226749             -16.9438
       ...           ...                  ...                  ...
        16        2.0000           -0.4496454             -12.2355
        17        2.0000           -0.4363204             -11.8729
        18        2.0000           -0.4326909             -11.7741
        19        2.0000           -0.4283646             -11.6564
        20        2.0000           -0.4157961             -11.3144
        21        2.0000           -0.4144329             -11.2773
        22        2.0000           -0.4125254             -11.2254 (HOMO)
        23                          0.0707733               1.9258 (LUMO)
        24                          0.0928289               2.5260
        25                          0.1039414               2.8284
        26                          0.1152394               3.1358
        27                          0.1229596               3.3459
       ...                                ...                  ...
        44                          0.3238389               8.8121
      -------------------------------------------------------------
                  HL-Gap            0.4832987 Eh           13.1512 eV
             Fermi-level           -0.1708761 Eh           -4.6498 eV

 SCC (total)                   0 d,  0 h,  0 min,  0.056 sec
 SCC setup                      ...        0 min,  0.000 sec (  0.439%)
 Dispersion                     ...        0 min,  0.000 sec (  0.320%)
 classical contributions        ...        0 min,  0.000 sec (  0.079%)
 integral evaluation            ...        0 min,  0.003 sec (  5.176%)
 iterations                     ...        0 min,  0.046 sec ( 82.876%)
 molecular gradient             ...        0 min,  0.006 sec ( 10.778%)
 printout                       ...        0 min,  0.000 sec (  0.284%)

         :::::::::::::::::::::::::::::::::::::::::::::::::::::
         ::                     SUMMARY                     ::
         :::::::::::::::::::::::::::::::::::::::::::::::::::::
         :: total energy             -23.155766891065 Eh    ::
         :: gradient norm              0.001161866623 Eh/a0 ::
         :: HOMO-LUMO gap             13.151228114215 eV    ::
         ::.................................................::
         :: SCC energy               -23.506621205017 Eh    ::
         :: -> isotropic ES            0.004706527951 Eh    ::
         :: -> anisotropic ES          0.007793967921 Eh    ::
         :: -> anisotropic XC          0.014360076381 Eh    ::
         :: -> dispersion             -0.014510881564 Eh    ::
         :: repulsion energy           0.350854313952 Eh    ::
         :: add. restraining           0.000000000000 Eh    ::
         :: total charge               0.000000000000 e     ::
         :::::::::::::::::::::::::::::::::::::::::::::::::::::

           -------------------------------------------------
          |                Property Printout                |
           -------------------------------------------------

    * Orbital Energies and Occupations

         #    Occupation            Energy/Eh            Energy/eV
      -------------------------------------------------------------
         1        2.0000           -0.6226749             -16.9438
       ...           ...                  ...                  ...
        10        2.0000           -0.4970249             -13.5247
        11        2.0000           -0.4876885             -13.2707
        12        2.0000           -0.4795938             -13.0504
        13        2.0000           -0.4685252             -12.7492
        14        2.0000           -0.4643395             -12.6353
        15        2.0000           -0.4602295             -12.5235
        16        2.0000           -0.4496454             -12.2355
        17        2.0000           -0.4363204             -11.8729
        18        2.0000           -0.4326909             -11.7741
        19        2.0000           -0.4283646             -11.6564
        20        2.0000           -0.4157961             -11.3144
        21        2.0000           -0.4144329             -11.2773
        22        2.0000           -0.4125254             -11.2254 (HOMO)
        23                          0.0707733               1.9258 (LUMO)
        24                          0.0928289               2.5260
        25                          0.1039414               2.8284
        26                          0.1152394               3.1358
        27                          0.1229596               3.3459
        28                          0.1335308               3.6336
        29                          0.1388827               3.7792
        30                          0.1446377               3.9358
        31                          0.1718852               4.6772
        32                          0.1723879               4.6909
        33                          0.1848189               5.0292
       ...                                ...                  ...
        44                          0.3238389               8.8121
      -------------------------------------------------------------
                  HL-Gap            0.4832987 Eh           13.1512 eV
             Fermi-level           -0.1708761 Eh           -4.6498 eV

     #   Z          covCN         q      C6AA      α(0)
     1   6 C        3.751    -0.101    22.482     6.762
     2   6 C        3.799    -0.052    21.512     6.604
     3   6 C        3.800    -0.057    21.598     6.617
     4   6 C        3.802    -0.066    21.765     6.642
     5   6 C        3.848    -0.011    20.735     6.477
     6   6 C        3.755    -0.104    22.546     6.770
     7   6 C        3.756    -0.106    22.573     6.774
     8   1 H        0.925     0.036     2.510     2.477
     9   1 H        0.925     0.029     2.604     2.524
    10   1 H        0.925     0.032     2.564     2.504
    11   1 H        0.924     0.032     2.557     2.501
    12   1 H        0.924     0.025     2.659     2.550
    13   1 H        0.924     0.028     2.611     2.527
    14   1 H        0.924     0.026     2.644     2.543
    15   1 H        0.924     0.037     2.495     2.470
    16   1 H        0.924     0.031     2.572     2.508
    17   1 H        0.924     0.029     2.606     2.524
    18   1 H        0.925     0.031     2.574     2.509
    19   1 H        0.925     0.029     2.594     2.519
    20   1 H        0.925     0.037     2.491     2.468
    21   1 H        0.925     0.032     2.555     2.500
    22   1 H        0.925     0.031     2.576     2.510
    23   1 H        0.925     0.033     2.547     2.496

 Mol. C6AA /au·bohr⁶  :       3400.664498
 Mol. C8AA /au·bohr⁸  :      70195.782175
 Mol. α(0) /au        :         86.775256


Wiberg/Mayer (AO) data.
largest (>0.10) Wiberg bond orders for each atom

 ---------------------------------------------------------------------------
     #   Z sym  total        # sym  WBO       # sym  WBO       # sym  WBO
 ---------------------------------------------------------------------------
     1   6 C    3.997 --     2 C    1.020    10 H    0.988     9 H    0.988
                             8 H    0.985
     2   6 C    3.998 --     1 C    1.020     3 C    1.008    12 H    0.979
                            11 H    0.975
     3   6 C    3.997 --     4 C    1.009     2 C    1.008    14 H    0.977
                            13 H    0.977
     4   6 C    3.996 --     3 C    1.009     5 C    0.993    16 H    0.976
                            15 H    0.975
     5   6 C    3.996 --     6 C    1.011     7 C    1.009     4 C    0.993
                            17 H    0.968
     6   6 C    3.997 --     5 C    1.011    19 H    0.987    18 H    0.987
                            20 H    0.983
     7   6 C    3.997 --     5 C    1.009    23 H    0.987    22 H    0.987
                            21 H    0.987
     8   1 H    0.999 --     1 C    0.985
     9   1 H    0.999 --     1 C    0.988
    10   1 H    0.999 --     1 C    0.988
    11   1 H    0.999 --     2 C    0.975
    12   1 H    0.999 --     2 C    0.979
    13   1 H    0.999 --     3 C    0.977
    14   1 H    0.999 --     3 C    0.977
    15   1 H    0.999 --     4 C    0.975
    16   1 H    0.999 --     4 C    0.976
    17   1 H    0.999 --     5 C    0.968
    18   1 H    0.999 --     6 C    0.987
    19   1 H    0.999 --     6 C    0.987
    20   1 H    0.999 --     6 C    0.983
    21   1 H    0.999 --     7 C    0.987
    22   1 H    0.999 --     7 C    0.987
    23   1 H    0.999 --     7 C    0.987
 ---------------------------------------------------------------------------

Topologies differ in total number of bonds
Writing topology from bond orders to xtbtopo.mol

molecular dipole:
                 x           y           z       tot (Debye)
 q only:        0.005       0.005      -0.017
   full:        0.001       0.002      -0.016       0.042
molecular quadrupole (traceless):
                xx          xy          yy          xz          yz          zz
 q only:       -0.241       0.096       0.125      -0.036       0.021       0.116
  q+dip:       -0.609      -0.428      -0.151      -0.048       0.202       0.759
   full:       -0.333      -0.197      -0.037      -0.037       0.119       0.369


           -------------------------------------------------
          | TOTAL ENERGY              -23.155766891065 Eh   |
          | GRADIENT NORM               0.001161866623 Eh/α |
          | HOMO-LUMO GAP              13.151228114215 eV   |
           -------------------------------------------------

------------------------------------------------------------------------
 * finished run on 2025/04/11 at 14:13:37.548     
------------------------------------------------------------------------
 total:
 * wall-time:     0 d,  0 h,  0 min,  0.087 sec
 *  cpu-time:     0 d,  0 h,  0 min,  0.039 sec
 * ratio c/w:     0.446 speedup
 SCF:
 * wall-time:     0 d,  0 h,  0 min,  0.056 sec
 *  cpu-time:     0 d,  0 h,  0 min,  0.025 sec
 * ratio c/w:     0.449 speedup

