! r2scan-3c def2/J RI DEFGRID2 scfconv6 printgap
%output
    printlevel normal
end
* xyz 0 1
C -2.5070649707 -1.0769512829 -0.6240958341
C -2.0514997507 -0.5538423838 0.7326911277
C -1.3894511567 0.8249178601 0.6164783857
C -0.1144928602 0.7523921464 -0.1833042746
O 0.0850538687 1.3342208162 -1.2311054487
O 0.7874279094 -0.0285220812 0.3929188766
C 2.0530791169 -0.1913887487 -0.2669657271
C 2.9652393886 -0.9861211851 0.6471817219
H -2.9630783241 -2.0578051712 -0.5198637081
H -3.2347552022 -0.4020082257 -1.0685343403
H -1.6638873841 -1.1589021828 -1.3077910707
H -1.3403792735 -1.2501227279 1.1789586947
H -2.9119496973 -0.4700566628 1.3972179746
H -1.1379703502 1.1906598251 1.6125551013
H -2.0577343916 1.5322716958 0.1256289588
H 1.883253194 -0.7067578556 -1.2182164322
H 2.4591145532 0.8016458674 -0.4868448164
H 3.9297815814 -1.1154288723 0.1675971006
H 3.0995509582 -0.4597750795 1.5875228648
H 2.5317480819 -1.9608019529 0.8499714859
*
