20
 xtb: 6.7.1 (edcfbbe)
C            3.26996930475989       -1.37447429202214       -0.52600266690583
C            2.41397863212322       -0.15101267532984       -0.50891420674555
O            2.60021057131149        0.83480463638271       -1.20108828847861
O            1.41204001988964       -0.24329632868675        0.39588147871918
C            0.53992029383957        0.91379283099581        0.52843859223751
C           -0.54138826908577        0.91131441985956       -0.52370128121365
O           -1.41409055444417       -0.24420056858362       -0.38618099915305
C           -2.41835743056718       -0.14695476401071        0.51661162005466
O           -2.60194097000695        0.83990248364646        1.20738471700671
C           -3.27471142730448       -1.36991099767315        0.52187210871109
H            4.20401794480476       -1.13803299437135       -0.00417701290374
H            3.51960322276799       -1.62409668780839       -1.55917803536673
H            2.79127630295359       -2.21911858495360       -0.03094544931291
H            0.11978419120832        0.83015321441501        1.53174191427026
H            1.12499477615362        1.83408619094875        0.45111154203226
H           -0.12095480703852        0.82318618433585       -1.52653211658159
H           -1.12561805057029        1.83253606676789       -0.45082317280027
H           -4.05024164427711       -1.24150847430295       -0.24222820146348
H           -3.75995700145570       -1.47524480057708        1.49245281195242
H           -2.69985184906861       -2.26366829864638        0.27504759905148
