! r2scan-3c def2/J RI DEFGRID2 scfconv6 printgap
%output
    printlevel normal
end
* xyz 0 1
C -3.7787405246 0.0972149106 0.625103489
C -2.6574025339 -0.5259747367 -0.1977429508
C -1.3043780779 0.0946250375 0.1414838679
C -0.1741087129 -0.5274018013 -0.6897770026
C 1.1233100563 0.1667790073 -0.3750343502
O 1.3988427675 1.3039449269 -0.6970537797
O 1.9328286147 -0.606547568 0.3383737798
C 3.195751998 -0.0721732158 0.7466662563
H -4.7338721311 -0.3536645674 0.3689474144
H -3.6009908923 -0.0522334728 1.6874528109
H -3.8406854542 1.1663273799 0.435734618
H -2.6190867196 -1.5997871664 -0.0062502495
H -2.8635170608 -0.3825588695 -1.2599232564
H -1.0924482653 -0.0509804224 1.2028802623
H -1.3315877341 1.1694177462 -0.050884286
H -0.3905968162 -0.3892410635 -1.7496404086
H -0.0734536086 -1.5880959091 -0.4648736577
H 3.0925497707 0.9867414294 0.9862120039
H 3.9180506681 -0.1905554967 -0.0612725094
H 3.4965685674 -0.6464475566 1.6177541608
*
