! r2scan-3c def2/J RI DEFGRID2 scfconv6 printgap
%output
    printlevel normal
end
%cpcm
    smd true
    smdsolvent "water"
end
* xyz 0 1
C 2.430497662 -0.2955703642 -0.1274053735
C 1.0305873473 0.2415282971 -0.4003346796
C 0.0500067317 -0.1639479461 0.6989988432
C -1.3479554072 0.426162005 0.5091002312
N -2.0526856318 -0.2289289137 -0.586375353
H 2.4152722427 -1.3814192273 -0.0719780516
H 3.114486548 -8.21384e-05 -0.9192383552
H 2.8088811283 0.0901634777 0.8165327565
H 1.0671787601 1.3320998279 -0.467117222
H 0.6845891817 -0.1427336993 -1.361684874
H -0.0358299999 -1.2507409322 0.7289662614
H 0.4381377207 0.1744689051 1.6618140946
H -1.2601588179 1.518629225 0.3722723309
H -1.9339230018 0.2512867524 1.4161313886
H -1.5667029023 -0.0526824699 -1.4591868769
H -2.983720387 0.1616599701 -0.6754444293
*
