      -----------------------------------------------------------      
     |                   =====================                   |     
     |                           x T B                           |     
     |                   =====================                   |     
     |                         S. Grimme                         |     
     |          Mulliken Center for Theoretical Chemistry        |     
     |                    University of Bonn                     |     
      -----------------------------------------------------------      

   * xtb version 6.7.1 (edcfbbe) compiled by 'albert@albert-system' on 2024-07-22

   xtb is free software: you can redistribute it and/or modify it under
   the terms of the GNU Lesser General Public License as published by
   the Free Software Foundation, either version 3 of the License, or
   (at your option) any later version.
   
   xtb is distributed in the hope that it will be useful,
   but WITHOUT ANY WARRANTY; without even the implied warranty of
   MERCHANTABILITY or FITNESS FOR A PARTICULAR PURPOSE.  See the
   GNU Lesser General Public License for more details.
   
   Cite this work as:
   * C. Bannwarth, E. Caldeweyher, S. Ehlert, A. Hansen, P. Pracht,
     J. Seibert, S. Spicher, S. Grimme, WIREs Comput. Mol. Sci., 2020, 11,
     e01493. DOI: 10.1002/wcms.1493
   
   for GFN2-xTB:
   * C. Bannwarth, S. Ehlert and S. Grimme., J. Chem. Theory Comput., 2019,
     15, 1652-1671. DOI: 10.1021/acs.jctc.8b01176
   for GFN1-xTB:
   * S. Grimme, C. Bannwarth, P. Shushkov, J. Chem. Theory Comput., 2017,
     13, 1989-2009. DOI: 10.1021/acs.jctc.7b00118
   for GFN0-xTB:
   * P. Pracht, E. Caldeweyher, S. Ehlert, S. Grimme, ChemRxiv, 2019, preprint.
     DOI: 10.26434/chemrxiv.8326202.v1
   for GFN-FF:
   * S. Spicher and S. Grimme, Angew. Chem. Int. Ed., 2020, 59, 15665-15673.
     DOI: 10.1002/anie.202004239
   
   for ALPB and GBSA implicit solvation:
   * S. Ehlert, M. Stahn, S. Spicher, S. Grimme, J. Chem. Theory Comput.,
     2021, 17, 4250-4261. DOI: 10.1021/acs.jctc.1c00471
   
   for ddCOSMO and CPCM-X implicit solvation:
   * M. Stahn, S. Ehlert, S. Grimme, J. Phys. Chem. A,
     2023, XX, XXXX-XXXX. DOI: 10.1021/acs.jpca.3c04382
   
   for DFT-D4:
   * E. Caldeweyher, C. Bannwarth and S. Grimme, J. Chem. Phys., 2017,
     147, 034112. DOI: 10.1063/1.4993215
   * E. Caldeweyher, S. Ehlert, A. Hansen, H. Neugebauer, S. Spicher,
     C. Bannwarth and S. Grimme, J. Chem. Phys., 2019, 150, 154122.
     DOI: 10.1063/1.5090222
   * E. Caldeweyher, J.-M. Mewes, S. Ehlert and S. Grimme, Phys. Chem. Chem. Phys.
     2020, 22, 8499-8512. DOI: 10.1039/D0CP00502A
   
   for sTDA-xTB:
   * S. Grimme and C. Bannwarth, J. Chem. Phys., 2016, 145, 054103.
     DOI: 10.1063/1.4959605
   
   in the mass-spec context:
   * V. Asgeirsson, C. Bauer and S. Grimme, Chem. Sci., 2017, 8, 4879.
     DOI: 10.1039/c7sc00601b
   * J. Koopman and S. Grimme, ACS Omega 2019, 4, 12, 15120-15133.
     DOI: 10.1021/acsomega.9b02011
   
   for metadynamics refer to:
   * S. Grimme, J. Chem. Theory Comput., 2019, 155, 2847-2862
     DOI: 10.1021/acs.jctc.9b00143
   
   for SPH calculations refer to:
   * S. Spicher and S. Grimme, J. Chem. Theory Comput., 2021, 17, 1701-1714
     DOI: 10.1021/acs.jctc.0c01306
   
   for ONIOM refer to:
   * C. Plett, A. Katbashev, S. Ehlert, S. Grimme, M. Bursch,
     Phys. Chem. Chem. Phys., 2023, 25, 17860-17868. DOI: 10.1039/D3CP02178E
   
   for DIPRO refer to:
   * J. Kohn, N. Gildemeister, S. Grimme, D. Fazzi, A. Hansen,
     J. Chem. Phys., 2023, just accepted.
   
   for PTB refer to:
   * S. Grimme, M. Mueller, A. Hansen, J. Chem. Phys., 2023, 158, 124111.
     DOI: 10.1063/5.0137838
   
   with help from (in alphabetical order)
   P. Atkinson, C. Bannwarth, F. Bohle, G. Brandenburg, E. Caldeweyher
   M. Checinski, S. Dohm, S. Ehlert, S. Ehrlich, I. Gerasimov, C. Hölzer
   A. Katbashev, J. Kohn, J. Koopman, C. Lavigne, S. Lehtola, F. März, M. Müller,
   F. Musil, H. Neugebauer, J. Pisarek, C. Plett, P. Pracht, F. Pultar,
   J. Seibert, P. Shushkov, S. Spicher, M. Stahn, M. Steiner, T. Strunk,
   J. Stückrath, T. Rose, and J. Unsleber
   
 * started run on 2025/04/11 at 16:27:36.180     
   ID    Z sym.   atoms
    1    6 C      1-7
    2    1 H      8-19

           -------------------------------------------------
          |                Calculation Setup                |
           -------------------------------------------------

          program call               : /srv/scratch/z5358697/.xtb/bin/xtb xtb_rrho.coord --gfn2 --ohess vtight --chrg 0 --enso --norestart -I rrho-xcontrol-inp --parallel 1 --alpb water
          hostname                   : k113
          coordinate file            : xtb_rrho.coord
          omp threads                :                     1


           -------------------------------------------------
          |                 G F N 2 - x T B                 |
           -------------------------------------------------

        Reference                      10.1021/acs.jctc.8b01176
      * Hamiltonian:
        H0-scaling (s, p, d)           1.850000    2.230000    2.230000
        zeta-weighting                 0.500000
      * Dispersion:
        s8                             2.700000
        a1                             0.520000
        a2                             5.000000
        s9                             5.000000
      * Repulsion:
        kExp                           1.500000    1.000000
        rExp                           1.000000
      * Coulomb:
        alpha                          2.000000
        third order                    shell-resolved
        anisotropic                    true
        a3                             3.000000
        a5                             4.000000
        cn-shift                       1.200000
        cn-exp                         4.000000
        max-rad                        5.000000

      * Solvation model:               ALPB
        Solvent                        water
        Parameter file                 internal GFN2-xTB/ALPB
        Dielectric constant                8.0200E+01
        Reference state                gsolv [1 M gas/solution]
        Free energy shift                  1.0808E-03 Eh       6.7819E-01 kcal/mol
        Temperature                        2.9815E+02 K
        Density                            1.0000E+00 kg/L
        Solvent mass                       1.8000E+01 g/mol
        Interaction kernel             P16
        Born radius scaling (c1)           1.4744E+00
        Born radii integrator          GBOBC
        Born offset                        0.0000E+00 a0       0.0000E+00 AA
        H-bond correction              true
        Ion screening                  false
        Surface tension                    1.0000E-05 Eh       1.5569E+01 dyn/cm
        Grid points                               974 per atom

          ...................................................
          :                      SETUP                      :
          :.................................................:
          :  # basis functions                  40          :
          :  # atomic orbitals                  40          :
          :  # shells                           26          :
          :  # electrons                        40          :
          :  max. iterations                   250          :
          :  Hamiltonian                  GFN2-xTB          :
          :  restarted?                      false          :
          :  GBSA solvation                   true          :
          :  PC potential                    false          :
          :  electronic temp.          300.0000000     K    :
          :  accuracy                    1.0000000          :
          :  -> integral cutoff          0.2500000E+02      :
          :  -> integral neglect         0.1000000E-07      :
          :  -> SCF convergence          0.1000000E-05 Eh   :
          :  -> wf. convergence          0.1000000E-03 e    :
          :  Broyden damping             0.4000000          :
          :  net charge                          0          :
          :  unpaired electrons                  0          :
          ...................................................

 iter      E             dE          RMSdq      gap      omega  full diag
   1    -21.3905155 -0.213905E+02  0.415E+00    6.85       0.0  T
   2    -21.4113348 -0.208193E-01  0.247E+00    6.78       1.0  T
   3    -21.3883642  0.229705E-01  0.141E+00    6.79       1.0  T
   4    -21.4146506 -0.262864E-01  0.402E-01    6.68       1.0  T
   5    -21.4165565 -0.190583E-02  0.768E-02    6.69       1.0  T
   6    -21.4165643 -0.787753E-05  0.304E-02    6.70       1.0  T
   7    -21.4165668 -0.243166E-05  0.128E-02    6.70       1.8  T
   8    -21.4165674 -0.604597E-06  0.317E-03    6.70       7.2  T
   9    -21.4165674 -0.235625E-07  0.172E-03    6.70      13.3  T
  10    -21.4165674 -0.553434E-08  0.229E-04    6.70     100.1  T
  11    -21.4165674 -0.115008E-09  0.152E-04    6.70     150.8  T

   *** convergence criteria satisfied after 11 iterations ***

         #    Occupation            Energy/Eh            Energy/eV
      -------------------------------------------------------------
         1        2.0000           -0.6225537             -16.9405
       ...           ...                  ...                  ...
        14        2.0000           -0.4493767             -12.2282
        15        2.0000           -0.4484608             -12.2032
        16        2.0000           -0.4243995             -11.5485
        17        2.0000           -0.4209954             -11.4559
        18        2.0000           -0.4198220             -11.4239
        19        2.0000           -0.3966138             -10.7924
        20        2.0000           -0.3941168             -10.7245 (HOMO)
        21                         -0.1479777              -4.0267 (LUMO)
        22                         -0.1430616              -3.8929
        23                          0.0555703               1.5121
        24                          0.0931602               2.5350
        25                          0.0956704               2.6033
       ...                                ...                  ...
        40                          1.3702787              37.2872
      -------------------------------------------------------------
                  HL-Gap            0.2461391 Eh            6.6978 eV
             Fermi-level           -0.2710472 Eh           -7.3756 eV

 SCC (total)                   0 d,  0 h,  0 min,  0.026 sec
 SCC setup                      ...        0 min,  0.001 sec (  4.549%)
 Dispersion                     ...        0 min,  0.000 sec (  0.413%)
 classical contributions        ...        0 min,  0.000 sec (  0.116%)
 integral evaluation            ...        0 min,  0.001 sec (  5.239%)
 iterations                     ...        0 min,  0.019 sec ( 72.668%)
 molecular gradient             ...        0 min,  0.004 sec ( 16.284%)
 printout                       ...        0 min,  0.000 sec (  0.617%)

         :::::::::::::::::::::::::::::::::::::::::::::::::::::
         ::                     SUMMARY                     ::
         :::::::::::::::::::::::::::::::::::::::::::::::::::::
         :: total energy             -21.038612150747 Eh    ::
         :: total w/o Gsasa/hb       -21.037489446230 Eh    ::
         :: gradient norm              0.029006679194 Eh/a0 ::
         :: HOMO-LUMO gap              6.697784668224 eV    ::
         ::.................................................::
         :: SCC energy               -21.416521181831 Eh    ::
         :: -> isotropic ES            0.005713986350 Eh    ::
         :: -> anisotropic ES          0.004509174326 Eh    ::
         :: -> anisotropic XC          0.018898822210 Eh    ::
         :: -> dispersion             -0.011922707426 Eh    ::
         :: -> Gsolv                  -0.001881888393 Eh    ::
         ::    -> Gelec               -0.000759183876 Eh    ::
         ::    -> Gsasa               -0.001422539856 Eh    ::
         ::    -> Ghb                 -0.000780924359 Eh    ::
         ::    -> Gshift               0.001080759698 Eh    ::
         :: repulsion energy           0.377909031084 Eh    ::
         :: add. restraining           0.000000000000 Eh    ::
         :: total charge               0.000000000000 e     ::
         :::::::::::::::::::::::::::::::::::::::::::::::::::::

      ----------------------------------------------------------- 
     |                   =====================                   |
     |                        A N C O P T                        |
     |                   =====================                   |
     |               Approximate Normal Coordinate               |
     |                Rational Function Optimizer                |
      ----------------------------------------------------------- 
      ----------------------------------------------------------- 
     |                   =====================                   |
     |                        A N C O P T                        |
     |                   =====================                   |
     |               Approximate Normal Coordinate               |
     |                Rational Function Optimizer                |
      ----------------------------------------------------------- 

          ...................................................
          :                      SETUP                      :
          :.................................................:
          :   optimization level         verytight          :
          :   max. optcycles                   380          :
          :   ANC micro-cycles                  20          :
          :   degrees of freedom                51          :
          :.................................................:
          :   RF solver                   davidson          :
          :   write xtbopt.log                true          :
          :   linear?                        false          :
          :   energy convergence         0.1000000E-06 Eh   :
          :   grad. convergence          0.2000000E-03 Eh/α :
          :   maxmium RF displ.          1.0000000          :
          :   Hlow (freq-cutoff)         0.1000000E-01      :
          :   Hmax (freq-cutoff)         5.0000000          :
          :   S6 in model hess.         20.0000000          :
          ...................................................

generating ANC from exact Hessian ...
Using Lindh-Hessian (1995)
 Shifting diagonal of input Hessian by   9.629123694342686E-003
 Lowest  eigenvalues of input Hessian
    0.000000    0.000000    0.000000    0.000000    0.000000    0.000000
    0.010000    0.010857    0.011402    0.013983    0.014735    0.017731
    0.020350    0.021289    0.027265    0.035864    0.049000    0.056149
 Highest eigenvalues
    1.147342    1.170260    1.216475    1.249895    1.273093    2.482154
 

........................................................................
.............................. CYCLE    1 ..............................
........................................................................

 iter      E             dE          RMSdq      gap      omega  full diag
   1    -21.4165674 -0.214166E+02  0.334E-05    6.70       0.0  T
   2    -21.4165674  0.205702E-11  0.302E-05    6.70     759.4  T
   3    -21.4165674 -0.118305E-10  0.138E-05    6.70    1666.7  T
     SCC iter.                  ...        0 min,  0.001 sec
     gradient                   ...        0 min,  0.004 sec
 * total energy  :   -21.0386122 Eh     change       -0.8703083E-10 Eh
   gradient norm :     0.0290070 Eh/α   predicted     0.0000000E+00 (-100.00%)
   displ. norm   :     0.1173447 α      lambda       -0.1771125E-02
   maximum displ.:     0.0600764 α      in ANC's #22, #6, #20, ...

........................................................................
.............................. CYCLE    2 ..............................
........................................................................

 iter      E             dE          RMSdq      gap      omega  full diag
   1    -21.4351599 -0.214352E+02  0.120E-01    6.88       0.0  T
   2    -21.4351633 -0.346550E-05  0.711E-02    6.88       1.0  T
   3    -21.4351305  0.327745E-04  0.513E-02    6.88       1.0  T
   4    -21.4351694 -0.388542E-04  0.345E-03    6.88       6.6  T
   5    -21.4351694 -0.287207E-07  0.177E-03    6.88      13.0  T
   6    -21.4351694 -0.816803E-08  0.577E-04    6.88      39.8  T
   7    -21.4351694 -0.591275E-09  0.173E-04    6.88     132.3  T
     SCC iter.                  ...        0 min,  0.003 sec
     gradient                   ...        0 min,  0.004 sec
 * total energy  :   -21.0395683 Eh     change       -0.9561897E-03 Eh
   gradient norm :     0.0115096 Eh/α   predicted    -0.8977785E-03 (  -6.11%)
   displ. norm   :     0.0878296 α      lambda       -0.2040840E-03
   maximum displ.:     0.0613011 α      in ANC's #2, #3, #1, ...

........................................................................
.............................. CYCLE    3 ..............................
........................................................................

 iter      E             dE          RMSdq      gap      omega  full diag
   1    -21.4375260 -0.214375E+02  0.136E-01    6.86       0.0  T
   2    -21.4375267 -0.669402E-06  0.803E-02    6.86       1.0  T
   3    -21.4375141  0.125904E-04  0.282E-02    6.86       1.0  T
   4    -21.4375278 -0.137267E-04  0.201E-03    6.86      11.4  T
   5    -21.4375278 -0.108529E-07  0.103E-03    6.86      22.2  T
   6    -21.4375278 -0.416609E-09  0.223E-04    6.86     103.0  T
   7    -21.4375278 -0.154262E-09  0.869E-05    6.86     264.1  T
     SCC iter.                  ...        0 min,  0.003 sec
     gradient                   ...        0 min,  0.004 sec
 * total energy  :   -21.0396263 Eh     change       -0.5800041E-04 Eh
   gradient norm :     0.0027999 Eh/α   predicted    -0.1028341E-03 (  77.30%)
   displ. norm   :     0.0654727 α      lambda       -0.1073297E-03
   maximum displ.:     0.0475765 α      in ANC's #2, #6, #3, ...

........................................................................
.............................. CYCLE    4 ..............................
........................................................................

 iter      E             dE          RMSdq      gap      omega  full diag
   1    -21.4373437 -0.214373E+02  0.961E-02    6.84       0.0  T
   2    -21.4373440 -0.242324E-06  0.572E-02    6.84       1.0  T
   3    -21.4373410  0.301257E-05  0.137E-02    6.84       1.7  T
   4    -21.4373443 -0.331644E-05  0.133E-03    6.84      17.3  T
   5    -21.4373443 -0.375491E-08  0.668E-04    6.84      34.3  T
   6    -21.4373443 -0.182535E-09  0.100E-04    6.84     228.6  T
     SCC iter.                  ...        0 min,  0.002 sec
     gradient                   ...        0 min,  0.004 sec
 * total energy  :   -21.0396662 Eh     change       -0.3989118E-04 Eh
   gradient norm :     0.0046865 Eh/α   predicted    -0.5389659E-04 (  35.11%)
   displ. norm   :     0.0221289 α      lambda       -0.2449868E-04
   maximum displ.:     0.0180949 α      in ANC's #3, #5, #6, ...

........................................................................
.............................. CYCLE    5 ..............................
........................................................................

 iter      E             dE          RMSdq      gap      omega  full diag
   1    -21.4369459 -0.214369E+02  0.279E-02    6.86       0.0  T
   2    -21.4369459 -0.320814E-07  0.165E-02    6.86       1.4  T
   3    -21.4369450  0.943828E-06  0.777E-03    6.86       3.0  T
   4    -21.4369460 -0.103134E-05  0.436E-04    6.86      52.6  T
   5    -21.4369460 -0.638082E-09  0.223E-04    6.86     103.0  T
   6    -21.4369460 -0.234053E-10  0.691E-05    6.86     332.2  T
     SCC iter.                  ...        0 min,  0.002 sec
     gradient                   ...        0 min,  0.004 sec
 * total energy  :   -21.0396819 Eh     change       -0.1566197E-04 Eh
   gradient norm :     0.0005994 Eh/α   predicted    -0.1225629E-04 ( -21.74%)
   displ. norm   :     0.0478244 α      lambda       -0.9376356E-05
   maximum displ.:     0.0426532 α      in ANC's #3, #1, #9, ...

........................................................................
.............................. CYCLE    6 ..............................
........................................................................

 iter      E             dE          RMSdq      gap      omega  full diag
   1    -21.4366591 -0.214367E+02  0.252E-02    6.86       0.0  T
   2    -21.4366591 -0.184933E-07  0.149E-02    6.86       1.5  T
   3    -21.4366590  0.453610E-07  0.180E-03    6.86      12.8  T
   4    -21.4366591 -0.551033E-07  0.399E-04    6.86      57.5  T
   5    -21.4366591 -0.668411E-09  0.146E-04    6.86     157.1  T
     SCC iter.                  ...        0 min,  0.002 sec
     gradient                   ...        0 min,  0.004 sec
 * total energy  :   -21.0396920 Eh     change       -0.1011047E-04 Eh
   gradient norm :     0.0013859 Eh/α   predicted    -0.4694139E-05 ( -53.57%)
   displ. norm   :     0.0461000 α      lambda       -0.6887204E-05
   maximum displ.:     0.0382823 α      in ANC's #3, #2, #1, ...

........................................................................
.............................. CYCLE    7 ..............................
........................................................................

 iter      E             dE          RMSdq      gap      omega  full diag
   1    -21.4366665 -0.214367E+02  0.132E-02    6.86       0.0  T
   2    -21.4366665 -0.358702E-08  0.778E-03    6.86       2.9  T
   3    -21.4366664  0.605787E-07  0.196E-03    6.86      11.7  T
   4    -21.4366665 -0.665708E-07  0.181E-04    6.86     126.8  T
   5    -21.4366665 -0.190674E-10  0.624E-05    6.86     367.5  T
     SCC iter.                  ...        0 min,  0.002 sec
     gradient                   ...        0 min,  0.004 sec
 * total energy  :   -21.0397011 Eh     change       -0.9100355E-05 Eh
   gradient norm :     0.0009124 Eh/α   predicted    -0.3448297E-05 ( -62.11%)
   displ. norm   :     0.0818820 α      lambda       -0.1057730E-04
   maximum displ.:     0.0624231 α      in ANC's #3, #1, #2, ...

........................................................................
.............................. CYCLE    8 ..............................
........................................................................

 iter      E             dE          RMSdq      gap      omega  full diag
   1    -21.4368072 -0.214368E+02  0.186E-02    6.86       0.0  T
   2    -21.4368072 -0.802956E-08  0.111E-02    6.86       2.1  T
   3    -21.4368071  0.112406E-06  0.269E-03    6.86       8.5  T
   4    -21.4368072 -0.124220E-06  0.280E-04    6.86      81.9  T
   5    -21.4368072 -0.399112E-10  0.127E-04    6.86     180.4  T
     SCC iter.                  ...        0 min,  0.002 sec
     gradient                   ...        0 min,  0.004 sec
 * total energy  :   -21.0397136 Eh     change       -0.1251721E-04 Eh
   gradient norm :     0.0004552 Eh/α   predicted    -0.5304853E-05 ( -57.62%)
   displ. norm   :     0.1000571 α      lambda       -0.9506352E-05
   maximum displ.:     0.0756769 α      in ANC's #3, #1, #2, ...

........................................................................
.............................. CYCLE    9 ..............................
........................................................................

 iter      E             dE          RMSdq      gap      omega  full diag
   1    -21.4367573 -0.214368E+02  0.272E-02    6.85       0.0  T
   2    -21.4367574 -0.142944E-07  0.161E-02    6.85       1.4  T
   3    -21.4367574 -0.438188E-08  0.599E-04    6.85      38.3  T
   4    -21.4367574 -0.187952E-08  0.401E-04    6.85      57.3  T
     SCC iter.                  ...        0 min,  0.002 sec
     gradient                   ...        0 min,  0.004 sec
 * total energy  :   -21.0397237 Eh     change       -0.1009538E-04 Eh
   gradient norm :     0.0006816 Eh/α   predicted    -0.4782441E-05 ( -52.63%)
   displ. norm   :     0.0829227 α      lambda       -0.5762420E-05
   maximum displ.:     0.0598932 α      in ANC's #3, #1, #2, ...

........................................................................
.............................. CYCLE   10 ..............................
........................................................................

 iter      E             dE          RMSdq      gap      omega  full diag
   1    -21.4368619 -0.214369E+02  0.187E-02    6.86       0.0  T
   2    -21.4368619 -0.100544E-07  0.111E-02    6.86       2.1  T
   3    -21.4368619  0.108278E-08  0.636E-04    6.86      36.1  T
   4    -21.4368619 -0.416573E-08  0.361E-04    6.86      63.6  T
     SCC iter.                  ...        0 min,  0.002 sec
     gradient                   ...        0 min,  0.004 sec
 * total energy  :   -21.0397306 Eh     change       -0.6887345E-05 Eh
   gradient norm :     0.0004481 Eh/α   predicted    -0.2891537E-05 ( -58.02%)
   displ. norm   :     0.0968789 α      lambda       -0.5708744E-05
   maximum displ.:     0.0670057 α      in ANC's #3, #1, #2, ...

........................................................................
.............................. CYCLE   11 ..............................
........................................................................

 iter      E             dE          RMSdq      gap      omega  full diag
   1    -21.4368711 -0.214369E+02  0.200E-02    6.86       0.0  T
   2    -21.4368711 -0.106652E-07  0.119E-02    6.86       1.9  T
   3    -21.4368711  0.363850E-07  0.161E-03    6.86      14.3  T
   4    -21.4368711 -0.438035E-07  0.341E-04    6.86      67.4  T
   5    -21.4368711 -0.229878E-09  0.127E-04    6.86     180.7  T
     SCC iter.                  ...        0 min,  0.002 sec
     gradient                   ...        0 min,  0.004 sec
 * total energy  :   -21.0397378 Eh     change       -0.7212856E-05 Eh
   gradient norm :     0.0004592 Eh/α   predicted    -0.2870480E-05 ( -60.20%)
   displ. norm   :     0.1654102 α      lambda       -0.8477847E-05
   maximum displ.:     0.1091413 α      in ANC's #1, #3, #2, ...

........................................................................
.............................. CYCLE   12 ..............................
........................................................................

 iter      E             dE          RMSdq      gap      omega  full diag
   1    -21.4367035 -0.214367E+02  0.349E-02    6.86       0.0  T
   2    -21.4367035 -0.297396E-07  0.207E-02    6.86       1.1  T
   3    -21.4367034  0.110795E-06  0.281E-03    6.86       8.2  T
   4    -21.4367035 -0.133544E-06  0.581E-04    6.86      39.5  T
   5    -21.4367035 -0.403986E-09  0.164E-04    6.86     140.3  T
     SCC iter.                  ...        0 min,  0.002 sec
     gradient                   ...        0 min,  0.004 sec
 * total energy  :   -21.0397472 Eh     change       -0.9409792E-05 Eh
   gradient norm :     0.0006972 Eh/α   predicted    -0.4295589E-05 ( -54.35%)
   displ. norm   :     0.1584578 α      lambda       -0.6514143E-05
   maximum displ.:     0.1100953 α      in ANC's #1, #3, #2, ...

........................................................................
.............................. CYCLE   13 ..............................
........................................................................

 iter      E             dE          RMSdq      gap      omega  full diag
   1    -21.4367081 -0.214367E+02  0.326E-02    6.86       0.0  T
   2    -21.4367081 -0.279653E-07  0.193E-02    6.86       1.2  T
   3    -21.4367080  0.918561E-07  0.257E-03    6.86       8.9  T
   4    -21.4367081 -0.110795E-06  0.555E-04    6.86      41.3  T
   5    -21.4367081 -0.650584E-09  0.227E-04    6.86     101.2  T
     SCC iter.                  ...        0 min,  0.002 sec
     gradient                   ...        0 min,  0.004 sec
 * total energy  :   -21.0397543 Eh     change       -0.7026777E-05 Eh
   gradient norm :     0.0007376 Eh/α   predicted    -0.3297949E-05 ( -53.07%)
   displ. norm   :     0.1156469 α      lambda       -0.4998817E-05
   maximum displ.:     0.0841628 α      in ANC's #1, #3, #2, ...

........................................................................
.............................. CYCLE   14 ..............................
........................................................................

 iter      E             dE          RMSdq      gap      omega  full diag
   1    -21.4367975 -0.214368E+02  0.271E-02    6.86       0.0  T
   2    -21.4367975 -0.164443E-07  0.160E-02    6.86       1.4  T
   3    -21.4367974  0.958032E-07  0.254E-03    6.86       9.0  T
   4    -21.4367975 -0.110220E-06  0.404E-04    6.86      56.8  T
   5    -21.4367975 -0.130552E-09  0.139E-04    6.86     164.9  T
     SCC iter.                  ...        0 min,  0.002 sec
     gradient                   ...        0 min,  0.004 sec
 * total energy  :   -21.0397601 Eh     change       -0.5891266E-05 Eh
   gradient norm :     0.0006375 Eh/α   predicted    -0.2516979E-05 ( -57.28%)
   displ. norm   :     0.2156404 α      lambda       -0.7596896E-05
   maximum displ.:     0.1624933 α      in ANC's #1, #3, #2, ...

........................................................................
.............................. CYCLE   15 ..............................
........................................................................

 iter      E             dE          RMSdq      gap      omega  full diag
   1    -21.4365029 -0.214365E+02  0.537E-02    6.86       0.0  T
   2    -21.4365029 -0.584850E-07  0.318E-02    6.86       1.0  T
   3    -21.4365027  0.201555E-06  0.381E-03    6.86       6.0  T
   4    -21.4365030 -0.244007E-06  0.774E-04    6.86      29.7  T
   5    -21.4365030 -0.771134E-09  0.307E-04    6.86      74.8  T
     SCC iter.                  ...        0 min,  0.002 sec
     gradient                   ...        0 min,  0.004 sec
 * total energy  :   -21.0397670 Eh     change       -0.6842062E-05 Eh
   gradient norm :     0.0008161 Eh/α   predicted    -0.3878665E-05 ( -43.31%)
   displ. norm   :     0.0835813 α      lambda       -0.6021621E-05
   maximum displ.:     0.0671491 α      in ANC's #1, #2, #8, ...

........................................................................
.............................. CYCLE   16 ..............................
........................................................................

 iter      E             dE          RMSdq      gap      omega  full diag
   1    -21.4372572 -0.214373E+02  0.251E-02    6.86       0.0  T
   2    -21.4372573 -0.534380E-07  0.148E-02    6.86       1.5  T
   3    -21.4372572  0.536233E-07  0.205E-03    6.86      11.2  T
   4    -21.4372573 -0.612687E-07  0.682E-04    6.86      33.6  T
   5    -21.4372573 -0.593697E-08  0.232E-04    6.86      99.1  T
     SCC iter.                  ...        0 min,  0.002 sec
     gradient                   ...        0 min,  0.004 sec
 * total energy  :   -21.0397706 Eh     change       -0.3574296E-05 Eh
   gradient norm :     0.0008068 Eh/α   predicted    -0.3020583E-05 ( -15.49%)
   displ. norm   :     0.1280904 α      lambda       -0.3329427E-05
   maximum displ.:     0.0986932 α      in ANC's #1, #3, #2, ...

........................................................................
.............................. CYCLE   17 ..............................
........................................................................

 iter      E             dE          RMSdq      gap      omega  full diag
   1    -21.4366627 -0.214367E+02  0.331E-02    6.85       0.0  T
   2    -21.4366627 -0.307737E-07  0.196E-02    6.85       1.2  T
   3    -21.4366625  0.169973E-06  0.334E-03    6.85       6.9  T
   4    -21.4366627 -0.192610E-06  0.501E-04    6.85      45.8  T
   5    -21.4366627 -0.794241E-09  0.252E-04    6.85      90.9  T
     SCC iter.                  ...        0 min,  0.002 sec
     gradient                   ...        0 min,  0.004 sec
 * total energy  :   -21.0397726 Eh     change       -0.2044866E-05 Eh
   gradient norm :     0.0005190 Eh/α   predicted    -0.1681338E-05 ( -17.78%)
   displ. norm   :     0.0200295 α      lambda       -0.1408665E-05
   maximum displ.:     0.0115722 α      in ANC's #3, #5, #1, ...

........................................................................
.............................. CYCLE   18 ..............................
........................................................................

 iter      E             dE          RMSdq      gap      omega  full diag
   1    -21.4369000 -0.214369E+02  0.661E-03    6.85       0.0  T
   2    -21.4369000 -0.582742E-08  0.390E-03    6.85       5.9  T
   3    -21.4369000  0.387494E-10  0.310E-04    6.85      74.1  T
   4    -21.4369000 -0.451006E-09  0.197E-04    6.85     116.6  T
     SCC iter.                  ...        0 min,  0.002 sec
     gradient                   ...        0 min,  0.004 sec
 * total energy  :   -21.0397740 Eh     change       -0.1424395E-05 Eh
   gradient norm :     0.0003146 Eh/α   predicted    -0.7067974E-06 ( -50.38%)
   displ. norm   :     0.0291931 α      lambda       -0.1270108E-05
   maximum displ.:     0.0220089 α      in ANC's #1, #5, #2, ...

........................................................................
.............................. CYCLE   19 ..............................
........................................................................

 iter      E             dE          RMSdq      gap      omega  full diag
   1    -21.4369916 -0.214370E+02  0.118E-02    6.85       0.0  T
   2    -21.4369916 -0.372137E-08  0.695E-03    6.85       3.3  T
   3    -21.4369916  0.663611E-09  0.379E-04    6.85      60.6  T
   4    -21.4369916 -0.169328E-08  0.183E-04    6.85     125.1  T
     SCC iter.                  ...        0 min,  0.002 sec
     gradient                   ...        0 min,  0.004 sec
 * total energy  :   -21.0397754 Eh     change       -0.1392927E-05 Eh
   gradient norm :     0.0003153 Eh/α   predicted    -0.6362031E-06 ( -54.33%)
   displ. norm   :     0.0408263 α      lambda       -0.1302841E-05
   maximum displ.:     0.0310678 α      in ANC's #1, #5, #2, ...

........................................................................
.............................. CYCLE   20 ..............................
........................................................................

 iter      E             dE          RMSdq      gap      omega  full diag
   1    -21.4370508 -0.214371E+02  0.157E-02    6.85       0.0  T
   2    -21.4370508 -0.558072E-08  0.928E-03    6.85       2.5  T
   3    -21.4370508  0.647513E-08  0.750E-04    6.85      30.6  T
   4    -21.4370508 -0.874824E-08  0.204E-04    6.85     112.5  T
     SCC iter.                  ...        0 min,  0.002 sec
     gradient                   ...        0 min,  0.004 sec
 * total energy  :   -21.0397769 Eh     change       -0.1450807E-05 Eh
   gradient norm :     0.0003448 Eh/α   predicted    -0.6561631E-06 ( -54.77%)
   displ. norm   :     0.0375132 α      lambda       -0.1139670E-05
   maximum displ.:     0.0294769 α      in ANC's #1, #5, #2, ...
 * RMSD in coord.:     0.2482914 α      energy gain  -0.1164724E-02 Eh

generating ANC from exact Hessian ...
Using Lindh-Hessian (1995)
 Shifting diagonal of input Hessian by   9.814558142927230E-003
 Lowest  eigenvalues of input Hessian
    0.000000    0.000000    0.000000    0.000000    0.000000    0.010000
    0.000000    0.010995    0.011760    0.014395    0.015175    0.017273
    0.020892    0.022282    0.028761    0.035736    0.051235    0.058615
 Highest eigenvalues
    1.178224    1.197538    1.237994    1.262049    1.287406    2.552091
 

........................................................................
.............................. CYCLE   21 ..............................
........................................................................

 iter      E             dE          RMSdq      gap      omega  full diag
   1    -21.4370181 -0.214370E+02  0.151E-02    6.85       0.0  T
   2    -21.4370181 -0.623719E-08  0.889E-03    6.85       2.6  T
   3    -21.4370181  0.908434E-08  0.829E-04    6.85      27.7  T
   4    -21.4370181 -0.108846E-07  0.227E-04    6.85     101.3  T
     SCC iter.                  ...        0 min,  0.002 sec
     gradient                   ...        0 min,  0.004 sec
 * total energy  :   -21.0397783 Eh     change       -0.1394860E-05 Eh
   gradient norm :     0.0002382 Eh/α   predicted     0.0000000E+00 (-100.00%)
   displ. norm   :     0.0088339 α      lambda       -0.7932483E-07
   maximum displ.:     0.0057892 α      in ANC's #1, #3, #7, ...

........................................................................
.............................. CYCLE   22 ..............................
........................................................................

 iter      E             dE          RMSdq      gap      omega  full diag
   1    -21.4369164 -0.214369E+02  0.793E-03    6.85       0.0  T
   2    -21.4369164 -0.145895E-08  0.468E-03    6.85       4.9  T
   3    -21.4369164 -0.454680E-09  0.121E-04    6.85     188.9  T
   4    -21.4369164 -0.659952E-10  0.719E-05    6.85     319.2  T
     SCC iter.                  ...        0 min,  0.002 sec
     gradient                   ...        0 min,  0.004 sec
 * total energy  :   -21.0397789 Eh     change       -0.6595415E-06 Eh
   gradient norm :     0.0001776 Eh/α   predicted    -0.3330763E-06 ( -49.50%)
   displ. norm   :     0.0235279 α      lambda       -0.1198563E-05
   maximum displ.:     0.0147367 α      in ANC's #3, #7, #2, ...

........................................................................
.............................. CYCLE   23 ..............................
........................................................................

 iter      E             dE          RMSdq      gap      omega  full diag
   1    -21.4367665 -0.214368E+02  0.267E-02    6.85       0.0  T
   2    -21.4367665 -0.101137E-07  0.158E-02    6.85       1.5  T
   3    -21.4367665 -0.328951E-08  0.466E-04    6.85      49.3  T
   4    -21.4367665 -0.125884E-08  0.309E-04    6.85      74.3  T
     SCC iter.                  ...        0 min,  0.002 sec
     gradient                   ...        0 min,  0.004 sec
 * total energy  :   -21.0397789 Eh     change        0.5433911E-07 Eh
   gradient norm :     0.0004878 Eh/α   predicted    -0.6040042E-06 (*******%)
   displ. norm   :     0.0179687 α      lambda       -0.1837731E-05
   maximum displ.:     0.0138144 α      in ANC's #1, #7, #3, ...

........................................................................
.............................. CYCLE   24 ..............................
........................................................................

 iter      E             dE          RMSdq      gap      omega  full diag
   1    -21.4368380 -0.214368E+02  0.104E-02    6.85       0.0  T
   2    -21.4368380 -0.499018E-08  0.620E-03    6.85       3.7  T
   3    -21.4368380 -0.150178E-08  0.279E-04    6.85      82.3  T
   4    -21.4368380 -0.452104E-09  0.178E-04    6.85     129.2  T
     SCC iter.                  ...        0 min,  0.002 sec
     gradient                   ...        0 min,  0.004 sec
 * total energy  :   -21.0397800 Eh     change       -0.1158426E-05 Eh
   gradient norm :     0.0003158 Eh/α   predicted    -0.9212652E-06 ( -20.47%)
   displ. norm   :     0.0062817 α      lambda       -0.5599356E-06
   maximum displ.:     0.0030375 α      in ANC's #5, #7, #4, ...

........................................................................
.............................. CYCLE   25 ..............................
........................................................................

 iter      E             dE          RMSdq      gap      omega  full diag
   1    -21.4369945 -0.214370E+02  0.324E-03    6.85       0.0  T
   2    -21.4369946 -0.126441E-08  0.191E-03    6.85      12.0  T
   3    -21.4369946  0.182482E-09  0.194E-04    6.85     118.2  T
   4    -21.4369946 -0.319005E-09  0.111E-04    6.85     207.1  T
     SCC iter.                  ...        0 min,  0.002 sec
     gradient                   ...        0 min,  0.004 sec
 * total energy  :   -21.0397805 Eh     change       -0.4688572E-06 Eh
   gradient norm :     0.0001143 Eh/α   predicted    -0.2841369E-06 ( -39.40%)
   displ. norm   :     0.0117602 α      lambda       -0.3343881E-06
   maximum displ.:     0.0080827 α      in ANC's #3, #1, #2, ...

........................................................................
.............................. CYCLE   26 ..............................
........................................................................

 iter      E             dE          RMSdq      gap      omega  full diag
   1    -21.4370025 -0.214370E+02  0.548E-03    6.85       0.0  T
   2    -21.4370025 -0.599027E-09  0.323E-03    6.86       7.1  T
   3    -21.4370025  0.698762E-08  0.667E-04    6.85      34.4  T
   4    -21.4370025 -0.773273E-08  0.704E-05    6.86     326.0  T
     SCC iter.                  ...        0 min,  0.002 sec
     gradient                   ...        0 min,  0.004 sec
 * total energy  :   -21.0397809 Eh     change       -0.3893196E-06 Eh
   gradient norm :     0.0001238 Eh/α   predicted    -0.1693189E-06 ( -56.51%)
   displ. norm   :     0.0416232 α      lambda       -0.7625644E-06
   maximum displ.:     0.0281308 α      in ANC's #3, #1, #2, ...

........................................................................
.............................. CYCLE   27 ..............................
........................................................................

 iter      E             dE          RMSdq      gap      omega  full diag
   1    -21.4369126 -0.214369E+02  0.329E-02    6.85       0.0  T
   2    -21.4369126 -0.148904E-07  0.194E-02    6.85       1.2  T
   3    -21.4369126  0.290370E-07  0.153E-03    6.85      15.0  T
   4    -21.4369126 -0.386795E-07  0.329E-04    6.85      69.8  T
   5    -21.4369126 -0.151182E-09  0.110E-04    6.85     209.5  T
     SCC iter.                  ...        0 min,  0.002 sec
     gradient                   ...        0 min,  0.004 sec
 * total energy  :   -21.0397816 Eh     change       -0.6741930E-06 Eh
   gradient norm :     0.0002095 Eh/α   predicted    -0.3840899E-06 ( -43.03%)
   displ. norm   :     0.0242962 α      lambda       -0.3272534E-06
   maximum displ.:     0.0152263 α      in ANC's #3, #1, #2, ...

........................................................................
.............................. CYCLE   28 ..............................
........................................................................

 iter      E             dE          RMSdq      gap      omega  full diag
   1    -21.4369660 -0.214370E+02  0.156E-02    6.86       0.0  T
   2    -21.4369660 -0.365287E-08  0.918E-03    6.86       2.5  T
   3    -21.4369660  0.265266E-08  0.546E-04    6.86      42.0  T
   4    -21.4369660 -0.466500E-08  0.155E-04    6.86     147.7  T
     SCC iter.                  ...        0 min,  0.002 sec
     gradient                   ...        0 min,  0.004 sec
 * total energy  :   -21.0397819 Eh     change       -0.3073958E-06 Eh
   gradient norm :     0.0001426 Eh/α   predicted    -0.1654215E-06 ( -46.19%)
   displ. norm   :     0.0265972 α      lambda        0.9222695E-07
   maximum displ.:     0.0166637 α      in ANC's #3, #1, #2, ...

........................................................................
.............................. CYCLE   29 ..............................
........................................................................

 iter      E             dE          RMSdq      gap      omega  full diag
   1    -21.4370051 -0.214370E+02  0.175E-02    6.86       0.0  T
   2    -21.4370051 -0.446907E-08  0.103E-02    6.86       2.2  T
   3    -21.4370051  0.464436E-08  0.672E-04    6.86      34.1  T
   4    -21.4370051 -0.725031E-08  0.172E-04    6.86     133.7  T
     SCC iter.                  ...        0 min,  0.002 sec
     gradient                   ...        0 min,  0.004 sec
 * total energy  :   -21.0397818 Eh     change        0.6675190E-07 Eh
   gradient norm :     0.0003151 Eh/α   predicted     0.4519217E-07 ( -32.30%)
   displ. norm   :     0.0143321 α      lambda       -0.2567592E-06
   maximum displ.:     0.0099813 α      in ANC's #3, #1, #7, ...

........................................................................
.............................. CYCLE   30 ..............................
........................................................................

 iter      E             dE          RMSdq      gap      omega  full diag
   1    -21.4369523 -0.214370E+02  0.675E-03    6.85       0.0  T
   2    -21.4369523 -0.646036E-09  0.398E-03    6.85       5.8  T
   3    -21.4369523  0.148882E-07  0.959E-04    6.85      23.9  T
   4    -21.4369523 -0.162941E-07  0.702E-05    6.85     327.0  T
     SCC iter.                  ...        0 min,  0.002 sec
     gradient                   ...        0 min,  0.004 sec
 * total energy  :   -21.0397820 Eh     change       -0.2233774E-06 Eh
   gradient norm :     0.0000676 Eh/α   predicted    -0.1306690E-06 ( -41.50%)
   displ. norm   :     0.0049590 α      lambda       -0.3148194E-07
   maximum displ.:     0.0038846 α      in ANC's #3, #1, #9, ...

........................................................................
.............................. CYCLE   31 ..............................
........................................................................

 iter      E             dE          RMSdq      gap      omega  full diag
   1    -21.4369573 -0.214370E+02  0.261E-03    6.85       0.0  T
   2    -21.4369573 -0.149569E-09  0.154E-03    6.85      14.9  T
   3    -21.4369573  0.296026E-09  0.153E-04    6.85     149.5  T
   4    -21.4369573 -0.377746E-09  0.317E-05    6.85     724.2  T
     SCC iter.                  ...        0 min,  0.002 sec
     gradient                   ...        0 min,  0.004 sec
 * total energy  :   -21.0397821 Eh     change       -0.3686857E-07 Eh
   gradient norm :     0.0000397 Eh/α   predicted    -0.1941936E-07 ( -47.33%)
   displ. norm   :     0.0049590 α      lambda        0.0000000E+00
   maximum displ.:     0.0038846 α      in ANC's #3, #1, #9, ...

   *** GEOMETRY OPTIMIZATION CONVERGED AFTER 31 ITERATIONS ***

------------------------------------------------------------------------
 total energy gain   :        -0.0011699 Eh       -0.7341 kcal/mol
 total RMSD          :         0.2550255 a0        0.1350 Å
 total power (kW/mol):        -0.0990843 (step)  -10.3496 (real)
------------------------------------------------------------------------

 ANCopt (total)                0 d,  0 h,  0 min,  0.297 sec
 optimizer setup                ...        0 min,  0.001 sec (  0.201%)
 model hessian                  ...        0 min,  0.015 sec (  5.163%)
 ANC generation                 ...        0 min,  0.001 sec (  0.275%)
 coordinate transformation      ...        0 min,  0.000 sec (  0.069%)
 single point calculation       ...        0 min,  0.267 sec ( 90.012%)
 optimization log               ...        0 min,  0.009 sec (  3.091%)
 hessian update                 ...        0 min,  0.000 sec (  0.078%)
 rational function              ...        0 min,  0.002 sec (  0.631%)

================
 final structure:
================
$coord
       -5.22223754505380        0.53272141421914        0.98262639687172      C
       -3.18597229254224       -1.35426375047326        0.20981917646840      C
       -1.39339611221813       -0.34273977156977       -1.82116210466083      C
        0.13786859240021        1.98435700667177       -1.05118359928960      C
        1.94456510802837        1.49960074385540        1.16284116459694      C
        3.76255033327522       -0.46385275520710        0.58604675577066      C
        5.25257386484067       -2.08781733682018        0.07624250027236      C
       -4.40727974788189        2.15931846895585        1.93552135494912      H
       -6.55930561246587       -0.35308338555368        2.26772111035920      H
       -6.25166653998194        1.19316503990874       -0.66987209626479      H
       -2.10770653692335       -1.93130954555134        1.87051168661664      H
       -4.09848783328217       -3.04898077058970       -0.53800094939421      H
       -2.49973530867185        0.13542814526819       -3.49843555343710      H
       -0.07856438256227       -1.84719928214864       -2.34403460541461      H
       -1.13333891337401        3.52540634223125       -0.54284531208539      H
        1.24402801440789        2.59686661043575       -2.68391884588034      H
        0.88170882974288        0.95143812108744        2.84549747677809      H
        2.97225174492928        3.23915113561000        1.59681861596324      H
        6.56624633725347       -3.50785059749228       -0.35359334551556      H
$end
 
 Bond Distances (Angstroems)
 ---------------------------
C1-C2=1.5249         C1-H8=1.0868         C1-H9=1.0876         C1-H10=1.0879        C2-C1=1.5249         C2-C3=1.5302         
C2-H11=1.0914        C2-H12=1.0927        C3-C2=1.5302         C3-C4=1.5294         C3-H13=1.0930        C3-H14=1.0929        
C4-C3=1.5294         C4-C5=1.5338         C4-H15=1.0908        C4-H16=1.0928        C5-C4=1.5338         C5-C6=1.4485         
C5-H17=1.0924        C5-H18=1.0936        C6-C5=1.4485         C6-C7=1.1971         C7-C6=1.1971         C7-H19=1.0487        
H8-C1=1.0868         H9-C1=1.0876         H10-C1=1.0879        H11-C2=1.0914        H12-C2=1.0927        H13-C3=1.0930        
H14-C3=1.0929        H15-C4=1.0908        H16-C4=1.0928        H17-C5=1.0924        H18-C5=1.0936        H19-C7=1.0487        
 C  H  Rav=1.0875 sigma=0.0119  Rmin=1.0487  Rmax=1.0936    12
 C  C  Rav=1.4607 sigma=0.1216  Rmin=1.1971  Rmax=1.5338     6
 
 selected bond angles (degree)
 --------------------
H8-C1-C2=111.26                H9-C1-C2=110.19                H9-C1-H8=108.02                H10-C1-C2=110.40               
H10-C1-H8=108.49               H10-C1-H9=108.38               C3-C2-C1=113.41                H11-C2-C1=109.68               
H11-C2-C3=109.84               H12-C2-C1=108.80               H12-C2-C3=107.86               H12-C2-H11=107.04              
C4-C3-C2=115.02                H13-C3-C2=108.62               H13-C3-C4=108.28               H14-C3-C2=108.52               
H14-C3-C4=108.46               H14-C3-H13=107.70              C5-C4-C3=113.52                H15-C4-C3=109.93               
H15-C4-C5=108.73               H16-C4-C3=108.18               H16-C4-C5=108.64               H16-C4-H15=107.67              
C6-C5-C4=111.90                H17-C5-C4=110.25               H17-C5-C6=108.86               H18-C5-C4=109.25               
H18-C5-C6=108.53               H18-C5-H17=107.96              C7-C6-C5=179.10                H19-C7-C6=179.45               
 
 selected dihedral angles (degree)
 ---------------------------------
C3-C2-C1-H8=293.52            C3-C2-C1-H9=173.73            C3-C2-C1-H10= 54.04           H11-C2-C1-H8= 56.72           
H11-C2-C1-H9=296.92           H11-C2-C1-H10=177.24          H12-C2-C1-H8=173.49           H12-C2-C1-H9= 53.70           
H12-C2-C1-H10=294.01          C4-C3-C2-C1= 61.84            C4-C3-C2-H11=298.73           C4-C3-C2-H12=182.41           
H13-C3-C2-C1=300.33           H13-C3-C2-H11=177.22          H13-C3-C2-H12= 60.90          H14-C3-C2-C1=183.51           
H14-C3-C2-H11= 60.40          H14-C3-C2-H12=304.07          C5-C4-C3-C2= 62.98            C5-C4-C3-H13=184.68           
C5-C4-C3-H14=301.29           H15-C4-C3-C2=300.96           H15-C4-C3-H13= 62.65          H15-C4-C3-H14=179.26          
H16-C4-C3-C2=183.64           H16-C4-C3-H13=305.33          H16-C4-C3-H14= 61.94          C6-C5-C4-C3= 59.59            
C6-C5-C4-H15=182.28           C6-C5-C4-H16=299.19           H17-C5-C4-C3=298.28           H17-C5-C4-H15= 60.97          
H17-C5-C4-H16=177.89          H18-C5-C4-C3=179.79           H18-C5-C4-H15=302.49          H18-C5-C4-H16= 59.40          
C7-C6-C5-C4=  5.34            C7-C6-C5-H17=127.45           C7-C6-C5-H18=244.72           H19-C7-C6-C5=171.69           
           -------------------------------------------------
          |                Final Singlepoint                |
           -------------------------------------------------

          ...................................................
          :                      SETUP                      :
          :.................................................:
          :  # basis functions                  40          :
          :  # atomic orbitals                  40          :
          :  # shells                           26          :
          :  # electrons                        40          :
          :  max. iterations                   250          :
          :  Hamiltonian                  GFN2-xTB          :
          :  restarted?                      false          :
          :  GBSA solvation                   true          :
          :  PC potential                    false          :
          :  electronic temp.          300.0000000     K    :
          :  accuracy                    1.0000000          :
          :  -> integral cutoff          0.2500000E+02      :
          :  -> integral neglect         0.1000000E-07      :
          :  -> SCF convergence          0.1000000E-05 Eh   :
          :  -> wf. convergence          0.1000000E-03 e    :
          :  Broyden damping             0.4000000          :
          :  net charge                          0          :
          :  unpaired electrons                  0          :
          ...................................................

 iter      E             dE          RMSdq      gap      omega  full diag
   1    -21.4369573 -0.214370E+02  0.129E-05    6.85       0.0  T
   2    -21.4369573 -0.959233E-13  0.820E-06    6.85    2797.3  T
   3    -21.4369573  0.198952E-12  0.649E-06    6.85    3532.4  T

   *** convergence criteria satisfied after 3 iterations ***

         #    Occupation            Energy/Eh            Energy/eV
      -------------------------------------------------------------
         1        2.0000           -0.6237390             -16.9728
       ...           ...                  ...                  ...
        14        2.0000           -0.4497527             -12.2384
        15        2.0000           -0.4479745             -12.1900
        16        2.0000           -0.4243451             -11.5470
        17        2.0000           -0.4223681             -11.4932
        18        2.0000           -0.4187300             -11.3942
        19        2.0000           -0.3982270             -10.8363
        20        2.0000           -0.3957113             -10.7679 (HOMO)
        21                         -0.1437987              -3.9130 (LUMO)
        22                         -0.1389817              -3.7819
        23                          0.0706581               1.9227
        24                          0.0992571               2.7009
        25                          0.1014529               2.7607
       ...                                ...                  ...
        40                          1.4424329              39.2506
      -------------------------------------------------------------
                  HL-Gap            0.2519126 Eh            6.8549 eV
             Fermi-level           -0.2697550 Eh           -7.3404 eV

 SCC (total)                   0 d,  0 h,  0 min,  0.008 sec
 SCC setup                      ...        0 min,  0.001 sec ( 13.937%)
 Dispersion                     ...        0 min,  0.000 sec (  0.866%)
 classical contributions        ...        0 min,  0.000 sec (  0.221%)
 integral evaluation            ...        0 min,  0.001 sec ( 16.180%)
 iterations                     ...        0 min,  0.001 sec ( 17.228%)
 molecular gradient             ...        0 min,  0.004 sec ( 49.759%)
 printout                       ...        0 min,  0.000 sec (  1.621%)

         :::::::::::::::::::::::::::::::::::::::::::::::::::::
         ::                     SUMMARY                     ::
         :::::::::::::::::::::::::::::::::::::::::::::::::::::
         :: total energy             -21.039782066684 Eh    ::
         :: total w/o Gsasa/hb       -21.038626146922 Eh    ::
         :: gradient norm              0.000039717029 Eh/a0 ::
         :: HOMO-LUMO gap              6.854889641636 eV    ::
         ::.................................................::
         :: SCC energy               -21.436918138327 Eh    ::
         :: -> isotropic ES            0.005894143563 Eh    ::
         :: -> anisotropic ES          0.004160836595 Eh    ::
         :: -> anisotropic XC          0.018350383930 Eh    ::
         :: -> dispersion             -0.011838498039 Eh    ::
         :: -> Gsolv                  -0.001896759966 Eh    ::
         ::    -> Gelec               -0.000740840205 Eh    ::
         ::    -> Gsasa               -0.001430169210 Eh    ::
         ::    -> Ghb                 -0.000806510250 Eh    ::
         ::    -> Gshift               0.001080759698 Eh    ::
         :: repulsion energy           0.397136071643 Eh    ::
         :: add. restraining           0.000000000000 Eh    ::
         :: total charge               0.000000000000 e     ::
         :::::::::::::::::::::::::::::::::::::::::::::::::::::

           ------------------------------------------------- 
          |                Numerical Hessian                |
           ------------------------------------------------- 
step length          :   0.00500
SCC accuracy         :   0.30000
Hessian scale factor :   1.00000
frozen atoms in %    :   0.00000    0
RMS gradient         :   0.00004
estimated CPU  time      0.02 min
estimated wall time      0.02 min

writing file <hessian>.

 projected vibrational frequencies (cm⁻¹)
eigval :       -0.00    -0.00    -0.00     0.00     0.00     0.00
eigval :       29.15    67.59   138.53   181.03   257.90   267.64
eigval :      313.02   359.24   437.81   506.95   635.26   663.54
eigval :      757.65   812.01   875.63   920.06   924.13  1008.24
eigval :     1012.94  1060.24  1102.20  1113.93  1153.07  1170.09
eigval :     1199.06  1247.02  1283.88  1314.12  1339.70  1354.87
eigval :     1363.16  1411.76  1445.36  1478.99  1485.54  1500.81
eigval :     1503.77  1511.26  2291.49  2947.41  2955.42  2959.76
eigval :     2962.76  2971.34  2977.25  2986.78  2992.36  3024.74
eigval :     3028.98  3042.27  3399.32
           -------------------------------------------------
          |                Property Printout                |
           -------------------------------------------------

    * Orbital Energies and Occupations

         #    Occupation            Energy/Eh            Energy/eV
      -------------------------------------------------------------
         1        2.0000           -0.6237390             -16.9728
       ...           ...                  ...                  ...
         8        2.0000           -0.5139335             -13.9848
         9        2.0000           -0.5039701             -13.7137
        10        2.0000           -0.4857926             -13.2191
        11        2.0000           -0.4833401             -13.1524
        12        2.0000           -0.4768414             -12.9755
        13        2.0000           -0.4570188             -12.4361
        14        2.0000           -0.4497527             -12.2384
        15        2.0000           -0.4479745             -12.1900
        16        2.0000           -0.4243452             -11.5470
        17        2.0000           -0.4223681             -11.4932
        18        2.0000           -0.4187300             -11.3942
        19        2.0000           -0.3982270             -10.8363
        20        2.0000           -0.3957113             -10.7679 (HOMO)
        21                         -0.1437987              -3.9130 (LUMO)
        22                         -0.1389817              -3.7819
        23                          0.0706581               1.9227
        24                          0.0992571               2.7009
        25                          0.1014529               2.7607
        26                          0.1248698               3.3979
        27                          0.1385519               3.7702
        28                          0.1403857               3.8201
        29                          0.1546577               4.2085
        30                          0.1608363               4.3766
        31                          0.1996276               5.4321
       ...                                ...                  ...
        40                          1.4424329              39.2506
      -------------------------------------------------------------
                  HL-Gap            0.2519126 Eh            6.8549 eV
             Fermi-level           -0.2697550 Eh           -7.3404 eV

     #   Z          covCN         q      C6AA      α(0)
     1   6 C        3.751    -0.109    22.638     6.785
     2   6 C        3.799    -0.056    21.577     6.614
     3   6 C        3.801    -0.061    21.666     6.627
     4   6 C        3.805    -0.055    21.558     6.610
     5   6 C        3.803    -0.047    21.418     6.589
     6   6 C        1.966    -0.030    31.864     9.116
     7   6 C        1.909    -0.138    35.005     9.555
     8   1 H        0.925     0.038     2.474     2.460
     9   1 H        0.925     0.034     2.534     2.490
    10   1 H        0.925     0.036     2.508     2.477
    11   1 H        0.924     0.032     2.553     2.499
    12   1 H        0.924     0.027     2.626     2.534
    13   1 H        0.924     0.030     2.581     2.512
    14   1 H        0.924     0.031     2.575     2.509
    15   1 H        0.924     0.039     2.460     2.453
    16   1 H        0.924     0.032     2.559     2.502
    17   1 H        0.924     0.060     2.201     2.320
    18   1 H        0.924     0.057     2.235     2.338
    19   1 H        0.928     0.079     1.989     2.205

 Mol. C6AA /au·bohr⁶  :       2866.651013
 Mol. C8AA /au·bohr⁸  :      63693.582327
 Mol. α(0) /au        :         81.193815


Wiberg/Mayer (AO) data.
largest (>0.10) Wiberg bond orders for each atom

 ---------------------------------------------------------------------------
     #   Z sym  total        # sym  WBO       # sym  WBO       # sym  WBO
 ---------------------------------------------------------------------------
     1   6 C    3.997 --     2 C    1.020    10 H    0.988     9 H    0.987
                             8 H    0.986
     2   6 C    3.998 --     1 C    1.020     3 C    1.008    12 H    0.978
                            11 H    0.976
     3   6 C    3.997 --     4 C    1.009     2 C    1.008    13 H    0.977
                            14 H    0.976
     4   6 C    3.997 --     3 C    1.009     5 C    0.986    16 H    0.978
                            15 H    0.974
     5   6 C    3.997 --     6 C    1.055     4 C    0.986    18 H    0.954
                            17 H    0.952
     6   6 C    3.978 --     7 C    2.892     5 C    1.055
     7   6 C    3.972 --     6 C    2.892    19 H    0.970
     8   1 H    0.999 --     1 C    0.986
     9   1 H    0.999 --     1 C    0.987
    10   1 H    0.999 --     1 C    0.988
    11   1 H    0.999 --     2 C    0.976
    12   1 H    0.999 --     2 C    0.978
    13   1 H    0.999 --     3 C    0.977
    14   1 H    0.999 --     3 C    0.976
    15   1 H    0.998 --     4 C    0.974
    16   1 H    0.999 --     4 C    0.978
    17   1 H    0.996 --     5 C    0.952
    18   1 H    0.997 --     5 C    0.954
    19   1 H    0.993 --     7 C    0.970
 ---------------------------------------------------------------------------

Topologies differ in total number of bonds
Writing topology from bond orders to xtbtopo.mol

molecular dipole:
                 x           y           z       tot (Debye)
 q only:       -0.243       0.261       0.087
   full:       -0.225       0.238       0.073       0.853
molecular quadrupole (traceless):
                xx          xy          yy          xz          yz          zz
 q only:       -1.332       0.136       1.067      -0.148       0.587       0.265
  q+dip:       -0.975      -2.249       2.041      -0.919       1.357      -1.065
   full:       -1.166      -0.749       1.415      -0.444       0.882      -0.249

           -------------------------------------------------
          |                Geometry Summary                 |
           -------------------------------------------------

      molecular mass/u    :       96.1704403
   center of mass at/Å    :       -0.0001616       0.0019294       0.0089624
  moments of inertia/u·Å² :        0.9711828E+02   0.3783020E+03   0.4000612E+03
rotational constants/cm⁻¹ :        0.1735784E+00   0.4456130E-01   0.4213764E-01

 * 17 selected distances

     #   Z          #   Z                                           value/Å
     1   6 C        2   6 C                                       1.5249416
     2   6 C        3   6 C                                       1.5301730
     3   6 C        4   6 C                                       1.5294063
     4   6 C        5   6 C                                       1.5337970 (max)
     6   6 C        7   6 C                                       1.1970794
     1   6 C        8   1 H                                       1.0868099
     1   6 C        9   1 H                                       1.0875680
     1   6 C       10   1 H                                       1.0879273
     2   6 C       11   1 H                                       1.0913809
     2   6 C       12   1 H                                       1.0927203
     3   6 C       13   1 H                                       1.0929627
     3   6 C       14   1 H                                       1.0929242
     4   6 C       15   1 H                                       1.0908254
     4   6 C       16   1 H                                       1.0927967
     5   6 C       17   1 H                                       1.0923990
     5   6 C       18   1 H                                       1.0935563
     7   6 C       19   1 H                                       1.0486511 (min)

 * 2 distinct bonds (by element types)

   Z      Z             #   av. dist./Å        max./Å        min./Å
   1 H    6 C          12     1.0875435     1.0935563     1.0486511
   6 C    6 C           5     1.4630795     1.5337970     1.1970794

           -------------------------------------------------
          |               Frequency Printout                |
           -------------------------------------------------
 projected vibrational frequencies (cm⁻¹)
eigval :       -0.00    -0.00    -0.00     0.00     0.00     0.00
eigval :       29.15    67.59   138.53   181.03   257.90   267.64
eigval :      313.02   359.24   437.81   506.95   635.26   663.54
eigval :      757.65   812.01   875.63   920.06   924.13  1008.24
eigval :     1012.94  1060.24  1102.20  1113.93  1153.07  1170.09
eigval :     1199.06  1247.02  1283.88  1314.12  1339.70  1354.87
eigval :     1363.16  1411.76  1445.36  1478.99  1485.54  1500.81
eigval :     1503.77  1511.26  2291.49  2947.41  2955.42  2959.76
eigval :     2962.76  2971.34  2977.25  2986.78  2992.36  3024.74
eigval :     3028.98  3042.27  3399.32
 reduced masses (amu)
   1:  9.92   2:  9.55   3: 10.38   4: 10.43   5: 10.17   6:  9.96   7:  9.38   8:  8.07
   9:  8.76  10:  5.18  11:  7.59  12:  7.29  13:  8.66  14:  7.36  15:  7.75  16:  8.89
  17:  2.36  18:  2.92  19:  3.47  20:  5.02  21:  6.85  22:  6.61  23:  6.34  24:  5.91
  25:  6.08  26:  6.03  27:  6.31  28:  4.66  29:  7.22  30:  4.41  31:  4.20  32:  3.20
  33:  2.37  34:  4.84  35:  4.44  36:  4.53  37:  4.78  38:  3.25  39:  2.00  40:  1.84
  41:  1.93  42:  1.57  43:  1.84  44:  1.65  45: 11.02  46:  1.92  47:  1.89  48:  1.91
  49:  1.79  50:  1.58  51:  1.61  52:  1.55  53:  1.59  54:  1.92  55:  1.85  56:  1.37
  57:  2.54
 IR intensities (km·mol⁻¹)
   1:  0.13   2:  0.01   3:  0.04   4:  0.02   5:  0.05   6:  0.03   7:  0.09   8:  0.24
   9:  0.00  10:  0.04  11:  0.07  12:  0.22  13:  0.25  14:  1.49  15:  2.02  16:  1.23
  17: 30.69  18: 21.58  19: 20.38  20:  4.56  21:  2.67  22:  5.02  23:  2.26  24:  4.31
  25:  0.49  26:  0.65  27:  2.52  28:  1.34  29:  1.49  30:  0.22  31:  1.39  32:  0.32
  33:  0.53  34:  0.20  35:  6.47  36:  6.01  37:  4.40  38:  1.37  39:  2.18  40:  1.79
  41:  0.13  42:  0.73  43:  1.48  44:  0.59  45: 31.31  46: 37.90  47: 35.97  48: 78.49
  49: 56.30  50: 35.46  51:175.35  52: 74.82  53: 91.81  54: 91.62  55: 82.10  56: 45.77
  57:  3.62
 Raman intensities (Ä⁴*amu⁻¹)
   1:  0.00   2:  0.00   3:  0.00   4:  0.00   5:  0.00   6:  0.00   7:  0.00   8:  0.00
   9:  0.00  10:  0.00  11:  0.00  12:  0.00  13:  0.00  14:  0.00  15:  0.00  16:  0.00
  17:  0.00  18:  0.00  19:  0.00  20:  0.00  21:  0.00  22:  0.00  23:  0.00  24:  0.00
  25:  0.00  26:  0.00  27:  0.00  28:  0.00  29:  0.00  30:  0.00  31:  0.00  32:  0.00
  33:  0.00  34:  0.00  35:  0.00  36:  0.00  37:  0.00  38:  0.00  39:  0.00  40:  0.00
  41:  0.00  42:  0.00  43:  0.00  44:  0.00  45:  0.00  46:  0.00  47:  0.00  48:  0.00
  49:  0.00  50:  0.00  51:  0.00  52:  0.00  53:  0.00  54:  0.00  55:  0.00  56:  0.00
  57:  0.00
 output can be read by thermo (or use thermo option).
 writing <g98.out> molden fake output.
 recommended (thermochemical) frequency scaling factor: 1.0
           -------------------------------------------------
          |             Thermodynamic Functions             |
           -------------------------------------------------

Molecule has no symmetry elements
It seems to be the C1 point group
c1  symmetry found (for desy threshold:  0.10E+00) used in thermo

          ...................................................
          :                      SETUP                      :
          :.................................................:
          :  # frequencies                          51      :
          :  # imaginary freq.                       0      :
          :  linear?                             false      :
          :  only rotor calc.                    false      :
          :  symmetry                               c1      :
          :  rotational number                       1      :
          :  scaling factor                  1.0000000      :
          :  rotor cutoff                    0.0000000 cm⁻¹ :
          :  imag. cutoff                 -100.0000000 cm⁻¹ :
          :.................................................:

    mode    ω/cm⁻¹     T·S(HO)/kcal·mol⁻¹    T·S(FR)/kcal·mol⁻¹   T·S(vib)
   ------------------------------------------------------------------------
       1     29.15    -1.75510 (100.00%)    -1.21584 (  0.00%)    -1.75510
       2     67.59    -1.25891 (100.00%)    -0.96701 (  0.00%)    -1.25891
       3    138.53    -0.84201 (100.00%)    -0.75455 (  0.00%)    -0.84201
       4    181.03    -0.69105 (100.00%)    -0.67530 (  0.00%)    -0.69105
       5    257.90    -0.49968 (100.00%)    -0.57048 (  0.00%)    -0.49968
       6    267.64    -0.48045 (100.00%)    -0.55951 (  0.00%)    -0.48045
   ------------------------------------------------------------------------

   temp. (K)  partition function   enthalpy   heat capacity  entropy
                                   cal/mol     cal/K/mol   cal/K/mol   J/K/mol
 298.15  VIB   457.                 3777.562     25.419     24.841
         ROT  0.293E+06              888.752      2.981     27.995
         INT  0.134E+09             4666.314     28.400     52.837
         TR   0.912E+27             1481.254      4.968     39.584
         TOT                        6147.5682    33.3683    92.4204   386.6870

       T/K    H(0)-H(T)+PV         H(T)/Eh          T*S/Eh         G(T)/Eh
   ------------------------------------------------------------------------
    298.15    0.979677E-02    0.177805E+00    0.439119E-01    0.133893E+00
   ------------------------------------------------------------------------

         :::::::::::::::::::::::::::::::::::::::::::::::::::::
         ::                  THERMODYNAMIC                  ::
         :::::::::::::::::::::::::::::::::::::::::::::::::::::
         :: total free energy         -20.905889179302 Eh   ::
         ::.................................................::
         :: total energy              -21.039782066654 Eh   ::
         :: zero point energy           0.168008030971 Eh   ::
         :: G(RRHO) w/o ZPVE           -0.034115143619 Eh   ::
         :: G(RRHO) contrib.            0.133892887353 Eh   ::
         :::::::::::::::::::::::::::::::::::::::::::::::::::::

optimized geometry written to: xtbopt.coord


           -------------------------------------------------
          | TOTAL ENERGY              -21.039782066654 Eh   |
          | TOTAL ENTHALPY            -20.861977262213 Eh   |
          | TOTAL FREE ENERGY         -20.905889179302 Eh   |
          | GRADIENT NORM               0.000039681067 Eh/α |
          | HOMO-LUMO GAP               6.854889490947 eV   |
           -------------------------------------------------

------------------------------------------------------------------------
 * finished run on 2025/04/11 at 16:27:37.602     
------------------------------------------------------------------------
 total:
 * wall-time:     0 d,  0 h,  0 min,  1.421 sec
 *  cpu-time:     0 d,  0 h,  0 min,  1.324 sec
 * ratio c/w:     0.932 speedup
 SCF:
 * wall-time:     0 d,  0 h,  0 min,  0.026 sec
 *  cpu-time:     0 d,  0 h,  0 min,  0.014 sec
 * ratio c/w:     0.523 speedup
 ANC optimizer:
 * wall-time:     0 d,  0 h,  0 min,  0.319 sec
 *  cpu-time:     0 d,  0 h,  0 min,  0.300 sec
 * ratio c/w:     0.939 speedup
 analytical hessian:
 * wall-time:     0 d,  0 h,  0 min,  1.010 sec
 *  cpu-time:     0 d,  0 h,  0 min,  0.999 sec
 * ratio c/w:     0.989 speedup

