! r2scan-3c def2/J RI DEFGRID2 scfconv6 printgap
%output
    printlevel normal
end
%cpcm
    smd true
    smdsolvent "water"
end
* xyz 0 1
C -3.5605329806 -0.5931142589 0.4452854991
C -2.2063932499 0.1026804235 0.4926549875
C -1.2016452497 -0.571503856 -0.4538865947
C 0.1038036561 0.1742637315 -0.394055234
O 0.3656629003 1.1643966769 -1.0454780617
O 0.9244372614 -0.3532099132 0.5051379638
C 2.20029948 0.2731446359 0.721110206
C 3.2343866827 -0.2244702765 -0.277113715
H -3.4638700729 -1.6341246234 0.7421151936
H -4.2559436199 -0.1034802056 1.1214246245
H -3.9726196302 -0.5566919324 -0.559803709
H -1.8113649171 0.0731052312 1.5100264197
H -2.3161840813 1.1498914228 0.2029739363
H -1.5808050036 -0.5341669312 -1.4748166229
H -1.0389831734 -1.6037568001 -0.1477132634
H 2.075058907 1.3569325157 0.6366140308
H 2.4698169533 -2.6547e-06 1.7417215928
H 3.3122119137 -1.3071591207 -0.2277340513
H 2.9471058898 0.0649318656 -1.2856015596
H 4.1986111702 0.215984369 -0.0453940811
*
