      -----------------------------------------------------------      
     |                   =====================                   |     
     |                           x T B                           |     
     |                   =====================                   |     
     |                         S. Grimme                         |     
     |          Mulliken Center for Theoretical Chemistry        |     
     |                    University of Bonn                     |     
      -----------------------------------------------------------      

   * xtb version 6.7.1 (edcfbbe) compiled by 'albert@albert-system' on 2024-07-22

   xtb is free software: you can redistribute it and/or modify it under
   the terms of the GNU Lesser General Public License as published by
   the Free Software Foundation, either version 3 of the License, or
   (at your option) any later version.
   
   xtb is distributed in the hope that it will be useful,
   but WITHOUT ANY WARRANTY; without even the implied warranty of
   MERCHANTABILITY or FITNESS FOR A PARTICULAR PURPOSE.  See the
   GNU Lesser General Public License for more details.
   
   Cite this work as:
   * C. Bannwarth, E. Caldeweyher, S. Ehlert, A. Hansen, P. Pracht,
     J. Seibert, S. Spicher, S. Grimme, WIREs Comput. Mol. Sci., 2020, 11,
     e01493. DOI: 10.1002/wcms.1493
   
   for GFN2-xTB:
   * C. Bannwarth, S. Ehlert and S. Grimme., J. Chem. Theory Comput., 2019,
     15, 1652-1671. DOI: 10.1021/acs.jctc.8b01176
   for GFN1-xTB:
   * S. Grimme, C. Bannwarth, P. Shushkov, J. Chem. Theory Comput., 2017,
     13, 1989-2009. DOI: 10.1021/acs.jctc.7b00118
   for GFN0-xTB:
   * P. Pracht, E. Caldeweyher, S. Ehlert, S. Grimme, ChemRxiv, 2019, preprint.
     DOI: 10.26434/chemrxiv.8326202.v1
   for GFN-FF:
   * S. Spicher and S. Grimme, Angew. Chem. Int. Ed., 2020, 59, 15665-15673.
     DOI: 10.1002/anie.202004239
   
   for ALPB and GBSA implicit solvation:
   * S. Ehlert, M. Stahn, S. Spicher, S. Grimme, J. Chem. Theory Comput.,
     2021, 17, 4250-4261. DOI: 10.1021/acs.jctc.1c00471
   
   for ddCOSMO and CPCM-X implicit solvation:
   * M. Stahn, S. Ehlert, S. Grimme, J. Phys. Chem. A,
     2023, XX, XXXX-XXXX. DOI: 10.1021/acs.jpca.3c04382
   
   for DFT-D4:
   * E. Caldeweyher, C. Bannwarth and S. Grimme, J. Chem. Phys., 2017,
     147, 034112. DOI: 10.1063/1.4993215
   * E. Caldeweyher, S. Ehlert, A. Hansen, H. Neugebauer, S. Spicher,
     C. Bannwarth and S. Grimme, J. Chem. Phys., 2019, 150, 154122.
     DOI: 10.1063/1.5090222
   * E. Caldeweyher, J.-M. Mewes, S. Ehlert and S. Grimme, Phys. Chem. Chem. Phys.
     2020, 22, 8499-8512. DOI: 10.1039/D0CP00502A
   
   for sTDA-xTB:
   * S. Grimme and C. Bannwarth, J. Chem. Phys., 2016, 145, 054103.
     DOI: 10.1063/1.4959605
   
   in the mass-spec context:
   * V. Asgeirsson, C. Bauer and S. Grimme, Chem. Sci., 2017, 8, 4879.
     DOI: 10.1039/c7sc00601b
   * J. Koopman and S. Grimme, ACS Omega 2019, 4, 12, 15120-15133.
     DOI: 10.1021/acsomega.9b02011
   
   for metadynamics refer to:
   * S. Grimme, J. Chem. Theory Comput., 2019, 155, 2847-2862
     DOI: 10.1021/acs.jctc.9b00143
   
   for SPH calculations refer to:
   * S. Spicher and S. Grimme, J. Chem. Theory Comput., 2021, 17, 1701-1714
     DOI: 10.1021/acs.jctc.0c01306
   
   for ONIOM refer to:
   * C. Plett, A. Katbashev, S. Ehlert, S. Grimme, M. Bursch,
     Phys. Chem. Chem. Phys., 2023, 25, 17860-17868. DOI: 10.1039/D3CP02178E
   
   for DIPRO refer to:
   * J. Kohn, N. Gildemeister, S. Grimme, D. Fazzi, A. Hansen,
     J. Chem. Phys., 2023, just accepted.
   
   for PTB refer to:
   * S. Grimme, M. Mueller, A. Hansen, J. Chem. Phys., 2023, 158, 124111.
     DOI: 10.1063/5.0137838
   
   with help from (in alphabetical order)
   P. Atkinson, C. Bannwarth, F. Bohle, G. Brandenburg, E. Caldeweyher
   M. Checinski, S. Dohm, S. Ehlert, S. Ehrlich, I. Gerasimov, C. Hölzer
   A. Katbashev, J. Kohn, J. Koopman, C. Lavigne, S. Lehtola, F. März, M. Müller,
   F. Musil, H. Neugebauer, J. Pisarek, C. Plett, P. Pracht, F. Pultar,
   J. Seibert, P. Shushkov, S. Spicher, M. Stahn, M. Steiner, T. Strunk,
   J. Stückrath, T. Rose, and J. Unsleber
   
 * started run on 2025/04/11 at 16:01:11.455     
   ID    Z sym.   atoms
    1    6 C      1-4, 6, 8
    2    8 O      5, 7
    3    1 H      9-20

           -------------------------------------------------
          |                Calculation Setup                |
           -------------------------------------------------

          program call               : /srv/scratch/z5358697/.xtb/bin/xtb solv.coord --gfn2 --sp --chrg 0 --norestart --parallel 1 --alpb water reference -I xtb_sp-xcontrol-inp
          hostname                   : k124
          coordinate file            : solv.coord
          omp threads                :                     1


           -------------------------------------------------
          |                 G F N 2 - x T B                 |
           -------------------------------------------------

        Reference                      10.1021/acs.jctc.8b01176
      * Hamiltonian:
        H0-scaling (s, p, d)           1.850000    2.230000    2.230000
        zeta-weighting                 0.500000
      * Dispersion:
        s8                             2.700000
        a1                             0.520000
        a2                             5.000000
        s9                             5.000000
      * Repulsion:
        kExp                           1.500000    1.000000
        rExp                           1.000000
      * Coulomb:
        alpha                          2.000000
        third order                    shell-resolved
        anisotropic                    true
        a3                             3.000000
        a5                             4.000000
        cn-shift                       1.200000
        cn-exp                         4.000000
        max-rad                        5.000000

      * Solvation model:               ALPB
        Solvent                        water
        Parameter file                 internal GFN2-xTB/ALPB
        Dielectric constant                8.0200E+01
        Reference state                gsolv=reference [X=1]
        Free energy shift                  2.8945E-03 Eh       1.8164E+00 kcal/mol
        Temperature                        2.9815E+02 K
        Density                            1.0000E+00 kg/L
        Solvent mass                       1.8000E+01 g/mol
        Interaction kernel             P16
        Born radius scaling (c1)           1.4744E+00
        Born radii integrator          GBOBC
        Born offset                        0.0000E+00 a0       0.0000E+00 AA
        H-bond correction              true
        Ion screening                  false
        Surface tension                    1.0000E-05 Eh       1.5569E+01 dyn/cm
        Grid points                               974 per atom

          ...................................................
          :                      SETUP                      :
          :.................................................:
          :  # basis functions                  44          :
          :  # atomic orbitals                  44          :
          :  # shells                           28          :
          :  # electrons                        48          :
          :  max. iterations                   250          :
          :  Hamiltonian                  GFN2-xTB          :
          :  restarted?                      false          :
          :  GBSA solvation                   true          :
          :  PC potential                    false          :
          :  electronic temp.          300.0000000     K    :
          :  accuracy                    1.0000000          :
          :  -> integral cutoff          0.2500000E+02      :
          :  -> integral neglect         0.1000000E-07      :
          :  -> SCF convergence          0.1000000E-05 Eh   :
          :  -> wf. convergence          0.1000000E-03 e    :
          :  Broyden damping             0.4000000          :
          :  net charge                          0          :
          :  unpaired electrons                  0          :
          ...................................................

 iter      E             dE          RMSdq      gap      omega  full diag
   1    -27.3707006 -0.273707E+02  0.387E+00    5.71       0.0  T
   2    -27.4332282 -0.625276E-01  0.195E+00    4.96       1.0  T
   3    -27.4351265 -0.189826E-02  0.100E+00    5.29       1.0  T
   4    -27.4364041 -0.127769E-02  0.158E-01    5.06       1.0  T
   5    -27.4365935 -0.189328E-03  0.682E-02    5.11       1.0  T
   6    -27.4365955 -0.202176E-05  0.199E-02    5.10       1.1  T
   7    -27.4365967 -0.118011E-05  0.484E-03    5.10       4.6  T
   8    -27.4365967 -0.409741E-07  0.274E-03    5.10       8.2  T
   9    -27.4365967 -0.187601E-07  0.593E-04    5.10      37.7  T
  10    -27.4365967 -0.102931E-08  0.330E-04    5.10      67.8  T

   *** convergence criteria satisfied after 10 iterations ***

         #    Occupation            Energy/Eh            Energy/eV
      -------------------------------------------------------------
         1        2.0000           -0.7488833             -20.3782
       ...           ...                  ...                  ...
        18        2.0000           -0.4745651             -12.9136
        19        2.0000           -0.4640887             -12.6285
        20        2.0000           -0.4531190             -12.3300
        21        2.0000           -0.4413336             -12.0093
        22        2.0000           -0.4306331             -11.7181
        23        2.0000           -0.4266226             -11.6090
        24        2.0000           -0.4231734             -11.5151 (HOMO)
        25                         -0.2356451              -6.4122 (LUMO)
        26                         -0.0005702              -0.0155
        27                          0.0807773               2.1981
        28                          0.0976148               2.6562
        29                          0.1326013               3.6083
       ...                                ...                  ...
        44                          0.6107173              16.6185
      -------------------------------------------------------------
                  HL-Gap            0.1875283 Eh            5.1029 eV
             Fermi-level           -0.3294092 Eh           -8.9637 eV

 SCC (total)                   0 d,  0 h,  0 min,  0.017 sec
 SCC setup                      ...        0 min,  0.001 sec (  7.762%)
 Dispersion                     ...        0 min,  0.000 sec (  0.744%)
 classical contributions        ...        0 min,  0.000 sec (  0.157%)
 integral evaluation            ...        0 min,  0.003 sec ( 17.115%)
 iterations                     ...        0 min,  0.007 sec ( 43.214%)
 molecular gradient             ...        0 min,  0.005 sec ( 29.932%)
 printout                       ...        0 min,  0.000 sec (  0.956%)

         :::::::::::::::::::::::::::::::::::::::::::::::::::::
         ::                     SUMMARY                     ::
         :::::::::::::::::::::::::::::::::::::::::::::::::::::
         :: total energy             -27.120185489843 Eh    ::
         :: total w/o Gsasa/hb       -27.121782360491 Eh    ::
         :: gradient norm              0.000155416269 Eh/a0 ::
         :: HOMO-LUMO gap              5.102904466790 eV    ::
         ::.................................................::
         :: SCC energy               -27.436526939215 Eh    ::
         :: -> isotropic ES            0.060502803132 Eh    ::
         :: -> anisotropic ES          0.001092702657 Eh    ::
         :: -> anisotropic XC          0.008054913124 Eh    ::
         :: -> dispersion             -0.011841189880 Eh    ::
         :: -> Gsolv                  -0.008056366445 Eh    ::
         ::    -> Gelec               -0.009653237093 Eh    ::
         ::    -> Gsasa                0.001326243404 Eh    ::
         ::    -> Ghb                 -0.002623921916 Eh    ::
         ::    -> Gshift               0.002894549160 Eh    ::
         :: repulsion energy           0.316341449372 Eh    ::
         :: add. restraining           0.000000000000 Eh    ::
         :: total charge              -0.000000000000 e     ::
         :::::::::::::::::::::::::::::::::::::::::::::::::::::

           -------------------------------------------------
          |                Property Printout                |
           -------------------------------------------------

    * Orbital Energies and Occupations

         #    Occupation            Energy/Eh            Energy/eV
      -------------------------------------------------------------
         1        2.0000           -0.7488833             -20.3782
       ...           ...                  ...                  ...
        12        2.0000           -0.5277503             -14.3608
        13        2.0000           -0.5059674             -13.7681
        14        2.0000           -0.4969489             -13.5227
        15        2.0000           -0.4895081             -13.3202
        16        2.0000           -0.4838075             -13.1651
        17        2.0000           -0.4763860             -12.9631
        18        2.0000           -0.4745651             -12.9136
        19        2.0000           -0.4640887             -12.6285
        20        2.0000           -0.4531190             -12.3300
        21        2.0000           -0.4413336             -12.0093
        22        2.0000           -0.4306331             -11.7181
        23        2.0000           -0.4266226             -11.6090
        24        2.0000           -0.4231734             -11.5151 (HOMO)
        25                         -0.2356451              -6.4122 (LUMO)
        26                         -0.0005702              -0.0155
        27                          0.0807773               2.1981
        28                          0.0976148               2.6562
        29                          0.1326013               3.6083
        30                          0.1359086               3.6983
        31                          0.1428716               3.8877
        32                          0.1545360               4.2051
        33                          0.1667755               4.5382
        34                          0.1775969               4.8327
        35                          0.1927278               5.2444
       ...                                ...                  ...
        44                          0.6107173              16.6185
      -------------------------------------------------------------
                  HL-Gap            0.1875283 Eh            5.1029 eV
             Fermi-level           -0.3294092 Eh           -8.9637 eV

     #   Z          covCN         q      C6AA      α(0)
     1   6 C        3.751    -0.110    22.663     6.789
     2   6 C        3.800    -0.061    21.673     6.628
     3   6 C        3.801    -0.075    21.934     6.668
     4   6 C        3.697     0.075    19.484     6.314
     5   8 O        1.704    -0.261    18.318     5.779
     6   6 C        2.712     0.367    20.775     7.461
     7   8 O        0.856    -0.502    23.824     6.544
     8   6 C        3.754    -0.171    23.881     6.968
     9   1 H        0.925     0.034     2.533     2.489
    10   1 H        0.925     0.043     2.415     2.430
    11   1 H        0.925     0.039     2.462     2.454
    12   1 H        0.924     0.037     2.489     2.467
    13   1 H        0.924     0.046     2.370     2.408
    14   1 H        0.925     0.060     2.203     2.321
    15   1 H        0.924     0.068     2.108     2.270
    16   1 H        0.924     0.055     2.254     2.348
    17   1 H        0.924     0.053     2.279     2.361
    18   1 H        0.925     0.108     1.716     2.049
    19   1 H        0.925     0.099     1.795     2.095
    20   1 H        0.925     0.095     1.830     2.116

 Mol. C6AA /au·bohr⁶  :       2998.896632
 Mol. C8AA /au·bohr⁸  :      63886.090399
 Mol. α(0) /au        :         80.958307


Wiberg/Mayer (AO) data.
largest (>0.10) Wiberg bond orders for each atom

 ---------------------------------------------------------------------------
     #   Z sym  total        # sym  WBO       # sym  WBO       # sym  WBO
 ---------------------------------------------------------------------------
     1   6 C    3.996 --     2 C    1.021    10 H    0.987     9 H    0.987
                            11 H    0.987
     2   6 C    3.997 --     1 C    1.021     3 C    1.008    12 H    0.978
                            13 H    0.977
     3   6 C    3.989 --     2 C    1.008     4 C    1.005    14 H    0.973
                            15 H    0.971
     4   6 C    3.916 --     3 C    1.005    17 H    0.968    16 H    0.967
                             5 O    0.923
     5   8 O    2.327 --     6 C    1.171     4 C    0.923     7 O    0.170
     6   6 C    3.905 --     7 O    1.681     5 O    1.171     8 C    0.999
     7   8 O    1.959 --     6 C    1.681     5 O    0.170
     8   6 C    3.982 --     6 C    0.999    20 H    0.978    19 H    0.963
                            18 H    0.947
     9   1 H    0.999 --     1 C    0.987
    10   1 H    0.998 --     1 C    0.987
    11   1 H    0.998 --     1 C    0.987
    12   1 H    0.999 --     2 C    0.978
    13   1 H    0.998 --     2 C    0.977
    14   1 H    0.996 --     3 C    0.973
    15   1 H    0.995 --     3 C    0.971
    16   1 H    0.997 --     4 C    0.967
    17   1 H    0.997 --     4 C    0.968
    18   1 H    0.988 --     8 C    0.947
    19   1 H    0.990 --     8 C    0.963
    20   1 H    0.991 --     8 C    0.978
 ---------------------------------------------------------------------------

Topologies differ in total number of bonds
Writing topology from bond orders to xtbtopo.mol

molecular dipole:
                 x           y           z       tot (Debye)
 q only:       -0.827      -0.668       0.841
   full:       -0.746      -0.631       0.829       3.257
molecular quadrupole (traceless):
                xx          xy          yy          xz          yz          zz
 q only:        0.118      -8.853       2.701       4.092       2.301      -2.820
  q+dip:       -0.912      -8.083       2.078       5.205       2.717      -1.166
   full:       -0.776      -8.288       2.353       5.497       3.151      -1.577


           -------------------------------------------------
          | TOTAL ENERGY              -27.120185489843 Eh   |
          | GRADIENT NORM               0.000155416269 Eh/α |
          | HOMO-LUMO GAP               5.102904466790 eV   |
           -------------------------------------------------

------------------------------------------------------------------------
 * finished run on 2025/04/11 at 16:01:11.505     
------------------------------------------------------------------------
 total:
 * wall-time:     0 d,  0 h,  0 min,  0.050 sec
 *  cpu-time:     0 d,  0 h,  0 min,  0.023 sec
 * ratio c/w:     0.469 speedup
 SCF:
 * wall-time:     0 d,  0 h,  0 min,  0.017 sec
 *  cpu-time:     0 d,  0 h,  0 min,  0.015 sec
 * ratio c/w:     0.892 speedup

