! pbe def2-sv(p) def2/J RI DEFGRID1 loosescf d4 GCP(DFT/SV(P)) printgap
%output
    printlevel normal
end
* xyz 0 1
C -3.2489854994 -0.6599106618 -0.5960271943
C -2.5367345911 -0.1549455459 0.6538375541
C -1.8160552609 1.1765343318 0.4452020204
C -0.6950937379 1.1385289816 -0.5718355183
I 0.9490408529 -0.1660356449 0.0145606127
H -2.540063963 -0.930735752 -1.3747712827
H -3.8330487516 -1.5451315469 -0.3582408941
H -3.9216260321 0.1003237247 -0.9873492872
H -1.8201452476 -0.9070059665 0.9921222441
H -3.2699660234 -0.0207971366 1.451376116
H -2.5363558586 1.9196295032 0.0902249553
H -1.4257873719 1.5244499207 1.4044086755
H -0.2449527888 2.1196987858 -0.695541754
H -1.0303225087 0.7675981362 -1.5353739663
*
