      -----------------------------------------------------------      
     |                   =====================                   |     
     |                           x T B                           |     
     |                   =====================                   |     
     |                         S. Grimme                         |     
     |          Mulliken Center for Theoretical Chemistry        |     
     |                    University of Bonn                     |     
      -----------------------------------------------------------      

   * xtb version 6.7.1 (edcfbbe) compiled by 'albert@albert-system' on 2024-07-22

   xtb is free software: you can redistribute it and/or modify it under
   the terms of the GNU Lesser General Public License as published by
   the Free Software Foundation, either version 3 of the License, or
   (at your option) any later version.
   
   xtb is distributed in the hope that it will be useful,
   but WITHOUT ANY WARRANTY; without even the implied warranty of
   MERCHANTABILITY or FITNESS FOR A PARTICULAR PURPOSE.  See the
   GNU Lesser General Public License for more details.
   
   Cite this work as:
   * C. Bannwarth, E. Caldeweyher, S. Ehlert, A. Hansen, P. Pracht,
     J. Seibert, S. Spicher, S. Grimme, WIREs Comput. Mol. Sci., 2020, 11,
     e01493. DOI: 10.1002/wcms.1493
   
   for GFN2-xTB:
   * C. Bannwarth, S. Ehlert and S. Grimme., J. Chem. Theory Comput., 2019,
     15, 1652-1671. DOI: 10.1021/acs.jctc.8b01176
   for GFN1-xTB:
   * S. Grimme, C. Bannwarth, P. Shushkov, J. Chem. Theory Comput., 2017,
     13, 1989-2009. DOI: 10.1021/acs.jctc.7b00118
   for GFN0-xTB:
   * P. Pracht, E. Caldeweyher, S. Ehlert, S. Grimme, ChemRxiv, 2019, preprint.
     DOI: 10.26434/chemrxiv.8326202.v1
   for GFN-FF:
   * S. Spicher and S. Grimme, Angew. Chem. Int. Ed., 2020, 59, 15665-15673.
     DOI: 10.1002/anie.202004239
   
   for ALPB and GBSA implicit solvation:
   * S. Ehlert, M. Stahn, S. Spicher, S. Grimme, J. Chem. Theory Comput.,
     2021, 17, 4250-4261. DOI: 10.1021/acs.jctc.1c00471
   
   for ddCOSMO and CPCM-X implicit solvation:
   * M. Stahn, S. Ehlert, S. Grimme, J. Phys. Chem. A,
     2023, XX, XXXX-XXXX. DOI: 10.1021/acs.jpca.3c04382
   
   for DFT-D4:
   * E. Caldeweyher, C. Bannwarth and S. Grimme, J. Chem. Phys., 2017,
     147, 034112. DOI: 10.1063/1.4993215
   * E. Caldeweyher, S. Ehlert, A. Hansen, H. Neugebauer, S. Spicher,
     C. Bannwarth and S. Grimme, J. Chem. Phys., 2019, 150, 154122.
     DOI: 10.1063/1.5090222
   * E. Caldeweyher, J.-M. Mewes, S. Ehlert and S. Grimme, Phys. Chem. Chem. Phys.
     2020, 22, 8499-8512. DOI: 10.1039/D0CP00502A
   
   for sTDA-xTB:
   * S. Grimme and C. Bannwarth, J. Chem. Phys., 2016, 145, 054103.
     DOI: 10.1063/1.4959605
   
   in the mass-spec context:
   * V. Asgeirsson, C. Bauer and S. Grimme, Chem. Sci., 2017, 8, 4879.
     DOI: 10.1039/c7sc00601b
   * J. Koopman and S. Grimme, ACS Omega 2019, 4, 12, 15120-15133.
     DOI: 10.1021/acsomega.9b02011
   
   for metadynamics refer to:
   * S. Grimme, J. Chem. Theory Comput., 2019, 155, 2847-2862
     DOI: 10.1021/acs.jctc.9b00143
   
   for SPH calculations refer to:
   * S. Spicher and S. Grimme, J. Chem. Theory Comput., 2021, 17, 1701-1714
     DOI: 10.1021/acs.jctc.0c01306
   
   for ONIOM refer to:
   * C. Plett, A. Katbashev, S. Ehlert, S. Grimme, M. Bursch,
     Phys. Chem. Chem. Phys., 2023, 25, 17860-17868. DOI: 10.1039/D3CP02178E
   
   for DIPRO refer to:
   * J. Kohn, N. Gildemeister, S. Grimme, D. Fazzi, A. Hansen,
     J. Chem. Phys., 2023, just accepted.
   
   for PTB refer to:
   * S. Grimme, M. Mueller, A. Hansen, J. Chem. Phys., 2023, 158, 124111.
     DOI: 10.1063/5.0137838
   
   with help from (in alphabetical order)
   P. Atkinson, C. Bannwarth, F. Bohle, G. Brandenburg, E. Caldeweyher
   M. Checinski, S. Dohm, S. Ehlert, S. Ehrlich, I. Gerasimov, C. Hölzer
   A. Katbashev, J. Kohn, J. Koopman, C. Lavigne, S. Lehtola, F. März, M. Müller,
   F. Musil, H. Neugebauer, J. Pisarek, C. Plett, P. Pracht, F. Pultar,
   J. Seibert, P. Shushkov, S. Spicher, M. Stahn, M. Steiner, T. Strunk,
   J. Stückrath, T. Rose, and J. Unsleber
   
 * started run on 2025/04/11 at 14:37:46.034     
   ID    Z sym.   atoms
    1    6 C      1-3, 5
    2   17 Cl     4, 6
    3    1 H      7-14

           -------------------------------------------------
          |                Calculation Setup                |
           -------------------------------------------------

          program call               : /software/projects/pawsey0265/mwang1/xtb/bin/xtb xtb_rrho.coord --gfn2 --ohess vtight --chrg 0 --enso --norestart -I rrho-xcontrol-inp --parallel 1 --alpb water
          hostname                   : nid002029
          coordinate file            : xtb_rrho.coord
          omp threads                :                     1


           -------------------------------------------------
          |                 G F N 2 - x T B                 |
           -------------------------------------------------

        Reference                      10.1021/acs.jctc.8b01176
      * Hamiltonian:
        H0-scaling (s, p, d)           1.850000    2.230000    2.230000
        zeta-weighting                 0.500000
      * Dispersion:
        s8                             2.700000
        a1                             0.520000
        a2                             5.000000
        s9                             5.000000
      * Repulsion:
        kExp                           1.500000    1.000000
        rExp                           1.000000
      * Coulomb:
        alpha                          2.000000
        third order                    shell-resolved
        anisotropic                    true
        a3                             3.000000
        a5                             4.000000
        cn-shift                       1.200000
        cn-exp                         4.000000
        max-rad                        5.000000

      * Solvation model:               ALPB
        Solvent                        water
        Parameter file                 internal GFN2-xTB/ALPB
        Dielectric constant                8.0200E+01
        Reference state                gsolv [1 M gas/solution]
        Free energy shift                  1.0808E-03 Eh       6.7819E-01 kcal/mol
        Temperature                        2.9815E+02 K
        Density                            1.0000E+00 kg/L
        Solvent mass                       1.8000E+01 g/mol
        Interaction kernel             P16
        Born radius scaling (c1)           1.4744E+00
        Born radii integrator          GBOBC
        Born offset                        0.0000E+00 a0       0.0000E+00 AA
        H-bond correction              true
        Ion screening                  false
        Surface tension                    1.0000E-05 Eh       1.5569E+01 dyn/cm
        Grid points                               974 per atom

          ...................................................
          :                      SETUP                      :
          :.................................................:
          :  # basis functions                  44          :
          :  # atomic orbitals                  42          :
          :  # shells                           22          :
          :  # electrons                        38          :
          :  max. iterations                   250          :
          :  Hamiltonian                  GFN2-xTB          :
          :  restarted?                      false          :
          :  GBSA solvation                   true          :
          :  PC potential                    false          :
          :  electronic temp.          300.0000000     K    :
          :  accuracy                    1.0000000          :
          :  -> integral cutoff          0.2500000E+02      :
          :  -> integral neglect         0.1000000E-07      :
          :  -> SCF convergence          0.1000000E-05 Eh   :
          :  -> wf. convergence          0.1000000E-03 e    :
          :  Broyden damping             0.4000000          :
          :  net charge                          0          :
          :  unpaired electrons                  0          :
          ...................................................

 iter      E             dE          RMSdq      gap      omega  full diag
   1    -21.8774678 -0.218775E+02  0.392E+00    6.86       0.0  T
   2    -21.9307621 -0.532943E-01  0.215E+00    6.39       1.0  T
   3    -21.9318122 -0.105012E-02  0.107E+00    6.48       1.0  T
   4    -21.9321278 -0.315601E-03  0.124E-01    6.44       1.0  T
   5    -21.9321838 -0.560153E-04  0.732E-02    6.46       1.0  T
   6    -21.9321973 -0.134568E-04  0.365E-02    6.47       1.0  T
   7    -21.9322075 -0.102013E-04  0.110E-02    6.48       2.4  T
   8    -21.9322084 -0.877470E-06  0.412E-03    6.48       6.5  T
   9    -21.9322084 -0.385154E-07  0.149E-03    6.48      17.9  T
  10    -21.9322084 -0.113185E-07  0.448E-04    6.48      59.6  T
  11    -21.9322084 -0.736520E-09  0.206E-04    6.48     129.5  T

   *** convergence criteria satisfied after 11 iterations ***

         #    Occupation            Energy/Eh            Energy/eV
      -------------------------------------------------------------
         1        2.0000           -1.0531911             -28.6588
       ...           ...                  ...                  ...
        13        2.0000           -0.4675910             -12.7238
        14        2.0000           -0.4513809             -12.2827
        15        2.0000           -0.4333454             -11.7919
        16        2.0000           -0.4178883             -11.3713
        17        2.0000           -0.4152300             -11.2990
        18        2.0000           -0.4149111             -11.2903
        19        2.0000           -0.4112448             -11.1905 (HOMO)
        20                         -0.1729706              -4.7068 (LUMO)
        21                         -0.1714825              -4.6663
        22                          0.0180046               0.4899
        23                          0.0213836               0.5819
        24                          0.0243539               0.6627
       ...                                ...                  ...
        42                          0.2948016               8.0220
      -------------------------------------------------------------
                  HL-Gap            0.2382741 Eh            6.4838 eV
             Fermi-level           -0.2921077 Eh           -7.9487 eV

 SCC (total)                   0 d,  0 h,  0 min,  0.047 sec
 SCC setup                      ...        0 min,  0.001 sec (  1.877%)
 Dispersion                     ...        0 min,  0.000 sec (  0.159%)
 classical contributions        ...        0 min,  0.000 sec (  0.065%)
 integral evaluation            ...        0 min,  0.035 sec ( 75.302%)
 iterations                     ...        0 min,  0.005 sec ( 11.621%)
 molecular gradient             ...        0 min,  0.005 sec ( 10.652%)
 printout                       ...        0 min,  0.000 sec (  0.273%)

         :::::::::::::::::::::::::::::::::::::::::::::::::::::
         ::                     SUMMARY                     ::
         :::::::::::::::::::::::::::::::::::::::::::::::::::::
         :: total energy             -21.752880571661 Eh    ::
         :: total w/o Gsasa/hb       -21.751568051154 Eh    ::
         :: gradient norm              0.029026169241 Eh/a0 ::
         :: HOMO-LUMO gap              6.483769037483 eV    ::
         ::.................................................::
         :: SCC energy               -21.932188940379 Eh    ::
         :: -> isotropic ES            0.022111201014 Eh    ::
         :: -> anisotropic ES         -0.003272487724 Eh    ::
         :: -> anisotropic XC          0.009456546883 Eh    ::
         :: -> dispersion             -0.008914781309 Eh    ::
         :: -> Gsolv                  -0.010195290369 Eh    ::
         ::    -> Gelec               -0.008882769863 Eh    ::
         ::    -> Gsasa               -0.000714635505 Eh    ::
         ::    -> Ghb                 -0.001678644700 Eh    ::
         ::    -> Gshift               0.001080759698 Eh    ::
         :: repulsion energy           0.179308368718 Eh    ::
         :: add. restraining           0.000000000000 Eh    ::
         :: total charge               0.000000000000 e     ::
         :::::::::::::::::::::::::::::::::::::::::::::::::::::

      ----------------------------------------------------------- 
     |                   =====================                   |
     |                        A N C O P T                        |
     |                   =====================                   |
     |               Approximate Normal Coordinate               |
     |                Rational Function Optimizer                |
      ----------------------------------------------------------- 
      ----------------------------------------------------------- 
     |                   =====================                   |
     |                        A N C O P T                        |
     |                   =====================                   |
     |               Approximate Normal Coordinate               |
     |                Rational Function Optimizer                |
      ----------------------------------------------------------- 

          ...................................................
          :                      SETUP                      :
          :.................................................:
          :   optimization level         verytight          :
          :   max. optcycles                   280          :
          :   ANC micro-cycles                  20          :
          :   degrees of freedom                36          :
          :.................................................:
          :   RF solver                   davidson          :
          :   write xtbopt.log                true          :
          :   linear?                        false          :
          :   energy convergence         0.1000000E-06 Eh   :
          :   grad. convergence          0.2000000E-03 Eh/α :
          :   maxmium RF displ.          1.0000000          :
          :   Hlow (freq-cutoff)         0.1000000E-01      :
          :   Hmax (freq-cutoff)         5.0000000          :
          :   S6 in model hess.         20.0000000          :
          ...................................................

generating ANC from exact Hessian ...
Using Lindh-Hessian (1995)
 Shifting diagonal of input Hessian by   7.013294201230716E-003
 Lowest  eigenvalues of input Hessian
    0.000000    0.000000    0.000000    0.000000    0.000000    0.000000
    0.010000    0.012506    0.013087    0.016984    0.021296    0.030560
    0.034744    0.053705    0.059994    0.061081    0.062889    0.063892
 Highest eigenvalues
    1.071303    1.080573    1.148520    1.202439    1.217843    1.315354
 

........................................................................
.............................. CYCLE    1 ..............................
........................................................................

 iter      E             dE          RMSdq      gap      omega  full diag
   1    -21.9322084 -0.219322E+02  0.258E-05    6.48       0.0  T
   2    -21.9322084 -0.422773E-12  0.170E-05    6.48    1568.6  T
   3    -21.9322084 -0.333955E-12  0.657E-06    6.48    4069.0  T
     SCC iter.                  ...        0 min,  0.001 sec
     gradient                   ...        0 min,  0.005 sec
 * total energy  :   -21.7528806 Eh     change       -0.1128981E-09 Eh
   gradient norm :     0.0290248 Eh/α   predicted     0.0000000E+00 (-100.00%)
   displ. norm   :     0.1437845 α      lambda       -0.1790234E-02
   maximum displ.:     0.0843906 α      in ANC's #5, #8, #2, ...

........................................................................
.............................. CYCLE    2 ..............................
........................................................................

 iter      E             dE          RMSdq      gap      omega  full diag
   1    -21.9370965 -0.219371E+02  0.160E-01    6.68       0.0  T
   2    -21.9371095 -0.129672E-04  0.100E-01    6.68       1.0  T
   3    -21.9371171 -0.757942E-05  0.323E-02    6.68       1.0  T
   4    -21.9371198 -0.276165E-05  0.253E-02    6.67       1.1  T
   5    -21.9371231 -0.326886E-05  0.152E-02    6.67       1.8  T
   6    -21.9371250 -0.186335E-05  0.552E-03    6.66       4.8  T
   7    -21.9371251 -0.164355E-06  0.510E-04    6.66      52.4  T
   8    -21.9371251 -0.461167E-09  0.194E-04    6.66     137.8  T
     SCC iter.                  ...        0 min,  0.003 sec
     gradient                   ...        0 min,  0.005 sec
 * total energy  :   -21.7541260 Eh     change       -0.1245428E-02 Eh
   gradient norm :     0.0167058 Eh/α   predicted    -0.9136206E-03 ( -26.64%)
   displ. norm   :     0.1136352 α      lambda       -0.7481896E-03
   maximum displ.:     0.0679340 α      in ANC's #5, #1, #2, ...

........................................................................
.............................. CYCLE    3 ..............................
........................................................................

 iter      E             dE          RMSdq      gap      omega  full diag
   1    -21.9398393 -0.219398E+02  0.109E-01    6.85       0.0  T
   2    -21.9398520 -0.126952E-04  0.701E-02    6.84       1.0  T
   3    -21.9398571 -0.510316E-05  0.302E-02    6.84       1.0  T
   4    -21.9398597 -0.265738E-05  0.222E-02    6.84       1.2  T
   5    -21.9398621 -0.238497E-05  0.142E-02    6.83       1.9  T
   6    -21.9398637 -0.161385E-05  0.410E-03    6.83       6.5  T
   7    -21.9398638 -0.775156E-07  0.578E-04    6.83      46.2  T
   8    -21.9398638 -0.820464E-09  0.307E-04    6.83      86.9  T
     SCC iter.                  ...        0 min,  0.003 sec
     gradient                   ...        0 min,  0.005 sec
 * total energy  :   -21.7545522 Eh     change       -0.4261874E-03 Eh
   gradient norm :     0.0053595 Eh/α   predicted    -0.3789273E-03 ( -11.09%)
   displ. norm   :     0.0393705 α      lambda       -0.6983895E-04
   maximum displ.:     0.0366361 α      in ANC's #1, #28, #26, ...

........................................................................
.............................. CYCLE    4 ..............................
........................................................................

 iter      E             dE          RMSdq      gap      omega  full diag
   1    -21.9393781 -0.219394E+02  0.306E-02    6.87       0.0  T
   2    -21.9393785 -0.460305E-06  0.192E-02    6.87       1.4  T
   3    -21.9393788 -0.269692E-06  0.600E-03    6.87       4.5  T
   4    -21.9393789 -0.942445E-07  0.491E-03    6.87       5.4  T
   5    -21.9393790 -0.122435E-06  0.301E-03    6.87       8.9  T
   6    -21.9393791 -0.751472E-07  0.891E-04    6.87      30.0  T
   7    -21.9393791 -0.336395E-08  0.118E-04    6.86     226.7  T
     SCC iter.                  ...        0 min,  0.003 sec
     gradient                   ...        0 min,  0.005 sec
 * total energy  :   -21.7546012 Eh     change       -0.4902746E-04 Eh
   gradient norm :     0.0022699 Eh/α   predicted    -0.3497442E-04 ( -28.66%)
   displ. norm   :     0.0513641 α      lambda       -0.3495557E-04
   maximum displ.:     0.0473224 α      in ANC's #1, #5, #8, ...

........................................................................
.............................. CYCLE    5 ..............................
........................................................................

 iter      E             dE          RMSdq      gap      omega  full diag
   1    -21.9386019 -0.219386E+02  0.313E-02    6.89       0.0  T
   2    -21.9386020 -0.781077E-07  0.186E-02    6.89       1.4  T
   3    -21.9386021 -0.821596E-07  0.299E-03    6.89       8.9  T
   4    -21.9386021 -0.200768E-07  0.247E-03    6.89      10.8  T
   5    -21.9386022 -0.394722E-07  0.116E-03    6.89      23.1  T
   6    -21.9386022 -0.977113E-08  0.510E-04    6.89      52.4  T
   7    -21.9386022 -0.120148E-08  0.818E-05    6.89     326.9  T
     SCC iter.                  ...        0 min,  0.003 sec
     gradient                   ...        0 min,  0.005 sec
 * total energy  :   -21.7546239 Eh     change       -0.2272001E-04 Eh
   gradient norm :     0.0010227 Eh/α   predicted    -0.1752598E-04 ( -22.86%)
   displ. norm   :     0.0572018 α      lambda       -0.1100939E-04
   maximum displ.:     0.0543442 α      in ANC's #1, #5, #7, ...

........................................................................
.............................. CYCLE    6 ..............................
........................................................................

 iter      E             dE          RMSdq      gap      omega  full diag
   1    -21.9382143 -0.219382E+02  0.332E-02    6.89       0.0  T
   2    -21.9382143 -0.242376E-07  0.194E-02    6.89       1.4  T
   3    -21.9382143 -0.865429E-08  0.746E-04    6.89      35.8  T
   4    -21.9382143 -0.120392E-08  0.536E-04    6.89      49.9  T
     SCC iter.                  ...        0 min,  0.001 sec
     gradient                   ...        0 min,  0.003 sec
 * total energy  :   -21.7546365 Eh     change       -0.1253638E-04 Eh
   gradient norm :     0.0014316 Eh/α   predicted    -0.5511986E-05 ( -56.03%)
   displ. norm   :     0.0390648 α      lambda       -0.8064193E-05
   maximum displ.:     0.0377003 α      in ANC's #1, #7, #2, ...

........................................................................
.............................. CYCLE    7 ..............................
........................................................................

 iter      E             dE          RMSdq      gap      omega  full diag
   1    -21.9384003 -0.219384E+02  0.247E-02    6.88       0.0  T
   2    -21.9384003 -0.219275E-07  0.144E-02    6.88       1.9  T
   3    -21.9384004 -0.174938E-07  0.134E-03    6.88      19.9  T
   4    -21.9384004 -0.397484E-08  0.112E-03    6.88      23.9  T
   5    -21.9384004 -0.722949E-08  0.529E-04    6.88      50.5  T
   6    -21.9384004 -0.200084E-08  0.240E-04    6.88     111.4  T
     SCC iter.                  ...        0 min,  0.002 sec
     gradient                   ...        0 min,  0.003 sec
 * total energy  :   -21.7546470 Eh     change       -0.1048784E-04 Eh
   gradient norm :     0.0009176 Eh/α   predicted    -0.4035466E-05 ( -61.52%)
   displ. norm   :     0.0409829 α      lambda       -0.7197566E-05
   maximum displ.:     0.0394061 α      in ANC's #1, #2, #7, ...

........................................................................
.............................. CYCLE    8 ..............................
........................................................................

 iter      E             dE          RMSdq      gap      omega  full diag
   1    -21.9386687 -0.219387E+02  0.264E-02    6.88       0.0  T
   2    -21.9386687 -0.186499E-07  0.154E-02    6.88       1.7  T
   3    -21.9386687 -0.137739E-07  0.108E-03    6.88      24.7  T
   4    -21.9386687 -0.249783E-08  0.885E-04    6.88      30.2  T
   5    -21.9386687 -0.523200E-08  0.359E-04    6.88      74.5  T
     SCC iter.                  ...        0 min,  0.001 sec
     gradient                   ...        0 min,  0.003 sec
 * total energy  :   -21.7546562 Eh     change       -0.9250928E-05 Eh
   gradient norm :     0.0003720 Eh/α   predicted    -0.3600736E-05 ( -61.08%)
   displ. norm   :     0.0360834 α      lambda       -0.4837987E-05
   maximum displ.:     0.0354257 α      in ANC's #1, #2, #14, ...

........................................................................
.............................. CYCLE    9 ..............................
........................................................................

 iter      E             dE          RMSdq      gap      omega  full diag
   1    -21.9387826 -0.219388E+02  0.244E-02    6.88       0.0  T
   2    -21.9387826 -0.146666E-07  0.143E-02    6.88       1.9  T
   3    -21.9387826 -0.681733E-08  0.771E-04    6.88      34.7  T
   4    -21.9387826 -0.135930E-08  0.616E-04    6.88      43.4  T
     SCC iter.                  ...        0 min,  0.001 sec
     gradient                   ...        0 min,  0.003 sec
 * total energy  :   -21.7546626 Eh     change       -0.6361796E-05 Eh
   gradient norm :     0.0004054 Eh/α   predicted    -0.2421717E-05 ( -61.93%)
   displ. norm   :     0.0287562 α      lambda       -0.3394943E-05
   maximum displ.:     0.0285257 α      in ANC's #1, #7, #8, ...

........................................................................
.............................. CYCLE   10 ..............................
........................................................................

 iter      E             dE          RMSdq      gap      omega  full diag
   1    -21.9388075 -0.219388E+02  0.197E-02    6.88       0.0  T
   2    -21.9388075 -0.751704E-08  0.115E-02    6.88       2.3  T
   3    -21.9388075 -0.470828E-08  0.596E-04    6.88      44.8  T
   4    -21.9388075 -0.685723E-09  0.478E-04    6.88      56.0  T
     SCC iter.                  ...        0 min,  0.001 sec
     gradient                   ...        0 min,  0.003 sec
 * total energy  :   -21.7546672 Eh     change       -0.4654798E-05 Eh
   gradient norm :     0.0003947 Eh/α   predicted    -0.1699792E-05 ( -63.48%)
   displ. norm   :     0.0252982 α      lambda       -0.2792725E-05
   maximum displ.:     0.0250309 α      in ANC's #1, #2, #7, ...

........................................................................
.............................. CYCLE   11 ..............................
........................................................................

 iter      E             dE          RMSdq      gap      omega  full diag
   1    -21.9387739 -0.219388E+02  0.186E-02    6.88       0.0  T
   2    -21.9387739 -0.446496E-08  0.109E-02    6.88       2.5  T
   3    -21.9387739 -0.250989E-08  0.395E-04    6.88      67.6  T
   4    -21.9387739 -0.245667E-09  0.296E-04    6.88      90.4  T
     SCC iter.                  ...        0 min,  0.001 sec
     gradient                   ...        0 min,  0.003 sec
 * total energy  :   -21.7546712 Eh     change       -0.3944872E-05 Eh
   gradient norm :     0.0002963 Eh/α   predicted    -0.1395799E-05 ( -64.62%)
   displ. norm   :     0.0253621 α      lambda       -0.2535101E-05
   maximum displ.:     0.0246278 α      in ANC's #1, #2, #7, ...

........................................................................
.............................. CYCLE   12 ..............................
........................................................................

 iter      E             dE          RMSdq      gap      omega  full diag
   1    -21.9387210 -0.219387E+02  0.193E-02    6.88       0.0  T
   2    -21.9387210 -0.404564E-08  0.113E-02    6.88       2.4  T
   3    -21.9387210 -0.260125E-08  0.381E-04    6.88      70.1  T
   4    -21.9387210 -0.328008E-09  0.201E-04    6.88     132.9  T
     SCC iter.                  ...        0 min,  0.001 sec
     gradient                   ...        0 min,  0.003 sec
 * total energy  :   -21.7546747 Eh     change       -0.3530334E-05 Eh
   gradient norm :     0.0001566 Eh/α   predicted    -0.1268216E-05 ( -64.08%)
   displ. norm   :     0.0242216 α      lambda       -0.2112730E-05
   maximum displ.:     0.0233352 α      in ANC's #1, #2, #9, ...

........................................................................
.............................. CYCLE   13 ..............................
........................................................................

 iter      E             dE          RMSdq      gap      omega  full diag
   1    -21.9386876 -0.219387E+02  0.192E-02    6.88       0.0  T
   2    -21.9386876 -0.430068E-08  0.112E-02    6.88       2.4  T
   3    -21.9386876 -0.293237E-08  0.423E-04    6.88      63.2  T
   4    -21.9386876 -0.441656E-09  0.233E-04    6.88     114.8  T
     SCC iter.                  ...        0 min,  0.001 sec
     gradient                   ...        0 min,  0.003 sec
 * total energy  :   -21.7546776 Eh     change       -0.2910077E-05 Eh
   gradient norm :     0.0001454 Eh/α   predicted    -0.1058534E-05 ( -63.63%)
   displ. norm   :     0.0220551 α      lambda       -0.1695436E-05
   maximum displ.:     0.0213117 α      in ANC's #1, #2, #7, ...

........................................................................
.............................. CYCLE   14 ..............................
........................................................................

 iter      E             dE          RMSdq      gap      omega  full diag
   1    -21.9386814 -0.219387E+02  0.173E-02    6.88       0.0  T
   2    -21.9386814 -0.344058E-08  0.101E-02    6.88       2.7  T
   3    -21.9386814 -0.198995E-08  0.327E-04    6.88      81.7  T
   4    -21.9386814 -0.158568E-09  0.218E-04    6.88     122.9  T
     SCC iter.                  ...        0 min,  0.001 sec
     gradient                   ...        0 min,  0.003 sec
 * total energy  :   -21.7546800 Eh     change       -0.2345374E-05 Eh
   gradient norm :     0.0001764 Eh/α   predicted    -0.8495156E-06 ( -63.78%)
   displ. norm   :     0.0188164 α      lambda       -0.1292494E-05
   maximum displ.:     0.0184464 α      in ANC's #1, #2, #7, ...

........................................................................
.............................. CYCLE   15 ..............................
........................................................................

 iter      E             dE          RMSdq      gap      omega  full diag
   1    -21.9386842 -0.219387E+02  0.144E-02    6.88       0.0  T
   2    -21.9386842 -0.279014E-08  0.841E-03    6.88       3.2  T
   3    -21.9386842 -0.212497E-08  0.393E-04    6.88      68.0  T
   4    -21.9386842 -0.390664E-09  0.272E-04    6.88      98.3  T
     SCC iter.                  ...        0 min,  0.001 sec
     gradient                   ...        0 min,  0.003 sec
 * total energy  :   -21.7546818 Eh     change       -0.1814544E-05 Eh
   gradient norm :     0.0001372 Eh/α   predicted    -0.6450434E-06 ( -64.45%)
   displ. norm   :     0.0165093 α      lambda       -0.1033838E-05
   maximum displ.:     0.0163509 α      in ANC's #1, #2, #7, ...

........................................................................
.............................. CYCLE   16 ..............................
........................................................................

 iter      E             dE          RMSdq      gap      omega  full diag
   1    -21.9386996 -0.219387E+02  0.123E-02    6.88       0.0  T
   2    -21.9386996 -0.208458E-08  0.715E-03    6.88       3.7  T
   3    -21.9386996 -0.123473E-08  0.281E-04    6.88      95.0  T
   4    -21.9386996 -0.129134E-09  0.212E-04    6.88     126.3  T
     SCC iter.                  ...        0 min,  0.001 sec
     gradient                   ...        0 min,  0.003 sec
 * total energy  :   -21.7546832 Eh     change       -0.1454331E-05 Eh
   gradient norm :     0.0001086 Eh/α   predicted    -0.5159328E-06 ( -64.52%)
   displ. norm   :     0.0145629 α      lambda       -0.8297159E-06
   maximum displ.:     0.0144781 α      in ANC's #1, #7, #9, ...

........................................................................
.............................. CYCLE   17 ..............................
........................................................................

 iter      E             dE          RMSdq      gap      omega  full diag
   1    -21.9387167 -0.219387E+02  0.988E-03    6.88       0.0  T
   2    -21.9387167 -0.174208E-08  0.576E-03    6.88       4.6  T
   3    -21.9387167 -0.139520E-08  0.339E-04    6.88      78.8  T
   4    -21.9387167 -0.261789E-09  0.266E-04    6.88     100.6  T
     SCC iter.                  ...        0 min,  0.001 sec
     gradient                   ...        0 min,  0.003 sec
 * total energy  :   -21.7546844 Eh     change       -0.1170640E-05 Eh
   gradient norm :     0.0000805 Eh/α   predicted    -0.4141143E-06 ( -64.62%)
   displ. norm   :     0.0134973 α      lambda       -0.6962661E-06
   maximum displ.:     0.0133386 α      in ANC's #1, #7, #2, ...

........................................................................
.............................. CYCLE   18 ..............................
........................................................................

 iter      E             dE          RMSdq      gap      omega  full diag
   1    -21.9387199 -0.219387E+02  0.898E-03    6.88       0.0  T
   2    -21.9387199 -0.113097E-08  0.524E-03    6.88       5.1  T
   3    -21.9387199 -0.712660E-09  0.214E-04    6.88     125.0  T
   4    -21.9387199 -0.784830E-10  0.160E-04    6.88     167.4  T
     SCC iter.                  ...        0 min,  0.001 sec
     gradient                   ...        0 min,  0.003 sec
 * total energy  :   -21.7546854 Eh     change       -0.9768781E-06 Eh
   gradient norm :     0.0000721 Eh/α   predicted    -0.3470303E-06 ( -64.48%)
   displ. norm   :     0.0122986 α      lambda       -0.5668895E-06
   maximum displ.:     0.0121009 α      in ANC's #1, #2, #7, ...

........................................................................
.............................. CYCLE   19 ..............................
........................................................................

 iter      E             dE          RMSdq      gap      omega  full diag
   1    -21.9387290 -0.219387E+02  0.761E-03    6.88       0.0  T
   2    -21.9387290 -0.103275E-08  0.444E-03    6.88       6.0  T
   3    -21.9387290 -0.761872E-09  0.245E-04    6.88     109.0  T
   4    -21.9387290 -0.125862E-09  0.194E-04    6.88     137.8  T
     SCC iter.                  ...        0 min,  0.001 sec
     gradient                   ...        0 min,  0.003 sec
 * total energy  :   -21.7546862 Eh     change       -0.7954469E-06 Eh
   gradient norm :     0.0000668 Eh/α   predicted    -0.2820103E-06 ( -64.55%)
   displ. norm   :     0.0112287 α      lambda       -0.4557276E-06
   maximum displ.:     0.0110455 α      in ANC's #1, #2, #7, ...

........................................................................
.............................. CYCLE   20 ..............................
........................................................................

 iter      E             dE          RMSdq      gap      omega  full diag
   1    -21.9387238 -0.219387E+02  0.715E-03    6.88       0.0  T
   2    -21.9387238 -0.692122E-09  0.417E-03    6.88       6.4  T
   3    -21.9387238 -0.463523E-09  0.172E-04    6.88     155.2  T
   4    -21.9387238 -0.568896E-10  0.124E-04    6.88     215.0  T
     SCC iter.                  ...        0 min,  0.001 sec
     gradient                   ...        0 min,  0.003 sec
 * total energy  :   -21.7546868 Eh     change       -0.6459974E-06 Eh
   gradient norm :     0.0000579 Eh/α   predicted    -0.2297077E-06 ( -64.44%)
   displ. norm   :     0.0099369 α      lambda       -0.3613442E-06
   maximum displ.:     0.0098206 α      in ANC's #1, #7, #2, ...
 * RMSD in coord.:     0.1631193 α      energy gain  -0.1806243E-02 Eh

generating ANC from exact Hessian ...
Using Lindh-Hessian (1995)
 Shifting diagonal of input Hessian by   6.863207522976450E-003
 Lowest  eigenvalues of input Hessian
    0.000000    0.000000    0.000000    0.000000    0.000000    0.000000
    0.010000    0.012436    0.013282    0.016897    0.021849    0.033668
    0.037427    0.055275    0.060823    0.062675    0.064439    0.064635
 Highest eigenvalues
    1.103805    1.107143    1.186083    1.194816    1.222394    1.290635
 

........................................................................
.............................. CYCLE   21 ..............................
........................................................................

 iter      E             dE          RMSdq      gap      omega  full diag
   1    -21.9387246 -0.219387E+02  0.635E-03    6.88       0.0  T
   2    -21.9387246 -0.635595E-09  0.370E-03    6.88       7.2  T
   3    -21.9387246 -0.438934E-09  0.179E-04    6.88     149.2  T
   4    -21.9387246 -0.633378E-10  0.138E-04    6.88     193.1  T
     SCC iter.                  ...        0 min,  0.001 sec
     gradient                   ...        0 min,  0.003 sec
 * total energy  :   -21.7546873 Eh     change       -0.5106572E-06 Eh
   gradient norm :     0.0000510 Eh/α   predicted     0.0000000E+00 (-100.00%)
   displ. norm   :     0.0074089 α      lambda       -0.2480521E-06
   maximum displ.:     0.0073751 α      in ANC's #1, #2, #7, ...

........................................................................
.............................. CYCLE   22 ..............................
........................................................................

 iter      E             dE          RMSdq      gap      omega  full diag
   1    -21.9387211 -0.219387E+02  0.543E-03    6.88       0.0  T
   2    -21.9387211 -0.374911E-09  0.317E-03    6.88       8.4  T
   3    -21.9387211 -0.243521E-09  0.125E-04    6.88     214.1  T
   4    -21.9387211 -0.260663E-10  0.913E-05    6.88     292.8  T
     SCC iter.                  ...        0 min,  0.001 sec
     gradient                   ...        0 min,  0.003 sec
 * total energy  :   -21.7546877 Eh     change       -0.3435725E-06 Eh
   gradient norm :     0.0000496 Eh/α   predicted    -0.1226342E-06 ( -64.31%)
   displ. norm   :     0.0071731 α      lambda       -0.2187241E-06
   maximum displ.:     0.0069767 α      in ANC's #1, #2, #7, ...

........................................................................
.............................. CYCLE   23 ..............................
........................................................................

 iter      E             dE          RMSdq      gap      omega  full diag
   1    -21.9387204 -0.219387E+02  0.527E-03    6.88       0.0  T
   2    -21.9387204 -0.400874E-09  0.307E-03    6.88       8.7  T
   3    -21.9387204 -0.284118E-09  0.143E-04    6.88     187.4  T
   4    -21.9387204 -0.408242E-10  0.109E-04    6.88     244.3  T
     SCC iter.                  ...        0 min,  0.001 sec
     gradient                   ...        0 min,  0.003 sec
 * total energy  :   -21.7546880 Eh     change       -0.3075171E-06 Eh
   gradient norm :     0.0000431 Eh/α   predicted    -0.1089433E-06 ( -64.57%)
   displ. norm   :     0.0070647 α      lambda       -0.1911736E-06
   maximum displ.:     0.0068327 α      in ANC's #1, #2, #7, ...

........................................................................
.............................. CYCLE   24 ..............................
........................................................................

 iter      E             dE          RMSdq      gap      omega  full diag
   1    -21.9387202 -0.219387E+02  0.530E-03    6.88       0.0  T
   2    -21.9387202 -0.368694E-09  0.309E-03    6.88       8.7  T
   3    -21.9387202 -0.258062E-09  0.133E-04    6.88     201.4  T
   4    -21.9387202 -0.357403E-10  0.936E-05    6.88     285.6  T
     SCC iter.                  ...        0 min,  0.001 sec
     gradient                   ...        0 min,  0.003 sec
 * total energy  :   -21.7546882 Eh     change       -0.2696598E-06 Eh
   gradient norm :     0.0000397 Eh/α   predicted    -0.9653216E-07 ( -64.20%)
   displ. norm   :     0.0064219 α      lambda       -0.1571587E-06
   maximum displ.:     0.0062594 α      in ANC's #1, #2, #7, ...

........................................................................
.............................. CYCLE   25 ..............................
........................................................................

 iter      E             dE          RMSdq      gap      omega  full diag
   1    -21.9387217 -0.219387E+02  0.471E-03    6.88       0.0  T
   2    -21.9387217 -0.319627E-09  0.275E-03    6.88       9.7  T
   3    -21.9387217 -0.222695E-09  0.126E-04    6.88     212.7  T
   4    -21.9387217 -0.323581E-10  0.957E-05    6.88     279.3  T
     SCC iter.                  ...        0 min,  0.001 sec
     gradient                   ...        0 min,  0.003 sec
 * total energy  :   -21.7546885 Eh     change       -0.2202697E-06 Eh
   gradient norm :     0.0000360 Eh/α   predicted    -0.7858671E-07 ( -64.32%)
   displ. norm   :     0.0055825 α      lambda       -0.1217555E-06
   maximum displ.:     0.0055011 α      in ANC's #1, #2, #14, ...

........................................................................
.............................. CYCLE   26 ..............................
........................................................................

 iter      E             dE          RMSdq      gap      omega  full diag
   1    -21.9387217 -0.219387E+02  0.418E-03    6.88       0.0  T
   2    -21.9387217 -0.232035E-09  0.244E-03    6.88      11.0  T
   3    -21.9387217 -0.159233E-09  0.104E-04    6.88     255.9  T
   4    -21.9387217 -0.208864E-10  0.755E-05    6.88     353.9  T
     SCC iter.                  ...        0 min,  0.001 sec
     gradient                   ...        0 min,  0.003 sec
 * total energy  :   -21.7546886 Eh     change       -0.1745061E-06 Eh
   gradient norm :     0.0000327 Eh/α   predicted    -0.6194753E-07 ( -64.50%)
   displ. norm   :     0.0048727 α      lambda       -0.9758444E-07
   maximum displ.:     0.0048365 α      in ANC's #1, #2, #7, ...

........................................................................
.............................. CYCLE   27 ..............................
........................................................................

 iter      E             dE          RMSdq      gap      omega  full diag
   1    -21.9387214 -0.219387E+02  0.343E-03    6.88       0.0  T
   2    -21.9387214 -0.162444E-09  0.200E-03    6.88      13.4  T
   3    -21.9387214 -0.116788E-09  0.895E-05    6.88     298.6  T
   4    -21.9387214 -0.177067E-10  0.650E-05    6.88     411.4  T
     SCC iter.                  ...        0 min,  0.001 sec
     gradient                   ...        0 min,  0.003 sec
 * total energy  :   -21.7546888 Eh     change       -0.1390573E-06 Eh
   gradient norm :     0.0000295 Eh/α   predicted    -0.4921019E-07 ( -64.61%)
   displ. norm   :     0.0043647 α      lambda       -0.7901607E-07
   maximum displ.:     0.0043422 α      in ANC's #1, #5, #7, ...

........................................................................
.............................. CYCLE   28 ..............................
........................................................................

 iter      E             dE          RMSdq      gap      omega  full diag
   1    -21.9387222 -0.219387E+02  0.297E-03    6.88       0.0  T
   2    -21.9387222 -0.125311E-09  0.174E-03    6.88      15.4  T
   3    -21.9387222 -0.823839E-10  0.761E-05    6.88     351.2  T
   4    -21.9387222 -0.106724E-10  0.582E-05    6.88     459.0  T
     SCC iter.                  ...        0 min,  0.001 sec
     gradient                   ...        0 min,  0.003 sec
 * total energy  :   -21.7546889 Eh     change       -0.1138031E-06 Eh
   gradient norm :     0.0000273 Eh/α   predicted    -0.4030748E-07 ( -64.58%)
   displ. norm   :     0.0039633 α      lambda       -0.6554407E-07
   maximum displ.:     0.0039446 α      in ANC's #1, #7, #14, ...

........................................................................
.............................. CYCLE   29 ..............................
........................................................................

 iter      E             dE          RMSdq      gap      omega  full diag
   1    -21.9387213 -0.219387E+02  0.264E-03    6.88       0.0  T
   2    -21.9387213 -0.106446E-09  0.154E-03    6.88      17.4  T
   3    -21.9387213 -0.769980E-10  0.742E-05    6.88     360.1  T
   4    -21.9387213 -0.113545E-10  0.555E-05    6.88     481.7  T
     SCC iter.                  ...        0 min,  0.001 sec
     gradient                   ...        0 min,  0.003 sec
 * total energy  :   -21.7546890 Eh     change       -0.9436527E-07 Eh
   gradient norm :     0.0000239 Eh/α   predicted    -0.3338983E-07 ( -64.62%)
   displ. norm   :     0.0036255 α      lambda       -0.5574663E-07
   maximum displ.:     0.0036019 α      in ANC's #1, #7, #5, ...

   *** GEOMETRY OPTIMIZATION CONVERGED AFTER 29 ITERATIONS ***

------------------------------------------------------------------------
 total energy gain   :        -0.0018084 Eh       -1.1348 kcal/mol
 total RMSD          :         0.1747145 a0        0.0925 Å
 total power (kW/mol):        -0.1637240 (step)  -23.0679 (real)
------------------------------------------------------------------------

 ANCopt (total)                0 d,  0 h,  0 min,  0.206 sec
 optimizer setup                ...        0 min,  0.000 sec (  0.215%)
 model hessian                  ...        0 min,  0.006 sec (  2.714%)
 ANC generation                 ...        0 min,  0.000 sec (  0.226%)
 coordinate transformation      ...        0 min,  0.000 sec (  0.078%)
 single point calculation       ...        0 min,  0.192 sec ( 93.403%)
 optimization log               ...        0 min,  0.003 sec (  1.616%)
 hessian update                 ...        0 min,  0.000 sec (  0.073%)
 rational function              ...        0 min,  0.002 sec (  1.148%)

================
 final structure:
================
$coord
        0.68281426424057        1.61395785066401        1.27228456366470      C
       -0.68282284660373        1.61399595932350       -1.27225508035519      C
       -3.53529895855864        1.60625022728896       -0.98269213116787      C
       -4.62307082031311       -1.30838518283780        0.40967052334785      Cl
        3.53529041509944        1.60622985249328        0.98272144002178      C
        4.62307058838822       -1.30835857178010       -0.40973300399549      Cl
        0.09457714942547       -0.03177836323792        2.36606549492903      H
        0.16807040593401        3.30732047459465        2.33137965719451      H
       -0.09458095590026       -0.03170416022366       -2.36608771303401      H
       -0.16808392654461        3.30739338559991       -2.33129696454410      H
       -4.17674599718300        3.10609427008520        0.26951595196010      H
       -4.47691478079030        1.74181534402113       -2.80508616333205      H
        4.17673312323106        3.10611521143754       -0.26943939584345      H
        4.47690585425612        1.74174018868467        2.80511974665201      H
$end
 
 Bond Distances (Angstroems)
 ---------------------------
C1-C2=1.5282         C1-C5=1.5172         C1-H7=1.0910         C1-H8=1.0915         C2-C1=1.5282         C2-C3=1.5172         
C2-H9=1.0910         C2-H10=1.0915        C3-C2=1.5172         C3-Cl4=1.8036        C3-H11=1.0882        C3-H12=1.0879        
Cl4-C3=1.8036        C5-C1=1.5172         C5-Cl6=1.8036        C5-H13=1.0882        C5-H14=1.0879        Cl6-C5=1.8036        
H7-C1=1.0910         H8-C1=1.0915         H9-C2=1.0910         H10-C2=1.0915        H11-C3=1.0882        H12-C3=1.0879        
H13-C5=1.0882        H14-C5=1.0879        
 C  H  Rav=1.0896 sigma=0.0016  Rmin=1.0879  Rmax=1.0915     8
 C  C  Rav=1.5209 sigma=0.0052  Rmin=1.5172  Rmax=1.5282     3
 Cl C  Rav=1.8036 sigma=0.0000  Rmin=1.8036  Rmax=1.8036     2
 
 selected bond angles (degree)
 --------------------
C5-C1-C2=112.43                H7-C1-C2=109.42                H7-C1-C5=109.59                H8-C1-C2=109.54                
H8-C1-C5=107.60                H8-C1-H7=108.16                C3-C2-C1=112.43                H9-C2-C1=109.42                
H9-C2-C3=109.59                H10-C2-C1=109.54               H10-C2-C3=107.60               H10-C2-H9=108.16               
Cl4-C3-C2=111.17               H11-C3-C2=111.71               H11-C3-Cl4=105.98              H12-C3-C2=111.47               
H12-C3-Cl4=105.80              H12-C3-H11=110.42              Cl6-C5-C1=111.17               H13-C5-C1=111.71               
H13-C5-Cl6=105.98              H14-C5-C1=111.47               H14-C5-Cl6=105.80              H14-C5-H13=110.42              
 
 selected dihedral angles (degree)
 ---------------------------------
C3-C2-C1-C5=179.67            C3-C2-C1-H7= 57.65            C3-C2-C1-H8=299.24            H9-C2-C1-C5= 57.65            
H9-C2-C1-H7=295.64            H9-C2-C1-H8=177.23            H10-C2-C1-C5=299.24           H10-C2-C1-H7=177.23           
H10-C2-C1-H8= 58.81           Cl4-C3-C2-C1=293.72           Cl4-C3-C2-H9= 55.64           Cl4-C3-C2-H10=173.03          
H11-C3-C2-C1= 51.88           H11-C3-C2-H9=173.80           H11-C3-C2-H10=291.19          H12-C3-C2-C1=175.94           
H12-C3-C2-H9=297.86           H12-C3-C2-H10= 55.25          Cl6-C5-C1-C2=293.72           Cl6-C5-C1-H7= 55.64           
Cl6-C5-C1-H8=173.03           H13-C5-C1-C2= 51.88           H13-C5-C1-H7=173.80           H13-C5-C1-H8=291.19           
H14-C5-C1-C2=175.94           H14-C5-C1-H7=297.86           H14-C5-C1-H8= 55.25           
           -------------------------------------------------
          |                Final Singlepoint                |
           -------------------------------------------------

          ...................................................
          :                      SETUP                      :
          :.................................................:
          :  # basis functions                  44          :
          :  # atomic orbitals                  42          :
          :  # shells                           22          :
          :  # electrons                        38          :
          :  max. iterations                   250          :
          :  Hamiltonian                  GFN2-xTB          :
          :  restarted?                      false          :
          :  GBSA solvation                   true          :
          :  PC potential                    false          :
          :  electronic temp.          300.0000000     K    :
          :  accuracy                    1.0000000          :
          :  -> integral cutoff          0.2500000E+02      :
          :  -> integral neglect         0.1000000E-07      :
          :  -> SCF convergence          0.1000000E-05 Eh   :
          :  -> wf. convergence          0.1000000E-03 e    :
          :  Broyden damping             0.4000000          :
          :  net charge                          0          :
          :  unpaired electrons                  0          :
          ...................................................

 iter      E             dE          RMSdq      gap      omega  full diag
   1    -21.9387213 -0.219387E+02  0.231E-05    6.88       0.0  T
   2    -21.9387213 -0.735412E-12  0.182E-05    6.88    1468.4  T
   3    -21.9387213 -0.128964E-11  0.992E-06    6.88    2694.8  T

   *** convergence criteria satisfied after 3 iterations ***

         #    Occupation            Energy/Eh            Energy/eV
      -------------------------------------------------------------
         1        2.0000           -1.0553000             -28.7162
       ...           ...                  ...                  ...
        13        2.0000           -0.4701255             -12.7928
        14        2.0000           -0.4535261             -12.3411
        15        2.0000           -0.4358958             -11.8613
        16        2.0000           -0.4182001             -11.3798
        17        2.0000           -0.4152579             -11.2997
        18        2.0000           -0.4150733             -11.2947
        19        2.0000           -0.4107767             -11.1778 (HOMO)
        20                         -0.1580261              -4.3001 (LUMO)
        21                         -0.1567792              -4.2662
        22                          0.0136362               0.3711
        23                          0.0173808               0.4730
        24                          0.0212107               0.5772
       ...                                ...                  ...
        42                          0.2986286               8.1261
      -------------------------------------------------------------
                  HL-Gap            0.2527507 Eh            6.8777 eV
             Fermi-level           -0.2844014 Eh           -7.7390 eV

 SCC (total)                   0 d,  0 h,  0 min,  0.006 sec
 SCC setup                      ...        0 min,  0.001 sec ( 14.208%)
 Dispersion                     ...        0 min,  0.000 sec (  0.517%)
 classical contributions        ...        0 min,  0.000 sec (  0.209%)
 integral evaluation            ...        0 min,  0.001 sec ( 22.220%)
 iterations                     ...        0 min,  0.001 sec ( 14.919%)
 molecular gradient             ...        0 min,  0.003 sec ( 46.386%)
 printout                       ...        0 min,  0.000 sec (  1.224%)

         :::::::::::::::::::::::::::::::::::::::::::::::::::::
         ::                     SUMMARY                     ::
         :::::::::::::::::::::::::::::::::::::::::::::::::::::
         :: total energy             -21.754688988262 Eh    ::
         :: total w/o Gsasa/hb       -21.753534285528 Eh    ::
         :: gradient norm              0.000023851452 Eh/a0 ::
         :: HOMO-LUMO gap              6.877695463627 eV    ::
         ::.................................................::
         :: SCC energy               -21.938701928780 Eh    ::
         :: -> isotropic ES            0.020116233136 Eh    ::
         :: -> anisotropic ES         -0.002291351061 Eh    ::
         :: -> anisotropic XC          0.009965355699 Eh    ::
         :: -> dispersion             -0.009099905406 Eh    ::
         :: -> Gsolv                  -0.009030464868 Eh    ::
         ::    -> Gelec               -0.007875762134 Eh    ::
         ::    -> Gsasa               -0.000713760123 Eh    ::
         ::    -> Ghb                 -0.001521702309 Eh    ::
         ::    -> Gshift               0.001080759698 Eh    ::
         :: repulsion energy           0.184012940519 Eh    ::
         :: add. restraining           0.000000000000 Eh    ::
         :: total charge               0.000000000000 e     ::
         :::::::::::::::::::::::::::::::::::::::::::::::::::::

           ------------------------------------------------- 
          |                Numerical Hessian                |
           ------------------------------------------------- 
step length          :   0.00500
SCC accuracy         :   0.30000
Hessian scale factor :   1.00000
frozen atoms in %    :   0.00000    0
RMS gradient         :   0.00002
estimated CPU  time      0.01 min
estimated wall time      0.01 min

writing file <hessian>.

 projected vibrational frequencies (cm⁻¹)
eigval :       -0.00    -0.00    -0.00    -0.00     0.00     0.00
eigval :       37.05    91.51   132.53   241.21   252.37   329.38
eigval :      492.41   642.49   649.59   792.04   854.71   872.29
eigval :     1011.70  1028.87  1074.69  1079.26  1133.90  1136.04
eigval :     1204.91  1236.42  1252.12  1260.66  1295.65  1359.50
eigval :     1418.97  1419.38  1461.14  1461.18  2977.43  2984.31
eigval :     2992.93  2992.95  2998.05  2999.12  3002.86  3006.01
           -------------------------------------------------
          |                Property Printout                |
           -------------------------------------------------

    * Orbital Energies and Occupations

         #    Occupation            Energy/Eh            Energy/eV
      -------------------------------------------------------------
         1        2.0000           -1.0552999             -28.7162
       ...           ...                  ...                  ...
         7        2.0000           -0.5329402             -14.5020
         8        2.0000           -0.5239326             -14.2569
         9        2.0000           -0.5217963             -14.1988
        10        2.0000           -0.5082401             -13.8299
        11        2.0000           -0.4893598             -13.3162
        12        2.0000           -0.4749701             -12.9246
        13        2.0000           -0.4701255             -12.7928
        14        2.0000           -0.4535260             -12.3411
        15        2.0000           -0.4358957             -11.8613
        16        2.0000           -0.4182000             -11.3798
        17        2.0000           -0.4152578             -11.2997
        18        2.0000           -0.4150733             -11.2947
        19        2.0000           -0.4107767             -11.1778 (HOMO)
        20                         -0.1580259              -4.3001 (LUMO)
        21                         -0.1567791              -4.2662
        22                          0.0136362               0.3711
        23                          0.0173809               0.4730
        24                          0.0212108               0.5772
        25                          0.0213471               0.5809
        26                          0.0254112               0.6915
        27                          0.0254938               0.6937
        28                          0.0256901               0.6991
        29                          0.0258216               0.7026
        30                          0.0629796               1.7138
       ...                                ...                  ...
        42                          0.2986287               8.1261
      -------------------------------------------------------------
                  HL-Gap            0.2527507 Eh            6.8777 eV
             Fermi-level           -0.2844013 Eh           -7.7390 eV

     #   Z          covCN         q      C6AA      α(0)
     1   6 C        3.825    -0.071    21.834     6.649
     2   6 C        3.825    -0.071    21.834     6.649
     3   6 C        3.713     0.022    20.335     6.443
     4  17 Cl       0.909    -0.267   107.649    15.873
     5   6 C        3.713     0.022    20.335     6.443
     6  17 Cl       0.909    -0.267   107.649    15.873
     7   1 H        0.924     0.065     2.142     2.289
     8   1 H        0.924     0.075     2.035     2.231
     9   1 H        0.924     0.065     2.142     2.289
    10   1 H        0.924     0.075     2.035     2.231
    11   1 H        0.925     0.090     1.883     2.146
    12   1 H        0.925     0.087     1.905     2.158
    13   1 H        0.925     0.090     1.883     2.146
    14   1 H        0.925     0.087     1.905     2.158

 Mol. C6AA /au·bohr⁶  :       2535.054546
 Mol. C8AA /au·bohr⁸  :      73870.994520
 Mol. α(0) /au        :         75.578390


Wiberg/Mayer (AO) data.
largest (>0.10) Wiberg bond orders for each atom

 ---------------------------------------------------------------------------
     #   Z sym  total        # sym  WBO       # sym  WBO       # sym  WBO
 ---------------------------------------------------------------------------
     1   6 C    3.990 --     5 C    1.021     2 C    1.008     7 H    0.972
                             8 H    0.962
     2   6 C    3.990 --     3 C    1.021     1 C    1.008     9 H    0.972
                            10 H    0.962
     3   6 C    3.909 --     2 C    1.021    12 H    0.976    11 H    0.975
                             4 Cl   0.917
     4  17 Cl   0.961 --     3 C    0.917
     5   6 C    3.909 --     1 C    1.021    14 H    0.976    13 H    0.975
                             6 Cl   0.917
     6  17 Cl   0.961 --     5 C    0.917
     7   1 H    0.996 --     1 C    0.972
     8   1 H    0.994 --     1 C    0.962
     9   1 H    0.996 --     2 C    0.972
    10   1 H    0.994 --     2 C    0.962
    11   1 H    0.992 --     3 C    0.975
    12   1 H    0.992 --     3 C    0.976
    13   1 H    0.992 --     5 C    0.975
    14   1 H    0.992 --     5 C    0.976
 ---------------------------------------------------------------------------

Topologies differ in total number of bonds
Writing topology from bond orders to xtbtopo.mol

molecular dipole:
                 x           y           z       tot (Debye)
 q only:        0.000       1.892       0.000
   full:        0.000       1.581       0.000       4.018
molecular quadrupole (traceless):
                xx          xy          yy          xz          yz          zz
 q only:       -7.009      -0.000       3.557       4.680      -0.000       3.452
  q+dip:       -6.377      -0.000       2.943       4.546      -0.000       3.434
   full:       -6.435      -0.000       3.643       4.266      -0.000       2.793

           -------------------------------------------------
          |                Geometry Summary                 |
           -------------------------------------------------

      molecular mass/u    :      127.0123448
   center of mass at/Å    :       -0.0000010       0.0039960      -0.0000056
  moments of inertia/u·Å² :        0.1136229E+03   0.5641912E+03   0.6149671E+03
rotational constants/cm⁻¹ :        0.1483648E+00   0.2987929E-01   0.2741225E-01

 * 13 selected distances

     #   Z          #   Z                                           value/Å
     1   6 C        2   6 C                                       1.5281817
     2   6 C        3   6 C                                       1.5172285
     3   6 C        4  17 Cl                                      1.8036346 (max)
     1   6 C        5   6 C                                       1.5172285
     5   6 C        6  17 Cl                                      1.8036346
     1   6 C        7   1 H                                       1.0910330
     1   6 C        8   1 H                                       1.0914556
     2   6 C        9   1 H                                       1.0910330
     2   6 C       10   1 H                                       1.0914556
     3   6 C       11   1 H                                       1.0882298
     3   6 C       12   1 H                                       1.0878600 (min)
     5   6 C       13   1 H                                       1.0882298
     5   6 C       14   1 H                                       1.0878600

 * 3 distinct bonds (by element types)

   Z      Z             #   av. dist./Å        max./Å        min./Å
   1 H    6 C           8     1.0896446     1.0914556     1.0878600
   6 C    6 C           3     1.5208796     1.5281817     1.5172285
   6 C   17 Cl          2     1.8036346     1.8036346     1.8036346

           -------------------------------------------------
          |               Frequency Printout                |
           -------------------------------------------------
 projected vibrational frequencies (cm⁻¹)
eigval :       -0.00    -0.00    -0.00    -0.00     0.00     0.00
eigval :       37.05    91.51   132.53   241.21   252.37   329.38
eigval :      492.41   642.49   649.59   792.04   854.71   872.29
eigval :     1011.70  1028.87  1074.69  1079.26  1133.90  1136.04
eigval :     1204.91  1236.42  1252.12  1260.66  1295.65  1359.50
eigval :     1418.97  1419.38  1461.14  1461.18  2977.43  2984.31
eigval :     2992.93  2992.95  2998.05  2999.12  3002.86  3006.01
 reduced masses (amu)
   1: 20.39   2: 22.29   3: 26.59   4: 27.40   5: 27.82   6: 24.19   7: 26.21   8: 19.44
   9: 14.93  10:  7.55  11: 15.72  12: 14.58  13:  9.80  14: 15.57  15: 16.48  16:  4.75
  17:  5.37  18:  4.60  19:  6.23  20:  6.90  21:  7.37  22:  4.05  23:  5.93  24:  3.44
  25:  3.93  26:  3.40  27:  3.07  28:  2.34  29:  3.47  30:  5.35  31:  2.02  32:  1.98
  33:  1.88  34:  2.01  35:  1.87  36:  1.79  37:  1.62  38:  1.71  39:  1.57  40:  1.65
  41:  1.96  42:  1.83
 IR intensities (km·mol⁻¹)
   1:  1.06   2:  3.03   3:  0.24   4:  1.72   5:  0.93   6:  0.06   7:  0.86   8:  0.73
   9:  5.48  10:  3.85  11:  0.08  12:  1.34  13:  0.28  14:  2.98  15:  0.04  16:  9.37
  17:  2.63  18: 11.15  19:  3.76  20:  0.97  21:  3.42  22:  4.59  23:  2.05  24:  3.84
  25:  0.14  26: 18.93  27: 20.76  28:  7.07  29: 14.70  30:  1.83  31:  5.01  32:  0.44
  33:  0.28  34:  4.75  35:  8.91  36: 23.85  37:  3.64  38:  3.36  39: 10.54  40: 20.63
  41: 22.14  42: 30.02
 Raman intensities (Ä⁴*amu⁻¹)
   1:  0.00   2:  0.00   3:  0.00   4:  0.00   5:  0.00   6:  0.00   7:  0.00   8:  0.00
   9:  0.00  10:  0.00  11:  0.00  12:  0.00  13:  0.00  14:  0.00  15:  0.00  16:  0.00
  17:  0.00  18:  0.00  19:  0.00  20:  0.00  21:  0.00  22:  0.00  23:  0.00  24:  0.00
  25:  0.00  26:  0.00  27:  0.00  28:  0.00  29:  0.00  30:  0.00  31:  0.00  32:  0.00
  33:  0.00  34:  0.00  35:  0.00  36:  0.00  37:  0.00  38:  0.00  39:  0.00  40:  0.00
  41:  0.00  42:  0.00
 output can be read by thermo (or use thermo option).
 writing <g98.out> molden fake output.
 recommended (thermochemical) frequency scaling factor: 1.0
           -------------------------------------------------
          |             Thermodynamic Functions             |
           -------------------------------------------------

Molecule has the following symmetry elements: (C2) 
It seems to be the C2 point group
c2  symmetry found (for desy threshold:  0.10E+00) used in thermo

          ...................................................
          :                      SETUP                      :
          :.................................................:
          :  # frequencies                          36      :
          :  # imaginary freq.                       0      :
          :  linear?                             false      :
          :  only rotor calc.                    false      :
          :  symmetry                               c2      :
          :  rotational number                       2      :
          :  scaling factor                  1.0000000      :
          :  rotor cutoff                    0.0000000 cm⁻¹ :
          :  imag. cutoff                 -100.0000000 cm⁻¹ :
          :.................................................:

    mode    ω/cm⁻¹     T·S(HO)/kcal·mol⁻¹    T·S(FR)/kcal·mol⁻¹   T·S(vib)
   ------------------------------------------------------------------------
       1     37.05    -1.61323 (100.00%)    -1.14502 (  0.00%)    -1.61323
       2     91.51    -1.08151 (100.00%)    -0.87735 (  0.00%)    -1.08151
       3    132.53    -0.86733 (100.00%)    -0.76770 (  0.00%)    -0.86733
       4    241.21    -0.53487 (100.00%)    -0.59033 (  0.00%)    -0.53487
       5    252.37    -0.51101 (100.00%)    -0.57692 (  0.00%)    -0.51101
   ------------------------------------------------------------------------

   temp. (K)  partition function   enthalpy   heat capacity  entropy
                                   cal/mol     cal/K/mol   cal/K/mol   J/K/mol
 298.15  VIB   126.                 2905.920     19.101     19.356
         ROT  0.240E+06              888.752      2.981     27.598
         INT  0.302E+08             3794.673     22.082     46.954
         TR   0.138E+28             1481.254      4.968     40.412
         TOT                        5275.9265    27.0501    87.3669   365.5430

       T/K    H(0)-H(T)+PV         H(T)/Eh          T*S/Eh         G(T)/Eh
   ------------------------------------------------------------------------
    298.15    0.840772E-02    0.120438E+00    0.415108E-01    0.789272E-01
   ------------------------------------------------------------------------

         :::::::::::::::::::::::::::::::::::::::::::::::::::::
         ::                  THERMODYNAMIC                  ::
         :::::::::::::::::::::::::::::::::::::::::::::::::::::
         :: total free energy         -21.675761780917 Eh   ::
         ::.................................................::
         :: total energy              -21.754688988237 Eh   ::
         :: zero point energy           0.112030301540 Eh   ::
         :: G(RRHO) w/o ZPVE           -0.033103094219 Eh   ::
         :: G(RRHO) contrib.            0.078927207321 Eh   ::
         :::::::::::::::::::::::::::::::::::::::::::::::::::::

optimized geometry written to: xtbopt.coord


           -------------------------------------------------
          | TOTAL ENERGY              -21.754688988237 Eh   |
          | TOTAL ENTHALPY            -21.634250962628 Eh   |
          | TOTAL FREE ENERGY         -21.675761780917 Eh   |
          | GRADIENT NORM               0.000023845523 Eh/α |
          | HOMO-LUMO GAP               6.877697959712 eV   |
           -------------------------------------------------

------------------------------------------------------------------------
 * finished run on 2025/04/11 at 14:37:46.882     
------------------------------------------------------------------------
 total:
 * wall-time:     0 d,  0 h,  0 min,  0.847 sec
 *  cpu-time:     0 d,  0 h,  0 min,  0.795 sec
 * ratio c/w:     0.938 speedup
 SCF:
 * wall-time:     0 d,  0 h,  0 min,  0.047 sec
 *  cpu-time:     0 d,  0 h,  0 min,  0.023 sec
 * ratio c/w:     0.495 speedup
 ANC optimizer:
 * wall-time:     0 d,  0 h,  0 min,  0.215 sec
 *  cpu-time:     0 d,  0 h,  0 min,  0.212 sec
 * ratio c/w:     0.984 speedup
 analytical hessian:
 * wall-time:     0 d,  0 h,  0 min,  0.550 sec
 *  cpu-time:     0 d,  0 h,  0 min,  0.548 sec
 * ratio c/w:     0.997 speedup

