! r2scan-3c def2/J RI DEFGRID2 scfconv6 printgap
%output
    printlevel normal
end
%cpcm
    smd true
    smdsolvent "water"
end
* xyz 0 1
C -2.4749988548 -0.7792144969 1.0278692128
C -2.0634627007 -0.7722597125 -0.4393316316
C -1.4099267371 0.5564412866 -0.8389196182
C -0.1141262902 0.7730089098 -0.1009831374
O 0.1116399461 1.6989554743 0.6526482255
O 0.7743915388 -0.1718711181 -0.3710875133
C 2.0570933221 -0.0884642603 0.2705183968
C 2.945131766 -1.176008906 -0.3020536586
H -2.9289133798 -1.7308591957 1.2909438603
H -1.6109916571 -0.6193128926 1.6705531779
H -3.1922958711 0.0135896415 1.2268546262
H -2.9435095451 -0.9272296139 -1.0642400557
H -1.3598670051 -1.583330826 -0.6308747479
H -2.0709804117 1.393488317 -0.6145633542
H -1.1872635481 0.5437492992 -1.9064342221
H 2.4685233762 0.9108343026 0.0931718552
H 1.9124493518 -0.2091413759 1.3493472899
H 3.9207930742 -1.1281261994 0.1700418892
H 2.5049022699 -2.1513836288 -0.1179045703
H 3.0576117056 -1.0388338611 -1.3734195288
*
