 Entering Gaussian System
 *********************************************
 Gaussian 98:
 frequency output generated by the xtb code
 *********************************************
                         Standard orientation:
 --------------------------------------------------------------------
  Center     Atomic     Atomic              Coordinates (Angstroms)
  Number     Number      Type              X           Y           Z
 --------------------------------------------------------------------
    1          6             0        2.953465   -1.130671    0.415044
    2          6             0        1.740714   -0.478520   -0.170980
    3          8             0        0.903688   -1.036423   -0.848628
    4          8             0        1.692302    0.817581    0.141265
    5          6             0        0.576115    1.590119   -0.302630
    6          6             0       -0.553929    1.563856    0.726485
    7          8             0       -1.072245    0.242733    0.904516
    8          6             0       -1.869238   -0.249232   -0.048400
    9          8             0       -2.220910    0.398636   -1.010081
   10          6             0       -2.260053   -1.662964    0.241565
   11          1             0        2.851290   -1.151401    1.497224
   12          1             0        3.833400   -0.543191    0.170261
   13          1             0        3.045884   -2.141565    0.032397
   14          1             0        0.946099    2.608098   -0.419117
   15          1             0        0.216795    1.196394   -1.258883
   16          1             0       -1.354688    2.227453    0.388361
   17          1             0       -0.187084    1.853952    1.710944
   18          1             0       -3.019613   -1.984658   -0.462460
   19          1             0       -2.614119   -1.745080    1.264549
   20          1             0       -1.371990   -2.282330    0.132023
 --------------------------------------------------------------------
     1 basis functions        1 primitive gaussians
     1 alpha electrons        1 beta electrons
 
 Harmonic frequencies (cm**-1), IR intensities (km*mol⁻¹),
 Raman scattering activities (A**4/amu), Raman depolarization ratios,
 reduced masses (AMU), force constants (mDyne/A) and normal coordinates:
                      1                      2                      3
                        a                      a                      a 
 Frequencies --    41.8456                47.0373                58.0802
 Red. masses --     7.6369                 9.7556                11.0962
 Frc consts  --     0.0000                 0.0000                 0.0000
 IR Inten    --     1.3874                 0.7897                 1.0901
 Raman Activ --     0.0000                 0.0000                 0.0000
 Depolar     --     0.0000                 0.0000                 0.0000
 Atom AN      X      Y      Z        X      Y      Z        X      Y      Z
   1   6    -0.35  -0.17   0.14     0.11   0.08   0.20     0.14   0.12  -0.23
   2   6    -0.17   0.00  -0.04     0.15  -0.01   0.02    -0.05  -0.00   0.04
   3   8    -0.16   0.13  -0.20     0.25  -0.11   0.01    -0.32  -0.17   0.50
   4   8    -0.07  -0.01  -0.01     0.09   0.02  -0.10     0.04   0.06  -0.20
   5   6     0.01   0.10  -0.02     0.02  -0.08  -0.11    -0.08  -0.02  -0.00
   6   6    -0.00   0.12  -0.03     0.06  -0.08  -0.07     0.03  -0.04   0.12
   7   8     0.10   0.11   0.04     0.07  -0.10  -0.12    -0.09  -0.01   0.09
   8   6     0.16  -0.04   0.03    -0.18   0.05   0.03     0.07   0.01  -0.05
   9   8     0.13  -0.13   0.00    -0.48   0.23   0.24     0.32   0.01  -0.15
  10   6     0.36  -0.09   0.05    -0.09   0.01  -0.10    -0.05   0.03  -0.10
  11   1    -0.29  -0.28   0.02    -0.17  -0.25   0.03    -0.04  -0.24  -0.08
  12   1    -0.09   0.05   0.31    -0.00   0.19   0.35    -0.02   0.21   0.14
  13   1     0.01   0.03  -0.14     0.22   0.12  -0.15     0.20   0.13  -0.28
  14   1     0.02   0.02   0.01    -0.01  -0.02  -0.06    -0.04   0.00  -0.01
  15   1     0.00   0.05  -0.01     0.00  -0.05  -0.02    -0.05  -0.00   0.01
  16   1    -0.01   0.01  -0.02     0.01  -0.02  -0.01     0.01   0.01   0.07
  17   1    -0.01   0.06  -0.01     0.03  -0.03  -0.02     0.04  -0.04   0.03
  18   1    -0.01  -0.00   0.13    -0.08   0.03   0.01    -0.02   0.03  -0.04
  19   1     0.29  -0.08   0.07     0.05  -0.05  -0.01    -0.02   0.01  -0.03
  20   1     0.09  -0.01  -0.18    -0.03   0.01  -0.12    -0.03  -0.01  -0.03
                      4                      5                      6
                        a                      a                      a 
 Frequencies --    56.5348                86.4535               118.4752
 Red. masses --     6.1555                 8.0969                10.5812
 Frc consts  --     0.0000                 0.0000                 0.0000
 IR Inten    --    14.3301                 1.0717                 8.2267
 Raman Activ --     0.0000                 0.0000                 0.0000
 Depolar     --     0.0000                 0.0000                 0.0000
 Atom AN      X      Y      Z        X      Y      Z        X      Y      Z
   1   6    -0.04  -0.02   0.01     0.19   0.05  -0.11     0.20  -0.11  -0.31
   2   6     0.05   0.04  -0.10     0.12  -0.02  -0.05     0.03  -0.08   0.07
   3   8     0.16   0.14  -0.31     0.26  -0.02  -0.21    -0.03  -0.01   0.10
   4   8    -0.00   0.01   0.06    -0.07  -0.09   0.18    -0.04  -0.17   0.38
   5   6     0.01   0.02   0.04    -0.03  -0.09   0.07     0.13  -0.02   0.11
   6   6    -0.01  -0.02   0.02    -0.08   0.04   0.01    -0.13   0.20  -0.17
   7   8    -0.00  -0.03   0.03    -0.25   0.12   0.10    -0.15   0.25  -0.08
   8   6     0.01  -0.05   0.03    -0.09   0.03   0.02    -0.07   0.05  -0.03
   9   8     0.19  -0.16  -0.10     0.19  -0.12  -0.19    -0.30  -0.06  -0.03
  10   6    -0.28   0.07   0.25    -0.24   0.10   0.17     0.27  -0.04   0.03
  11   1    -0.16  -0.22  -0.02     0.05  -0.04  -0.03     0.09  -0.18  -0.09
  12   1    -0.02   0.10   0.23     0.03   0.06  -0.00     0.02   0.05  -0.04
  13   1     0.11   0.07  -0.17     0.10   0.03  -0.08     0.10   0.02  -0.22
  14   1     0.00   0.01   0.03    -0.00  -0.03   0.00     0.08  -0.02   0.04
  15   1     0.01   0.01   0.01    -0.00  -0.04   0.02     0.08  -0.01   0.01
  16   1    -0.01  -0.01   0.00    -0.00   0.02  -0.02    -0.01   0.04  -0.15
  17   1    -0.01  -0.00   0.01    -0.03   0.02   0.00    -0.11   0.11  -0.04
  18   1     0.12  -0.06  -0.11    -0.33   0.14   0.28     0.18  -0.11  -0.05
  19   1    -0.41   0.17  -0.03     0.29  -0.02   0.17    -0.02   0.00  -0.02
  20   1    -0.06  -0.01   0.44    -0.16  -0.04  -0.32     0.15   0.07   0.13
                      7                      8                      9
                        a                      a                      a 
 Frequencies --   131.1541               236.6184               263.6235
 Red. masses --    12.1928                12.9032                10.5376
 Frc consts  --     0.0000                 0.0000                 0.0000
 IR Inten    --     1.0242                 6.6757                29.1300
 Raman Activ --     0.0000                 0.0000                 0.0000
 Depolar     --     0.0000                 0.0000                 0.0000
 Atom AN      X      Y      Z        X      Y      Z        X      Y      Z
   1   6    -0.04  -0.10  -0.09    -0.03  -0.18   0.06    -0.02  -0.20  -0.07
   2   6    -0.00   0.12   0.09     0.16   0.07  -0.06     0.10   0.13   0.09
   3   8    -0.21   0.31   0.22     0.04   0.18   0.04    -0.00   0.37   0.08
   4   8     0.26   0.16   0.08     0.35   0.14  -0.26     0.11   0.16   0.11
   5   6     0.25   0.18   0.09     0.04  -0.07   0.05    -0.06  -0.27  -0.25
   6   6     0.05  -0.11  -0.13     0.16  -0.06   0.22    -0.10  -0.04  -0.27
   7   8     0.20  -0.20  -0.29    -0.49   0.17   0.11    -0.07  -0.00   0.26
   8   6    -0.05  -0.13  -0.08    -0.21   0.03  -0.03     0.01  -0.05   0.17
   9   8    -0.17  -0.20  -0.08    -0.19  -0.18  -0.20     0.19   0.07   0.21
  10   6    -0.25  -0.03   0.16     0.13  -0.06   0.03    -0.10  -0.08  -0.18
  11   1     0.01  -0.06  -0.03    -0.05  -0.03   0.01     0.02  -0.11  -0.02
  12   1     0.01  -0.05  -0.03     0.04  -0.12   0.04     0.04  -0.12  -0.01
  13   1    -0.06  -0.02  -0.06    -0.08  -0.06   0.03    -0.09  -0.05  -0.08
  14   1     0.06   0.07   0.12    -0.04  -0.01  -0.01    -0.09  -0.07  -0.21
  15   1     0.12   0.11  -0.02    -0.03  -0.04   0.04     0.02  -0.23  -0.02
  16   1     0.00  -0.06  -0.07     0.12   0.11   0.14    -0.04  -0.07  -0.17
  17   1    -0.05  -0.03  -0.01     0.12  -0.12   0.07    -0.05   0.12  -0.11
  18   1    -0.19   0.03   0.15     0.08  -0.10   0.00    -0.01   0.05  -0.11
  19   1     0.06   0.03   0.09     0.03  -0.03   0.01    -0.07  -0.10  -0.07
  20   1    -0.13  -0.07  -0.06     0.09   0.06   0.03    -0.04  -0.03  -0.08
                     10                     11                     12
                        a                      a                      a 
 Frequencies --   326.5285               383.3651               411.6832
 Red. masses --     9.2785                10.2197                10.5842
 Frc consts  --     0.0000                 0.0000                 0.0000
 IR Inten    --     5.6783                13.2147                12.7313
 Raman Activ --     0.0000                 0.0000                 0.0000
 Depolar     --     0.0000                 0.0000                 0.0000
 Atom AN      X      Y      Z        X      Y      Z        X      Y      Z
   1   6    -0.01  -0.02  -0.06     0.00   0.35   0.07     0.01   0.18   0.07
   2   6    -0.05   0.06   0.14    -0.17  -0.10  -0.02    -0.02  -0.07  -0.11
   3   8    -0.02   0.20   0.02    -0.29   0.20  -0.15    -0.22   0.15  -0.07
   4   8    -0.20   0.03   0.28     0.04  -0.19   0.19     0.18  -0.11  -0.04
   5   6    -0.20  -0.27  -0.18     0.26  -0.13  -0.09     0.10  -0.20   0.09
   6   6     0.18  -0.10   0.16     0.32   0.01  -0.04    -0.14  -0.29  -0.15
   7   8     0.16  -0.11  -0.23    -0.05   0.13   0.09    -0.19  -0.21   0.03
   8   6     0.05   0.07  -0.19    -0.03  -0.03   0.12    -0.12   0.04  -0.11
   9   8    -0.08   0.08  -0.17    -0.06  -0.22   0.03     0.17   0.38  -0.01
  10   6     0.13   0.12   0.17    -0.10  -0.09  -0.15     0.17   0.05   0.22
  11   1     0.05  -0.05  -0.01    -0.00   0.17   0.02    -0.05   0.13   0.02
  12   1    -0.01  -0.00  -0.04    -0.09   0.23  -0.01    -0.04   0.12   0.03
  13   1    -0.03   0.01  -0.06     0.17   0.09   0.09     0.11   0.03   0.10
  14   1    -0.10  -0.09  -0.26     0.09  -0.05  -0.06    -0.01  -0.03   0.09
  15   1    -0.10  -0.27   0.04     0.08  -0.07  -0.02     0.08  -0.02  -0.01
  16   1     0.05   0.05   0.22     0.13   0.08   0.05    -0.03  -0.13  -0.18
  17   1     0.20  -0.16   0.03     0.17  -0.05  -0.02    -0.14   0.02  -0.04
  18   1     0.02  -0.05   0.12    -0.01   0.06  -0.11     0.05  -0.16   0.15
  19   1     0.08   0.13   0.07    -0.08  -0.12  -0.07     0.12   0.11   0.10
  20   1     0.05   0.04   0.08    -0.04  -0.04  -0.08     0.12   0.10   0.11
                     13                     14                     15
                        a                      a                      a 
 Frequencies --   498.0347               578.6920               584.4114
 Red. masses --     9.2296                 9.9536                 9.9821
 Frc consts  --     0.0000                 0.0000                 0.0000
 IR Inten    --     2.5754                10.7288                31.8670
 Raman Activ --     0.0000                 0.0000                 0.0000
 Depolar     --     0.0000                 0.0000                 0.0000
 Atom AN      X      Y      Z        X      Y      Z        X      Y      Z
   1   6     0.05   0.03   0.06     0.05  -0.04   0.05     0.01  -0.02   0.05
   2   6     0.14  -0.06  -0.23    -0.16  -0.12   0.31    -0.29  -0.16   0.46
   3   8    -0.18   0.10   0.02     0.05   0.10  -0.13     0.09   0.09  -0.21
   4   8     0.20  -0.08  -0.10     0.07   0.00  -0.16     0.18   0.05  -0.26
   5   6    -0.11  -0.26   0.28     0.00   0.02  -0.04    -0.04  -0.06   0.10
   6   6    -0.20   0.21   0.20    -0.01   0.03  -0.00    -0.07  -0.01   0.08
   7   8     0.20   0.07  -0.05    -0.26   0.11   0.09     0.19  -0.08   0.00
   8   6     0.27   0.00  -0.10     0.43  -0.24  -0.31    -0.19   0.18   0.16
   9   8    -0.20  -0.14  -0.04    -0.13   0.16   0.17     0.01  -0.16  -0.15
  10   6    -0.01   0.12  -0.06     0.01  -0.11   0.00     0.02   0.16  -0.02
  11   1    -0.11   0.10   0.01     0.19  -0.08   0.03     0.28  -0.10   0.03
  12   1     0.03   0.00   0.08    -0.07   0.08  -0.10    -0.13   0.14  -0.16
  13   1     0.07  -0.02   0.12     0.06   0.02  -0.06     0.07   0.04  -0.10
  14   1    -0.06  -0.09  -0.14     0.01   0.01   0.04    -0.03  -0.02  -0.03
  15   1    -0.14  -0.22   0.18     0.01   0.05  -0.03    -0.07  -0.04   0.06
  16   1    -0.06  -0.03  -0.12     0.02   0.05   0.02    -0.04  -0.08  -0.09
  17   1    -0.22   0.16   0.08     0.02  -0.02  -0.00    -0.13   0.09   0.03
  18   1    -0.04   0.13  -0.02    -0.11   0.04   0.09     0.06   0.02  -0.06
  19   1    -0.03   0.09  -0.02    -0.01   0.24   0.02     0.00  -0.10  -0.02
  20   1    -0.09  -0.09  -0.00    -0.16  -0.27   0.10     0.08   0.16  -0.06
                     16                     17                     18
                        a                      a                      a 
 Frequencies --   619.9616               639.6255               841.0156
 Red. masses --    11.5862                11.2741                10.0072
 Frc consts  --     0.0000                 0.0000                 0.0000
 IR Inten    --    10.1833                23.1868                38.0035
 Raman Activ --     0.0000                 0.0000                 0.0000
 Depolar     --     0.0000                 0.0000                 0.0000
 Atom AN      X      Y      Z        X      Y      Z        X      Y      Z
   1   6    -0.42   0.22  -0.21    -0.00   0.01  -0.01    -0.12   0.08  -0.04
   2   6    -0.21   0.21   0.00     0.03   0.05  -0.03     0.03   0.05   0.05
   3   8     0.21  -0.42  -0.02     0.01   0.01   0.04     0.08   0.05   0.05
   4   8     0.25   0.22   0.16    -0.11  -0.01   0.04     0.05  -0.06  -0.09
   5   6     0.19  -0.14   0.14    -0.01  -0.01  -0.10    -0.14  -0.33   0.17
   6   6     0.08  -0.05   0.00     0.02  -0.35  -0.10    -0.17  -0.17  -0.16
   7   8    -0.06  -0.00   0.06    -0.02  -0.12   0.38    -0.04   0.27  -0.43
   8   6     0.06  -0.03  -0.06     0.25   0.17  -0.02     0.10  -0.01   0.17
   9   8    -0.05   0.01   0.00    -0.27  -0.27  -0.12     0.12  -0.06   0.21
  10   6     0.01   0.00  -0.01     0.14   0.46  -0.10     0.08   0.13   0.07
  11   1    -0.08   0.02  -0.06    -0.02  -0.00  -0.00    -0.02   0.00  -0.01
  12   1    -0.11   0.04  -0.07     0.02  -0.03   0.02    -0.03   0.01  -0.02
  13   1    -0.18   0.08  -0.11    -0.03  -0.00  -0.00    -0.07   0.03  -0.04
  14   1    -0.05  -0.02  -0.12    -0.03   0.03   0.18    -0.06  -0.05   0.31
  15   1     0.05  -0.19   0.10     0.10   0.14  -0.12     0.07   0.10  -0.07
  16   1     0.05  -0.04  -0.11    -0.03  -0.14  -0.04     0.06   0.15   0.10
  17   1    -0.07   0.05   0.01     0.05   0.02  -0.08     0.09  -0.25  -0.03
  18   1    -0.01   0.01   0.01     0.02   0.21  -0.04     0.04   0.21  -0.09
  19   1     0.00   0.05   0.00     0.02   0.16  -0.03    -0.06  -0.10  -0.02
  20   1    -0.02  -0.04   0.02    -0.02   0.05  -0.01    -0.02  -0.02  -0.05
                     19                     20                     21
                        a                      a                      a 
 Frequencies --   854.8238               927.9427               944.6279
 Red. masses --    10.0114                 9.2391                10.2227
 Frc consts  --     0.0000                 0.0000                 0.0000
 IR Inten    --    13.7144                10.0057                25.2289
 Raman Activ --     0.0000                 0.0000                 0.0000
 Depolar     --     0.0000                 0.0000                 0.0000
 Atom AN      X      Y      Z        X      Y      Z        X      Y      Z
   1   6     0.08  -0.17   0.01     0.24  -0.10   0.14    -0.09   0.15  -0.02
   2   6    -0.07  -0.17  -0.09    -0.11   0.04  -0.08     0.07   0.04   0.06
   3   8    -0.13  -0.20  -0.13    -0.14  -0.09  -0.10     0.08   0.12   0.08
   4   8     0.38   0.23   0.27    -0.24   0.21   0.00    -0.04  -0.29  -0.11
   5   6    -0.08   0.27  -0.13     0.08   0.16   0.15     0.28   0.15  -0.14
   6   6    -0.30  -0.01  -0.07     0.30  -0.27  -0.04    -0.18   0.16   0.09
   7   8    -0.07  -0.05  -0.07    -0.22   0.06  -0.24    -0.25  -0.29  -0.14
   8   6     0.03  -0.02   0.07     0.05  -0.04   0.08     0.01  -0.16   0.06
   9   8     0.04  -0.06   0.09     0.06  -0.03   0.14     0.08  -0.11   0.21
  10   6     0.06   0.15  -0.00     0.09   0.11   0.06     0.06   0.31  -0.05
  11   1     0.01   0.07   0.01     0.10  -0.08   0.04    -0.02  -0.03  -0.01
  12   1    -0.07   0.10  -0.01     0.10  -0.08   0.03     0.03  -0.04  -0.01
  13   1     0.23  -0.07   0.11     0.04  -0.02   0.01    -0.16   0.05  -0.08
  14   1    -0.14   0.10  -0.16    -0.11   0.06  -0.19     0.27  -0.06  -0.26
  15   1     0.11  -0.11  -0.01    -0.14  -0.11   0.15    -0.06  -0.07   0.05
  16   1    -0.14   0.07   0.26     0.17  -0.09  -0.27    -0.07   0.04   0.09
  17   1     0.11  -0.18  -0.03    -0.22  -0.03   0.08    -0.12  -0.14   0.10
  18   1     0.02   0.09  -0.03     0.03   0.18  -0.06     0.03   0.09  -0.03
  19   1    -0.00   0.02  -0.01    -0.04  -0.05  -0.02     0.04   0.10  -0.01
  20   1     0.00   0.03  -0.01    -0.02  -0.03  -0.03     0.05   0.13  -0.02
                     22                     23                     24
                        a                      a                      a 
 Frequencies --   990.7154               996.7046              1001.1004
 Red. masses --     6.9091                 6.7480                 5.9038
 Frc consts  --     0.0000                 0.0000                 0.0000
 IR Inten    --    15.6079                38.8720                61.0793
 Raman Activ --     0.0000                 0.0000                 0.0000
 Depolar     --     0.0000                 0.0000                 0.0000
 Atom AN      X      Y      Z        X      Y      Z        X      Y      Z
   1   6    -0.17  -0.06  -0.22    -0.15  -0.18  -0.26    -0.28  -0.11   0.25
   2   6     0.11  -0.14   0.14     0.09  -0.15   0.15     0.27   0.07  -0.33
   3   8     0.16   0.11   0.11     0.16   0.09   0.10     0.01   0.01   0.12
   4   8    -0.02  -0.08  -0.00    -0.09   0.09  -0.02    -0.03  -0.05   0.06
   5   6     0.02   0.15  -0.16    -0.13   0.03   0.07    -0.02   0.04  -0.03
   6   6     0.01  -0.11   0.13     0.21   0.02  -0.06     0.02  -0.02   0.02
   7   8    -0.10  -0.05  -0.05    -0.05   0.03  -0.05    -0.03   0.01   0.01
   8   6     0.05   0.21   0.03     0.04  -0.22  -0.05     0.16  -0.04  -0.10
   9   8    -0.04   0.12  -0.16     0.04  -0.10   0.18    -0.04   0.04  -0.01
  10   6     0.16  -0.17   0.27    -0.15   0.19  -0.14    -0.12   0.02   0.12
  11   1    -0.21   0.18  -0.07    -0.23   0.24  -0.07     0.41  -0.12   0.10
  12   1    -0.12   0.13   0.01    -0.17   0.19   0.01    -0.33   0.24  -0.28
  13   1     0.13  -0.06   0.11     0.27  -0.11   0.19     0.10   0.07  -0.15
  14   1     0.06   0.01  -0.09    -0.05   0.02   0.03    -0.00   0.01  -0.01
  15   1    -0.06   0.02  -0.01    -0.11   0.05   0.03    -0.03   0.01   0.00
  16   1    -0.04  -0.12  -0.06     0.11   0.01  -0.13    -0.00  -0.03  -0.03
  17   1    -0.12   0.04   0.06    -0.04   0.03   0.01    -0.03   0.02   0.01
  18   1     0.04   0.32  -0.11     0.01  -0.21   0.04     0.06  -0.02  -0.05
  19   1    -0.18  -0.26  -0.02     0.12   0.10   0.02    -0.02  -0.22   0.01
  20   1    -0.13  -0.26  -0.06     0.13   0.28  -0.00     0.07   0.16  -0.07
                     25                     26                     27
                        a                      a                      a 
 Frequencies --  1003.7149              1052.1861              1068.6654
 Red. masses --     5.9944                11.7569                11.4914
 Frc consts  --     0.0000                 0.0000                 0.0000
 IR Inten    --    10.3592                59.3360                97.5505
 Raman Activ --     0.0000                 0.0000                 0.0000
 Depolar     --     0.0000                 0.0000                 0.0000
 Atom AN      X      Y      Z        X      Y      Z        X      Y      Z
   1   6    -0.16  -0.09   0.06    -0.06   0.16  -0.01    -0.02   0.13   0.02
   2   6     0.14  -0.01  -0.12     0.05  -0.05   0.05     0.01  -0.02   0.01
   3   8     0.04   0.03   0.08     0.03   0.06   0.03    -0.01   0.00  -0.01
   4   8    -0.06   0.01   0.01     0.22  -0.37   0.07     0.29  -0.25   0.11
   5   6    -0.02   0.00   0.03    -0.20   0.34  -0.09    -0.48   0.15   0.10
   6   6     0.05   0.01  -0.02    -0.03  -0.44   0.04     0.34   0.28  -0.22
   7   8     0.03  -0.03  -0.06     0.14   0.44  -0.00    -0.17  -0.33  -0.03
   8   6    -0.35   0.09   0.23    -0.02  -0.01   0.01    -0.02  -0.03  -0.00
   9   8     0.09  -0.08   0.02     0.01  -0.02   0.03     0.01   0.01   0.01
  10   6     0.27  -0.05  -0.26    -0.08  -0.06  -0.11     0.08   0.07   0.07
  11   1     0.13  -0.00   0.03    -0.03  -0.03  -0.01     0.00  -0.04   0.00
  12   1    -0.19   0.14  -0.12     0.04  -0.04   0.00     0.05  -0.05  -0.00
  13   1     0.10   0.01  -0.03    -0.16   0.05  -0.07    -0.13   0.05  -0.07
  14   1    -0.00   0.00   0.01    -0.09   0.08  -0.15    -0.14   0.05   0.08
  15   1    -0.04   0.01   0.02    -0.11  -0.06   0.06    -0.12   0.05   0.03
  16   1     0.03   0.01  -0.03    -0.02  -0.13  -0.03     0.06   0.02  -0.09
  17   1    -0.01   0.00   0.00    -0.10  -0.04   0.03     0.12   0.13  -0.10
  18   1    -0.14   0.07   0.12    -0.04  -0.16   0.05     0.03   0.14  -0.04
  19   1     0.03   0.49  -0.03     0.05   0.09   0.01    -0.04  -0.04  -0.01
  20   1    -0.16  -0.35   0.16     0.02   0.03   0.04    -0.02  -0.02  -0.02
                     28                     29                     30
                        a                      a                      a 
 Frequencies --  1096.3461              1175.0822              1178.5049
 Red. masses --     9.1498                 9.6426                 8.4341
 Frc consts  --     0.0000                 0.0000                 0.0000
 IR Inten    --    19.3888               302.0498               472.7524
 Raman Activ --     0.0000                 0.0000                 0.0000
 Depolar     --     0.0000                 0.0000                 0.0000
 Atom AN      X      Y      Z        X      Y      Z        X      Y      Z
   1   6    -0.05   0.00  -0.03     0.09  -0.21   0.01     0.06  -0.11   0.01
   2   6     0.08  -0.09   0.03    -0.26   0.55  -0.02    -0.17   0.32  -0.01
   3   8     0.06   0.08   0.05     0.05  -0.04   0.02     0.01  -0.05  -0.01
   4   8    -0.18  -0.04  -0.19     0.08  -0.22  -0.04     0.12  -0.10   0.04
   5   6     0.10   0.17   0.47    -0.09   0.02   0.06    -0.11  -0.02  -0.07
   6   6    -0.06  -0.05  -0.47    -0.03  -0.09  -0.05     0.00   0.03  -0.12
   7   8     0.07  -0.05   0.21     0.12   0.12   0.12    -0.10  -0.14  -0.05
   8   6     0.05   0.11  -0.00    -0.24  -0.29  -0.18     0.33   0.44   0.24
   9   8    -0.06   0.04  -0.11     0.01   0.05  -0.01    -0.04  -0.05  -0.04
  10   6    -0.01  -0.07   0.03     0.09   0.10   0.07    -0.12  -0.16  -0.09
  11   1    -0.02   0.02  -0.01     0.01   0.05   0.00     0.01   0.02   0.00
  12   1    -0.03   0.02  -0.01    -0.04   0.05   0.00    -0.01   0.02   0.01
  13   1    -0.01   0.00  -0.01     0.25  -0.07   0.12     0.14  -0.04   0.07
  14   1    -0.02   0.02  -0.23     0.28  -0.12  -0.04     0.22  -0.10   0.01
  15   1    -0.03  -0.21   0.24    -0.10  -0.01   0.05    -0.18   0.09   0.00
  16   1    -0.01   0.13   0.16    -0.03  -0.01   0.05     0.09   0.09  -0.06
  17   1     0.19  -0.24  -0.13     0.09   0.05  -0.07    -0.19  -0.27   0.12
  18   1    -0.00  -0.02   0.01     0.03   0.19  -0.07    -0.05  -0.25   0.10
  19   1    -0.02  -0.05   0.00    -0.03  -0.03  -0.01     0.03   0.02   0.01
  20   1    -0.01  -0.03   0.00    -0.02  -0.02  -0.03     0.01   0.00   0.05
                     31                     32                     33
                        a                      a                      a 
 Frequencies --  1218.7626              1230.5487              1294.7002
 Red. masses --     5.9109                 3.9740                 3.4997
 Frc consts  --     0.0000                 0.0000                 0.0000
 IR Inten    --   228.0175               100.3537                 3.4408
 Raman Activ --     0.0000                 0.0000                 0.0000
 Depolar     --     0.0000                 0.0000                 0.0000
 Atom AN      X      Y      Z        X      Y      Z        X      Y      Z
   1   6    -0.03   0.09   0.01    -0.02   0.07   0.01     0.00  -0.01  -0.01
   2   6     0.10  -0.23  -0.01     0.08  -0.21  -0.01    -0.03   0.05  -0.00
   3   8    -0.06  -0.03  -0.04    -0.06  -0.04  -0.05     0.01   0.00   0.01
   4   8     0.07   0.20   0.13     0.05   0.28   0.08     0.01  -0.05   0.02
   5   6    -0.08  -0.05  -0.12    -0.09  -0.06   0.10     0.16  -0.15  -0.05
   6   6    -0.07  -0.01  -0.11     0.08  -0.10  -0.07     0.23   0.20  -0.20
   7   8     0.20   0.01   0.26    -0.09   0.08  -0.10     0.01   0.10   0.07
   8   6    -0.16  -0.18  -0.13     0.04   0.03   0.03    -0.06  -0.07  -0.03
   9   8    -0.02   0.06  -0.08     0.01  -0.02   0.03    -0.01   0.02  -0.03
  10   6     0.06   0.06   0.06    -0.02  -0.01  -0.02     0.01  -0.00   0.01
  11   1     0.01  -0.03   0.00     0.02  -0.02   0.00     0.01  -0.00  -0.00
  12   1     0.02  -0.02   0.00     0.02  -0.02   0.00     0.01  -0.01   0.01
  13   1    -0.10   0.03  -0.05    -0.08   0.02  -0.04     0.03  -0.01   0.02
  14   1     0.20  -0.08   0.02     0.55  -0.23  -0.05    -0.31   0.11   0.13
  15   1    -0.31   0.19  -0.00    -0.31   0.15   0.07    -0.24   0.09   0.04
  16   1     0.29   0.33  -0.12    -0.29  -0.32   0.15    -0.41  -0.34   0.30
  17   1    -0.27  -0.33   0.17     0.18   0.16  -0.13    -0.31  -0.27   0.19
  18   1     0.02   0.11  -0.04    -0.01  -0.03   0.01     0.00   0.05  -0.02
  19   1    -0.02  -0.04  -0.00     0.01   0.01   0.00     0.00   0.02   0.00
  20   1    -0.02  -0.02  -0.02     0.01   0.01   0.01     0.01   0.01  -0.00
                     34                     35                     36
                        a                      a                      a 
 Frequencies --  1314.1686              1354.1580              1356.2124
 Red. masses --     3.3796                 3.3292                 3.3169
 Frc consts  --     0.0000                 0.0000                 0.0000
 IR Inten    --     1.6546                64.4185                74.5788
 Raman Activ --     0.0000                 0.0000                 0.0000
 Depolar     --     0.0000                 0.0000                 0.0000
 Atom AN      X      Y      Z        X      Y      Z        X      Y      Z
   1   6    -0.01   0.00  -0.01     0.05  -0.02   0.03    -0.36   0.15  -0.21
   2   6    -0.04   0.05  -0.00    -0.01   0.01  -0.00     0.02  -0.05  -0.00
   3   8     0.02   0.00   0.01     0.00   0.00   0.00     0.02   0.02   0.02
   4   8     0.04  -0.07   0.08    -0.00  -0.00  -0.00    -0.00  -0.01  -0.01
   5   6     0.34  -0.06  -0.09     0.00  -0.01  -0.00    -0.03   0.01   0.01
   6   6    -0.22  -0.07   0.04     0.02   0.01  -0.01     0.01   0.00   0.00
   7   8    -0.02  -0.06  -0.05    -0.00   0.00  -0.01     0.00   0.00   0.00
   8   6     0.04   0.03   0.03    -0.04  -0.04  -0.02    -0.01  -0.01  -0.01
   9   8     0.00  -0.00   0.00     0.01  -0.01   0.03     0.00  -0.00   0.00
  10   6    -0.01   0.00  -0.00     0.07   0.43  -0.11     0.01   0.07  -0.02
  11   1     0.02  -0.01  -0.00    -0.08   0.02  -0.00     0.53  -0.13   0.02
  12   1     0.02  -0.02   0.01    -0.04   0.04  -0.06     0.25  -0.26   0.40
  13   1     0.04  -0.01   0.03    -0.05   0.01  -0.04     0.33  -0.05   0.27
  14   1    -0.32   0.13   0.02    -0.01   0.00   0.01     0.01  -0.00  -0.02
  15   1    -0.62   0.24   0.14    -0.00  -0.00   0.00     0.04  -0.00  -0.01
  16   1     0.10   0.14  -0.04    -0.02  -0.01   0.03     0.00  -0.00  -0.01
  17   1     0.30   0.21  -0.19    -0.02   0.02   0.01    -0.01  -0.00   0.01
  18   1    -0.00  -0.02   0.01     0.04  -0.39   0.16     0.01  -0.06   0.02
  19   1     0.00  -0.01  -0.00     0.10  -0.53  -0.03     0.02  -0.08  -0.00
  20   1    -0.00  -0.00   0.00    -0.28  -0.40   0.25    -0.04  -0.06   0.04
                     37                     38                     39
                        a                      a                      a 
 Frequencies --  1397.4560              1411.6245              1417.5475
 Red. masses --     1.9196                 1.8935                 1.7806
 Frc consts  --     0.0000                 0.0000                 0.0000
 IR Inten    --     8.8796                19.9609                23.3029
 Raman Activ --     0.0000                 0.0000                 0.0000
 Depolar     --     0.0000                 0.0000                 0.0000
 Atom AN      X      Y      Z        X      Y      Z        X      Y      Z
   1   6     0.01   0.00  -0.00    -0.01   0.02   0.02     0.00   0.03  -0.01
   2   6    -0.01   0.01  -0.00    -0.04   0.01  -0.02     0.01  -0.01  -0.00
   3   8     0.00   0.00   0.00     0.03   0.02   0.02    -0.00  -0.00  -0.00
   4   8     0.01  -0.01   0.00     0.02  -0.04   0.02    -0.00   0.01  -0.00
   5   6    -0.01  -0.01   0.03    -0.03  -0.15   0.21     0.01   0.02  -0.03
   6   6    -0.10   0.20   0.15     0.03  -0.03  -0.01    -0.01   0.02   0.01
   7   8     0.02   0.05   0.03     0.00   0.01  -0.00     0.01   0.01   0.02
   8   6    -0.02  -0.04   0.00    -0.01   0.00  -0.01    -0.00  -0.02  -0.06
   9   8    -0.01   0.02  -0.03     0.01  -0.01   0.01     0.01  -0.03   0.04
  10   6    -0.01   0.02  -0.00     0.04   0.01   0.00     0.23   0.07   0.00
  11   1    -0.01  -0.02  -0.00    -0.06  -0.04  -0.00    -0.02  -0.08  -0.00
  12   1    -0.01   0.01  -0.01     0.02  -0.06  -0.09    -0.01   0.01  -0.04
  13   1    -0.01  -0.01   0.01     0.08   0.01  -0.00    -0.00  -0.02   0.07
  14   1    -0.03   0.00  -0.08    -0.14  -0.04  -0.61     0.02   0.01   0.10
  15   1     0.01   0.08  -0.03     0.16   0.60  -0.29    -0.03  -0.10   0.05
  16   1    -0.09  -0.36  -0.56     0.00   0.03   0.07    -0.01  -0.03  -0.04
  17   1     0.42  -0.52   0.02    -0.07   0.05   0.02     0.03  -0.04   0.00
  18   1     0.02   0.01  -0.02    -0.05  -0.03   0.07    -0.31  -0.16   0.45
  19   1     0.04  -0.01   0.01    -0.10  -0.00  -0.04    -0.64  -0.05  -0.24
  20   1    -0.01  -0.02   0.02     0.01   0.02  -0.05     0.07   0.13  -0.27
                     40                     41                     42
                        a                      a                      a 
 Frequencies --  1419.4299              1421.3099              1427.9321
 Red. masses --     1.7853                 1.5743                 1.5947
 Frc consts  --     0.0000                 0.0000                 0.0000
 IR Inten    --    36.8668                12.2131                19.5326
 Raman Activ --     0.0000                 0.0000                 0.0000
 Depolar     --     0.0000                 0.0000                 0.0000
 Atom AN      X      Y      Z        X      Y      Z        X      Y      Z
   1   6    -0.09   0.20   0.09     0.13   0.11  -0.14     0.01   0.02  -0.01
   2   6    -0.02  -0.05  -0.01     0.01   0.02  -0.04    -0.00  -0.00  -0.00
   3   8     0.05   0.03   0.03     0.01   0.00   0.01     0.00   0.00   0.00
   4   8    -0.01   0.03  -0.00    -0.00  -0.01   0.01    -0.00  -0.00  -0.00
   5   6    -0.00   0.03  -0.03    -0.01  -0.01   0.01    -0.00  -0.00   0.00
   6   6     0.00  -0.00  -0.00     0.00  -0.01  -0.00    -0.00  -0.00   0.00
   7   8    -0.00  -0.00  -0.00    -0.00  -0.00  -0.00    -0.01  -0.00  -0.00
   8   6     0.00   0.00   0.00    -0.00   0.00   0.00     0.03  -0.02  -0.00
   9   8    -0.00   0.00  -0.00     0.00   0.00  -0.00    -0.01   0.02  -0.03
  10   6    -0.02  -0.00   0.01    -0.02   0.00   0.01     0.01  -0.10  -0.20
  11   1    -0.33  -0.39  -0.03     0.00  -0.53  -0.03    -0.02  -0.05  -0.00
  12   1     0.09  -0.37  -0.54    -0.19   0.32  -0.01    -0.01   0.01  -0.02
  13   1     0.43   0.03   0.12    -0.33  -0.25   0.58    -0.01  -0.02   0.04
  14   1     0.03   0.00   0.09    -0.00  -0.00  -0.03     0.00  -0.00  -0.01
  15   1    -0.01  -0.09   0.04     0.01   0.02  -0.01     0.00   0.00  -0.00
  16   1     0.00   0.00  -0.00     0.00   0.01   0.02     0.01   0.01   0.00
  17   1     0.00  -0.00   0.00    -0.02   0.02   0.00     0.00   0.01  -0.00
  18   1     0.04   0.00  -0.05     0.06  -0.01  -0.06    -0.40   0.40   0.22
  19   1     0.06   0.02   0.02     0.05   0.02   0.02     0.10  -0.29  -0.01
  20   1    -0.01  -0.02   0.00    -0.02  -0.03  -0.02     0.24   0.22   0.60
                     43                     44                     45
                        a                      a                      a 
 Frequencies --  1704.0774              1709.3952              2954.9223
 Red. masses --    13.2660                13.2763                 1.7069
 Frc consts  --     0.0000                 0.0000                 0.0000
 IR Inten    --   713.1933               654.2673                 8.2364
 Raman Activ --     0.0000                 0.0000                 0.0000
 Depolar     --     0.0000                 0.0000                 0.0000
 Atom AN      X      Y      Z        X      Y      Z        X      Y      Z
   1   6    -0.08   0.02  -0.04    -0.00   0.00  -0.00     0.00   0.00   0.00
   2   6     0.58   0.31   0.45     0.02   0.01   0.01    -0.00  -0.00   0.00
   3   8    -0.41  -0.26  -0.33    -0.01  -0.01  -0.01     0.00   0.00   0.00
   4   8    -0.03  -0.04  -0.03    -0.00  -0.00   0.00    -0.01   0.00  -0.01
   5   6     0.02   0.00   0.02     0.00  -0.00  -0.00    -0.05  -0.06  -0.16
   6   6    -0.00   0.00  -0.00    -0.00   0.01  -0.01     0.14  -0.10   0.06
   7   8     0.00  -0.00  -0.00     0.02  -0.02   0.04    -0.00  -0.01   0.00
   8   6     0.00  -0.01   0.02    -0.19   0.48  -0.61     0.00   0.00   0.00
   9   8    -0.00   0.01  -0.01     0.16  -0.32   0.46    -0.00   0.00  -0.00
  10   6     0.00   0.00  -0.00    -0.02  -0.08   0.04    -0.00   0.00  -0.00
  11   1    -0.04  -0.01  -0.01     0.00   0.00   0.00    -0.00  -0.00  -0.00
  12   1    -0.02   0.01  -0.05    -0.00  -0.00  -0.00    -0.00  -0.00   0.00
  13   1     0.06   0.00   0.03     0.00   0.00   0.00     0.00  -0.00  -0.00
  14   1    -0.03   0.01  -0.02    -0.01   0.00   0.01    -0.03  -0.07  -0.01
  15   1     0.00   0.02  -0.00    -0.02   0.00   0.01     0.23   0.25   0.61
  16   1    -0.00  -0.00   0.01    -0.01  -0.01  -0.02    -0.48   0.40  -0.21
  17   1     0.00   0.00  -0.00     0.00  -0.03   0.00     0.01  -0.02  -0.02
  18   1    -0.00  -0.00   0.00     0.00   0.05  -0.04     0.00   0.00   0.00
  19   1     0.00  -0.00  -0.00     0.02  -0.05   0.01    -0.00   0.00   0.00
  20   1    -0.00  -0.01   0.01    -0.01  -0.02   0.03     0.00  -0.00  -0.00
                     46                     47                     48
                        a                      a                      a 
 Frequencies --  2956.2592              3006.4223              3009.3128
 Red. masses --     1.6618                 1.7760                 1.8163
 Frc consts  --     0.0000                 0.0000                 0.0000
 IR Inten    --    21.2251                 5.0115                 5.7317
 Raman Activ --     0.0000                 0.0000                 0.0000
 Depolar     --     0.0000                 0.0000                 0.0000
 Atom AN      X      Y      Z        X      Y      Z        X      Y      Z
   1   6    -0.00  -0.00  -0.00     0.00   0.00   0.00     0.00   0.00  -0.00
   2   6     0.00   0.00   0.00     0.00  -0.00  -0.00    -0.00   0.00   0.00
   3   8    -0.00  -0.00  -0.00     0.00  -0.00   0.00     0.00   0.00   0.00
   4   8     0.01  -0.00   0.00    -0.00   0.00  -0.00     0.00  -0.01   0.00
   5   6     0.06   0.06   0.15     0.03   0.10  -0.04    -0.09  -0.23  -0.01
   6   6     0.12  -0.12   0.02    -0.10  -0.04  -0.22    -0.04  -0.03  -0.11
   7   8    -0.00  -0.01   0.00    -0.00  -0.01  -0.00    -0.00  -0.00  -0.00
   8   6     0.00   0.00   0.00     0.00   0.00  -0.00     0.00   0.00  -0.00
   9   8     0.00   0.00  -0.00     0.00  -0.00   0.00     0.00   0.00   0.00
  10   6     0.00   0.00  -0.00     0.00   0.00   0.00    -0.00   0.00   0.00
  11   1    -0.00   0.00   0.00     0.00   0.00  -0.01    -0.00   0.00   0.00
  12   1     0.00   0.00  -0.00    -0.00  -0.00   0.00    -0.00  -0.00   0.00
  13   1    -0.00   0.00  -0.00    -0.00   0.00   0.00     0.00  -0.00  -0.00
  14   1     0.01   0.02   0.02    -0.15  -0.41   0.04     0.29   0.80  -0.09
  15   1    -0.22  -0.24  -0.57     0.04   0.05   0.08     0.02   0.01   0.09
  16   1    -0.51   0.42  -0.22     0.06  -0.06   0.00     0.00  -0.01  -0.01
  17   1     0.07   0.03   0.15     0.29   0.23   0.77     0.15   0.11   0.39
  18   1    -0.00   0.00  -0.00    -0.00  -0.00  -0.00    -0.00  -0.00  -0.00
  19   1    -0.00   0.00   0.00     0.00   0.00  -0.00    -0.00   0.00   0.00
  20   1     0.00  -0.00  -0.00     0.00  -0.00  -0.00     0.01  -0.01  -0.00
                     49                     50                     51
                        a                      a                      a 
 Frequencies --  3027.7907              3034.8593              3050.1180
 Red. masses --     1.7570                 1.8118                 1.5076
 Frc consts  --     0.0000                 0.0000                 0.0000
 IR Inten    --     0.2311                 0.1865                 0.2106
 Raman Activ --     0.0000                 0.0000                 0.0000
 Depolar     --     0.0000                 0.0000                 0.0000
 Atom AN      X      Y      Z        X      Y      Z        X      Y      Z
   1   6     0.00   0.00  -0.00    -0.07  -0.04   0.26     0.19   0.08  -0.02
   2   6     0.00  -0.00  -0.00     0.00  -0.00   0.01     0.01   0.00   0.00
   3   8    -0.00   0.00   0.00    -0.00  -0.00  -0.00    -0.00  -0.00  -0.00
   4   8     0.00   0.00   0.00     0.00   0.00  -0.00     0.00  -0.00   0.00
   5   6     0.00   0.00   0.00    -0.00  -0.00   0.00    -0.00  -0.00   0.00
   6   6     0.00   0.00   0.00     0.00   0.00   0.00     0.00   0.00   0.00
   7   8     0.00  -0.00  -0.00    -0.00   0.00   0.00     0.00  -0.00   0.00
   8   6    -0.00   0.01  -0.00     0.00   0.00  -0.00    -0.00  -0.00   0.00
   9   8     0.00  -0.00   0.00    -0.00  -0.00  -0.00    -0.00   0.00  -0.00
  10   6    -0.21   0.14   0.05    -0.00   0.00  -0.00    -0.02  -0.01   0.03
  11   1    -0.00  -0.00   0.01     0.09   0.01  -0.94     0.04   0.01  -0.21
  12   1    -0.00  -0.00   0.00     0.17   0.11  -0.02    -0.74  -0.50   0.21
  13   1    -0.00  -0.00  -0.00    -0.01   0.02   0.04     0.00   0.21   0.07
  14   1    -0.00  -0.01   0.00     0.00   0.01  -0.00     0.00   0.00  -0.00
  15   1    -0.00  -0.00  -0.00    -0.00  -0.00  -0.00    -0.00  -0.00  -0.00
  16   1     0.00  -0.00   0.00    -0.00   0.00  -0.00    -0.00   0.00  -0.00
  17   1    -0.00  -0.00  -0.01    -0.00  -0.00  -0.01    -0.00  -0.00  -0.00
  18   1    -0.04   0.01  -0.01     0.00   0.00   0.00     0.02   0.01   0.03
  19   1     0.00   0.02  -0.09    -0.00  -0.00   0.00     0.05   0.01  -0.13
  20   1     0.78  -0.55  -0.09     0.01  -0.00  -0.00    -0.01   0.01   0.00
                     52                     53                     54
                        a                      a                      a 
 Frequencies --  3050.6192              3074.5724              3077.1924
 Red. masses --     1.5573                 1.8653                 1.8654
 Frc consts  --     0.0000                 0.0000                 0.0000
 IR Inten    --     0.5094                 6.4353                 6.7254
 Raman Activ --     0.0000                 0.0000                 0.0000
 Depolar     --     0.0000                 0.0000                 0.0000
 Atom AN      X      Y      Z        X      Y      Z        X      Y      Z
   1   6    -0.03  -0.01   0.00     0.02   0.26   0.09    -0.00  -0.01  -0.00
   2   6    -0.00  -0.00  -0.00     0.00   0.01   0.00    -0.00  -0.00   0.00
   3   8     0.00   0.00   0.00    -0.00  -0.00  -0.00     0.00   0.00  -0.00
   4   8    -0.00  -0.00  -0.00    -0.00  -0.00  -0.00    -0.00  -0.00  -0.00
   5   6    -0.00  -0.00  -0.00     0.00   0.00   0.00     0.00   0.00  -0.00
   6   6     0.00  -0.00  -0.00     0.00   0.00   0.00     0.00  -0.00   0.00
   7   8    -0.00  -0.00   0.00     0.00   0.00  -0.00    -0.00  -0.00  -0.00
   8   6    -0.00  -0.00   0.01     0.00   0.00   0.00     0.01   0.00   0.01
   9   8    -0.00   0.00  -0.00    -0.00  -0.00  -0.00    -0.00   0.00  -0.00
  10   6    -0.10  -0.05   0.19     0.00   0.00   0.00     0.16   0.06   0.22
  11   1    -0.01  -0.00   0.03     0.01   0.03  -0.06    -0.00  -0.00  -0.00
  12   1     0.11   0.08  -0.03    -0.16  -0.08   0.06     0.00   0.00  -0.00
  13   1    -0.00  -0.03  -0.01     0.08  -0.87  -0.33    -0.00   0.02   0.01
  14   1     0.00   0.00  -0.00    -0.00  -0.00   0.00    -0.00  -0.00  -0.00
  15   1     0.00   0.00   0.00    -0.00  -0.00  -0.00     0.00   0.00   0.00
  16   1    -0.00   0.00  -0.00     0.00  -0.00   0.00    -0.00   0.00  -0.00
  17   1     0.00   0.00   0.00    -0.00  -0.00  -0.00    -0.00  -0.00  -0.00
  18   1     0.15   0.06   0.17    -0.02  -0.01  -0.01    -0.66  -0.28  -0.60
  19   1     0.30   0.06  -0.88     0.00   0.00  -0.00     0.09   0.02  -0.19
  20   1    -0.09   0.05   0.03    -0.00   0.00   0.00    -0.02   0.03   0.03
