      -----------------------------------------------------------      
     |                   =====================                   |     
     |                           x T B                           |     
     |                   =====================                   |     
     |                         S. Grimme                         |     
     |          Mulliken Center for Theoretical Chemistry        |     
     |                    University of Bonn                     |     
      -----------------------------------------------------------      

   * xtb version 6.7.1 (edcfbbe) compiled by 'albert@albert-system' on 2024-07-22

   xtb is free software: you can redistribute it and/or modify it under
   the terms of the GNU Lesser General Public License as published by
   the Free Software Foundation, either version 3 of the License, or
   (at your option) any later version.
   
   xtb is distributed in the hope that it will be useful,
   but WITHOUT ANY WARRANTY; without even the implied warranty of
   MERCHANTABILITY or FITNESS FOR A PARTICULAR PURPOSE.  See the
   GNU Lesser General Public License for more details.
   
   Cite this work as:
   * C. Bannwarth, E. Caldeweyher, S. Ehlert, A. Hansen, P. Pracht,
     J. Seibert, S. Spicher, S. Grimme, WIREs Comput. Mol. Sci., 2020, 11,
     e01493. DOI: 10.1002/wcms.1493
   
   for GFN2-xTB:
   * C. Bannwarth, S. Ehlert and S. Grimme., J. Chem. Theory Comput., 2019,
     15, 1652-1671. DOI: 10.1021/acs.jctc.8b01176
   for GFN1-xTB:
   * S. Grimme, C. Bannwarth, P. Shushkov, J. Chem. Theory Comput., 2017,
     13, 1989-2009. DOI: 10.1021/acs.jctc.7b00118
   for GFN0-xTB:
   * P. Pracht, E. Caldeweyher, S. Ehlert, S. Grimme, ChemRxiv, 2019, preprint.
     DOI: 10.26434/chemrxiv.8326202.v1
   for GFN-FF:
   * S. Spicher and S. Grimme, Angew. Chem. Int. Ed., 2020, 59, 15665-15673.
     DOI: 10.1002/anie.202004239
   
   for ALPB and GBSA implicit solvation:
   * S. Ehlert, M. Stahn, S. Spicher, S. Grimme, J. Chem. Theory Comput.,
     2021, 17, 4250-4261. DOI: 10.1021/acs.jctc.1c00471
   
   for ddCOSMO and CPCM-X implicit solvation:
   * M. Stahn, S. Ehlert, S. Grimme, J. Phys. Chem. A,
     2023, XX, XXXX-XXXX. DOI: 10.1021/acs.jpca.3c04382
   
   for DFT-D4:
   * E. Caldeweyher, C. Bannwarth and S. Grimme, J. Chem. Phys., 2017,
     147, 034112. DOI: 10.1063/1.4993215
   * E. Caldeweyher, S. Ehlert, A. Hansen, H. Neugebauer, S. Spicher,
     C. Bannwarth and S. Grimme, J. Chem. Phys., 2019, 150, 154122.
     DOI: 10.1063/1.5090222
   * E. Caldeweyher, J.-M. Mewes, S. Ehlert and S. Grimme, Phys. Chem. Chem. Phys.
     2020, 22, 8499-8512. DOI: 10.1039/D0CP00502A
   
   for sTDA-xTB:
   * S. Grimme and C. Bannwarth, J. Chem. Phys., 2016, 145, 054103.
     DOI: 10.1063/1.4959605
   
   in the mass-spec context:
   * V. Asgeirsson, C. Bauer and S. Grimme, Chem. Sci., 2017, 8, 4879.
     DOI: 10.1039/c7sc00601b
   * J. Koopman and S. Grimme, ACS Omega 2019, 4, 12, 15120-15133.
     DOI: 10.1021/acsomega.9b02011
   
   for metadynamics refer to:
   * S. Grimme, J. Chem. Theory Comput., 2019, 155, 2847-2862
     DOI: 10.1021/acs.jctc.9b00143
   
   for SPH calculations refer to:
   * S. Spicher and S. Grimme, J. Chem. Theory Comput., 2021, 17, 1701-1714
     DOI: 10.1021/acs.jctc.0c01306
   
   for ONIOM refer to:
   * C. Plett, A. Katbashev, S. Ehlert, S. Grimme, M. Bursch,
     Phys. Chem. Chem. Phys., 2023, 25, 17860-17868. DOI: 10.1039/D3CP02178E
   
   for DIPRO refer to:
   * J. Kohn, N. Gildemeister, S. Grimme, D. Fazzi, A. Hansen,
     J. Chem. Phys., 2023, just accepted.
   
   for PTB refer to:
   * S. Grimme, M. Mueller, A. Hansen, J. Chem. Phys., 2023, 158, 124111.
     DOI: 10.1063/5.0137838
   
   with help from (in alphabetical order)
   P. Atkinson, C. Bannwarth, F. Bohle, G. Brandenburg, E. Caldeweyher
   M. Checinski, S. Dohm, S. Ehlert, S. Ehrlich, I. Gerasimov, C. Hölzer
   A. Katbashev, J. Kohn, J. Koopman, C. Lavigne, S. Lehtola, F. März, M. Müller,
   F. Musil, H. Neugebauer, J. Pisarek, C. Plett, P. Pracht, F. Pultar,
   J. Seibert, P. Shushkov, S. Spicher, M. Stahn, M. Steiner, T. Strunk,
   J. Stückrath, T. Rose, and J. Unsleber
   
 * started run on 2025/04/11 at 16:27:29.195     
   ID    Z sym.   atoms
    1    6 C      1, 2, 5, 6, 8, 10
    2    8 O      3, 4, 7, 9
    3    1 H      11-20

           -------------------------------------------------
          |                Calculation Setup                |
           -------------------------------------------------

          program call               : /srv/scratch/z5358697/.xtb/bin/xtb xtb_rrho.coord --gfn2 --bhess vtight --chrg 0 --enso --norestart -I rrho-xcontrol-inp --parallel 1 --alpb water
          hostname                   : k133
          coordinate file            : xtb_rrho.coord
          omp threads                :                     1


           -------------------------------------------------
          |                 G F N 2 - x T B                 |
           -------------------------------------------------

        Reference                      10.1021/acs.jctc.8b01176
      * Hamiltonian:
        H0-scaling (s, p, d)           1.850000    2.230000    2.230000
        zeta-weighting                 0.500000
      * Dispersion:
        s8                             2.700000
        a1                             0.520000
        a2                             5.000000
        s9                             5.000000
      * Repulsion:
        kExp                           1.500000    1.000000
        rExp                           1.000000
      * Coulomb:
        alpha                          2.000000
        third order                    shell-resolved
        anisotropic                    true
        a3                             3.000000
        a5                             4.000000
        cn-shift                       1.200000
        cn-exp                         4.000000
        max-rad                        5.000000

      * Solvation model:               ALPB
        Solvent                        water
        Parameter file                 internal GFN2-xTB/ALPB
        Dielectric constant                8.0200E+01
        Reference state                gsolv [1 M gas/solution]
        Free energy shift                  1.0808E-03 Eh       6.7819E-01 kcal/mol
        Temperature                        2.9815E+02 K
        Density                            1.0000E+00 kg/L
        Solvent mass                       1.8000E+01 g/mol
        Interaction kernel             P16
        Born radius scaling (c1)           1.4744E+00
        Born radii integrator          GBOBC
        Born offset                        0.0000E+00 a0       0.0000E+00 AA
        H-bond correction              true
        Ion screening                  false
        Surface tension                    1.0000E-05 Eh       1.5569E+01 dyn/cm
        Grid points                               974 per atom

          ...................................................
          :                      SETUP                      :
          :.................................................:
          :  # basis functions                  50          :
          :  # atomic orbitals                  50          :
          :  # shells                           30          :
          :  # electrons                        58          :
          :  max. iterations                   250          :
          :  Hamiltonian                  GFN2-xTB          :
          :  restarted?                      false          :
          :  GBSA solvation                   true          :
          :  PC potential                    false          :
          :  electronic temp.          300.0000000     K    :
          :  accuracy                    1.0000000          :
          :  -> integral cutoff          0.2500000E+02      :
          :  -> integral neglect         0.1000000E-07      :
          :  -> SCF convergence          0.1000000E-05 Eh   :
          :  -> wf. convergence          0.1000000E-03 e    :
          :  Broyden damping             0.4000000          :
          :  net charge                          0          :
          :  unpaired electrons                  0          :
          ...................................................

 iter      E             dE          RMSdq      gap      omega  full diag
   1    -34.4735053 -0.344735E+02  0.487E+00    5.80       0.0  T
   2    -34.5591477 -0.856424E-01  0.237E+00    4.78       1.0  T
   3    -34.5620610 -0.291332E-02  0.125E+00    5.11       1.0  T
   4    -34.5648811 -0.282005E-02  0.173E-01    4.88       1.0  T
   5    -34.5651019 -0.220872E-03  0.759E-02    4.93       1.0  T
   6    -34.5651046 -0.267098E-05  0.233E-02    4.93       1.0  T
   7    -34.5651056 -0.102190E-05  0.481E-03    4.93       4.7  T
   8    -34.5651057 -0.780119E-07  0.238E-03    4.93       9.4  T
   9    -34.5651057 -0.171722E-07  0.875E-04    4.93      25.6  T
  10    -34.5651057 -0.298281E-08  0.423E-04    4.93      52.9  T

   *** convergence criteria satisfied after 10 iterations ***

         #    Occupation            Energy/Eh            Energy/eV
      -------------------------------------------------------------
         1        2.0000           -0.7502469             -20.4153
       ...           ...                  ...                  ...
        23        2.0000           -0.4777053             -12.9990
        24        2.0000           -0.4759225             -12.9505
        25        2.0000           -0.4751766             -12.9302
        26        2.0000           -0.4666974             -12.6995
        27        2.0000           -0.4485969             -12.2069
        28        2.0000           -0.4327328             -11.7753
        29        2.0000           -0.4301529             -11.7051 (HOMO)
        30                         -0.2490387              -6.7767 (LUMO)
        31                         -0.2402410              -6.5373
        32                         -0.0425058              -1.1566
        33                         -0.0099794              -0.2716
        34                          0.1037924               2.8243
       ...                                ...                  ...
        50                          0.5924766              16.1221
      -------------------------------------------------------------
                  HL-Gap            0.1811142 Eh            4.9284 eV
             Fermi-level           -0.3395958 Eh           -9.2409 eV

 SCC (total)                   0 d,  0 h,  0 min,  0.034 sec
 SCC setup                      ...        0 min,  0.001 sec (  3.897%)
 Dispersion                     ...        0 min,  0.000 sec (  0.363%)
 classical contributions        ...        0 min,  0.000 sec (  0.070%)
 integral evaluation            ...        0 min,  0.002 sec (  5.764%)
 iterations                     ...        0 min,  0.025 sec ( 72.026%)
 molecular gradient             ...        0 min,  0.006 sec ( 17.327%)
 printout                       ...        0 min,  0.000 sec (  0.506%)

         :::::::::::::::::::::::::::::::::::::::::::::::::::::
         ::                     SUMMARY                     ::
         :::::::::::::::::::::::::::::::::::::::::::::::::::::
         :: total energy             -34.248408851706 Eh    ::
         :: total w/o Gsasa/hb       -34.247790210786 Eh    ::
         :: gradient norm              0.041735888661 Eh/a0 ::
         :: HOMO-LUMO gap              4.928367041260 eV    ::
         ::.................................................::
         :: SCC energy               -34.565008493335 Eh    ::
         :: -> isotropic ES            0.117660085981 Eh    ::
         :: -> anisotropic ES         -0.003668733198 Eh    ::
         :: -> anisotropic XC          0.004244090162 Eh    ::
         :: -> dispersion             -0.013403053961 Eh    ::
         :: -> Gsolv                  -0.020154647998 Eh    ::
         ::    -> Gelec               -0.019536007079 Eh    ::
         ::    -> Gsasa                0.003240763752 Eh    ::
         ::    -> Ghb                 -0.004940164370 Eh    ::
         ::    -> Gshift               0.001080759698 Eh    ::
         :: repulsion energy           0.316599641630 Eh    ::
         :: add. restraining           0.000000000000 Eh    ::
         :: total charge               0.000000000000 e     ::
         :::::::::::::::::::::::::::::::::::::::::::::::::::::

metadynamics with 1 initial structures loaded
           -------------------------------------------------
          |           Optimal kpush determination           |
           -------------------------------------------------
      ----------------------------------------------------------- 
     |                   =====================                   |
     |                        A N C O P T                        |
     |                   =====================                   |
     |               Approximate Normal Coordinate               |
     |                Rational Function Optimizer                |
      ----------------------------------------------------------- 
target rmsd / Å         0.100000
unbiased initial rmsd   0.446717
 
iter. min.        max.        rmsd       kpush
      ----------------------------------------------------------- 
     |                   =====================                   |
     |                        A N C O P T                        |
     |                   =====================                   |
     |               Approximate Normal Coordinate               |
     |                Rational Function Optimizer                |
      ----------------------------------------------------------- 
 1    0.000000    0.909091    0.011866   -0.454545
      ----------------------------------------------------------- 
     |                   =====================                   |
     |                        A N C O P T                        |
     |                   =====================                   |
     |               Approximate Normal Coordinate               |
     |                Rational Function Optimizer                |
      ----------------------------------------------------------- 
 2    0.000000    0.454545    0.014893   -0.227273
      ----------------------------------------------------------- 
     |                   =====================                   |
     |                        A N C O P T                        |
     |                   =====================                   |
     |               Approximate Normal Coordinate               |
     |                Rational Function Optimizer                |
      ----------------------------------------------------------- 
 3    0.000000    0.227273    0.018163   -0.113636
      ----------------------------------------------------------- 
     |                   =====================                   |
     |                        A N C O P T                        |
     |                   =====================                   |
     |               Approximate Normal Coordinate               |
     |                Rational Function Optimizer                |
      ----------------------------------------------------------- 
 4    0.000000    0.113636    0.021976   -0.056818
      ----------------------------------------------------------- 
     |                   =====================                   |
     |                        A N C O P T                        |
     |                   =====================                   |
     |               Approximate Normal Coordinate               |
     |                Rational Function Optimizer                |
      ----------------------------------------------------------- 
 5    0.000000    0.056818    0.026918   -0.028409
      ----------------------------------------------------------- 
     |                   =====================                   |
     |                        A N C O P T                        |
     |                   =====================                   |
     |               Approximate Normal Coordinate               |
     |                Rational Function Optimizer                |
      ----------------------------------------------------------- 
 6    0.000000    0.028409    0.033187   -0.014205
      ----------------------------------------------------------- 
     |                   =====================                   |
     |                        A N C O P T                        |
     |                   =====================                   |
     |               Approximate Normal Coordinate               |
     |                Rational Function Optimizer                |
      ----------------------------------------------------------- 
 7    0.000000    0.014205    0.040955   -0.007102
      ----------------------------------------------------------- 
     |                   =====================                   |
     |                        A N C O P T                        |
     |                   =====================                   |
     |               Approximate Normal Coordinate               |
     |                Rational Function Optimizer                |
      ----------------------------------------------------------- 
 8    0.000000    0.007102    0.055022   -0.003551
      ----------------------------------------------------------- 
     |                   =====================                   |
     |                        A N C O P T                        |
     |                   =====================                   |
     |               Approximate Normal Coordinate               |
     |                Rational Function Optimizer                |
      ----------------------------------------------------------- 
 9    0.000000    0.003551    0.334929   -0.001776
      ----------------------------------------------------------- 
     |                   =====================                   |
     |                        A N C O P T                        |
     |                   =====================                   |
     |               Approximate Normal Coordinate               |
     |                Rational Function Optimizer                |
      ----------------------------------------------------------- 
10    0.001776    0.003551    0.274841   -0.002663
final kpush: -0.002663
           -------------------------------------------------
          |            Biased Numerical Hessian             |
           -------------------------------------------------
kpush                :  -0.00266
alpha                :   1.00000
step length          :   0.00500
SCC accuracy         :   0.30000
Hessian scale factor :   1.00000
frozen atoms in %    :   0.00000    0
RMS gradient         :   0.00003
estimated CPU  time      0.02 min
estimated wall time      0.02 min

writing file <hessian>.

 projected vibrational frequencies (cm⁻¹)
eigval :       -0.00    -0.00     0.00     0.00     0.00     0.00
eigval :       41.85    47.04    58.08    56.53    86.45   118.48
eigval :      131.15   236.62   263.62   326.53   383.37   411.68
eigval :      498.03   578.69   584.41   619.96   639.63   841.02
eigval :      854.82   927.94   944.63   990.72   996.70  1001.10
eigval :     1003.71  1052.19  1068.67  1096.35  1175.08  1178.50
eigval :     1218.76  1230.55  1294.70  1314.17  1354.16  1356.21
eigval :     1397.46  1411.62  1417.55  1419.43  1421.31  1427.93
eigval :     1704.08  1709.40  2954.92  2956.26  3006.42  3009.31
eigval :     3027.79  3034.86  3050.12  3050.62  3074.57  3077.19
           -------------------------------------------------
          |                Property Printout                |
           -------------------------------------------------

    * Orbital Energies and Occupations

         #    Occupation            Energy/Eh            Energy/eV
      -------------------------------------------------------------
         1        2.0000           -0.7559056             -20.5692
       ...           ...                  ...                  ...
        17        2.0000           -0.5342065             -14.5365
        18        2.0000           -0.5138520             -13.9826
        19        2.0000           -0.5079985             -13.8233
        20        2.0000           -0.4915512             -13.3758
        21        2.0000           -0.4857799             -13.2187
        22        2.0000           -0.4799131             -13.0591
        23        2.0000           -0.4790840             -13.0365
        24        2.0000           -0.4758864             -12.9495
        25        2.0000           -0.4748558             -12.9215
        26        2.0000           -0.4675420             -12.7225
        27        2.0000           -0.4466837             -12.1549
        28        2.0000           -0.4316724             -11.7464
        29        2.0000           -0.4285189             -11.6606 (HOMO)
        30                         -0.2448618              -6.6630 (LUMO)
        31                         -0.2354908              -6.4080
        32                         -0.0186796              -0.5083
        33                          0.0092026               0.2504
        34                          0.0928427               2.5264
        35                          0.1201729               3.2701
        36                          0.1324637               3.6045
        37                          0.1509229               4.1068
        38                          0.1618767               4.4049
        39                          0.1658786               4.5138
        40                          0.1668764               4.5409
       ...                                ...                  ...
        50                          0.6180560              16.8182
      -------------------------------------------------------------
                  HL-Gap            0.1836571 Eh            4.9976 eV
             Fermi-level           -0.3366904 Eh           -9.1618 eV

     #   Z          covCN         q      C6AA      α(0)
     1   6 C        3.754    -0.175    23.969     6.981
     2   6 C        2.709     0.373    20.684     7.444
     3   8 O        0.856    -0.490    23.555     6.507
     4   8 O        1.704    -0.263    18.358     5.785
     5   6 C        3.694     0.060    19.739     6.357
     6   6 C        3.696     0.058    19.775     6.361
     7   8 O        1.704    -0.274    18.551     5.815
     8   6 C        2.711     0.375    20.654     7.439
     9   8 O        0.856    -0.481    23.369     6.481
    10   6 C        3.754    -0.168    23.829     6.961
    11   1 H        0.925     0.116     1.650     2.009
    12   1 H        0.925     0.109     1.703     2.041
    13   1 H        0.925     0.094     1.843     2.123
    14   1 H        0.925     0.103     1.754     2.071
    15   1 H        0.924     0.069     2.094     2.263
    16   1 H        0.924     0.082     1.956     2.187
    17   1 H        0.925     0.106     1.727     2.055
    18   1 H        0.925     0.093     1.853     2.129
    19   1 H        0.925     0.107     1.721     2.051
    20   1 H        0.925     0.106     1.730     2.057

 Mol. C6AA /au·bohr⁶  :       3513.895449
 Mol. C8AA /au·bohr⁸  :      76888.575212
 Mol. α(0) /au        :         87.116531


Wiberg/Mayer (AO) data.
largest (>0.10) Wiberg bond orders for each atom

 ---------------------------------------------------------------------------
     #   Z sym  total        # sym  WBO       # sym  WBO       # sym  WBO
 ---------------------------------------------------------------------------
     1   6 C    3.980 --     2 C    1.003    13 H    0.979    12 H    0.957
                            11 H    0.946
     2   6 C    3.900 --     3 O    1.698     4 O    1.145     1 C    1.003
     3   8 O    1.976 --     2 C    1.698     4 O    0.164
     4   8 O    2.314 --     2 C    1.145     5 C    0.941     3 O    0.164
     5   6 C    3.924 --     6 C    0.993    15 H    0.966    14 H    0.962
                             4 O    0.941
     6   6 C    3.919 --     5 C    0.993    17 H    0.964    16 H    0.963
                             7 O    0.938
     7   8 O    2.301 --     8 C    1.138     6 C    0.938     9 O    0.161
     8   6 C    3.901 --     9 O    1.706     7 O    1.138    10 C    1.004
     9   8 O    1.978 --     8 C    1.706     7 O    0.161
    10   6 C    3.982 --     8 C    1.004    18 H    0.979    19 H    0.959
                            20 H    0.947
    11   1 H    0.987 --     1 C    0.946
    12   1 H    0.988 --     1 C    0.957
    13   1 H    0.991 --     1 C    0.979
    14   1 H    0.989 --     5 C    0.962
    15   1 H    0.995 --     5 C    0.966
    16   1 H    0.993 --     6 C    0.963
    17   1 H    0.989 --     6 C    0.964
    18   1 H    0.991 --    10 C    0.979
    19   1 H    0.988 --    10 C    0.959
    20   1 H    0.989 --    10 C    0.947
 ---------------------------------------------------------------------------

Topologies differ in total number of bonds
Writing topology from bond orders to xtbtopo.mol

molecular dipole:
                 x           y           z       tot (Debye)
 q only:        1.133       0.287       1.567
   full:        1.149       0.303       1.563       4.992
molecular quadrupole (traceless):
                xx          xy          yy          xz          yz          zz
 q only:        2.125       3.000       5.670      -2.899      -1.682      -7.794
  q+dip:        1.850       2.838       4.504      -4.387      -1.554      -6.355
   full:        2.175       2.647       4.533      -5.146      -1.716      -6.708

           -------------------------------------------------
          |                Geometry Summary                 |
           -------------------------------------------------

      molecular mass/u    :      146.1414426
   center of mass at/Å    :       -0.0118956       0.0025274       0.0028428
  moments of inertia/u·Å² :        0.2387182E+03   0.5218038E+03   0.6411416E+03
rotational constants/cm⁻¹ :        0.7061729E-01   0.3230646E-01   0.2629315E-01

 * 17 selected distances

     #   Z          #   Z                                           value/Å
     2   6 C        3   8 O                                       1.2128779
     2   6 C        4   8 O                                       1.3340613
     4   8 O        5   6 C                                       1.4281913
     5   6 C        6   6 C                                       1.5286483 (max)
     6   6 C        7   8 O                                       1.4302833
     7   8 O        8   6 C                                       1.3361423
     8   6 C        9   8 O                                       1.2117085
     1   6 C       11   1 H                                       1.0871897
     1   6 C       12   1 H                                       1.0859728
     1   6 C       13   1 H                                       1.0848350
     5   6 C       14   1 H                                       1.0893757
     5   6 C       15   1 H                                       1.0947835
     6   6 C       16   1 H                                       1.0935742
     6   6 C       17   1 H                                       1.0899043
    10   6 C       18   1 H                                       1.0844672 (min)
    10   6 C       19   1 H                                       1.0856344
    10   6 C       20   1 H                                       1.0882414

 * 3 distinct bonds (by element types)

   Z      Z             #   av. dist./Å        max./Å        min./Å
   1 H    6 C          10     1.0883978     1.0947835     1.0844672
   6 C    6 C           1     1.5286483     1.5286483     1.5286483
   6 C    8 O           6     1.3255441     1.4302833     1.2117085

           -------------------------------------------------
          |               Frequency Printout                |
           -------------------------------------------------
 projected vibrational frequencies (cm⁻¹)
eigval :       -0.00    -0.00     0.00     0.00     0.00     0.00
eigval :       41.85    47.04    58.08    56.53    86.45   118.48
eigval :      131.15   236.62   263.62   326.53   383.37   411.68
eigval :      498.03   578.69   584.41   619.96   639.63   841.02
eigval :      854.82   927.94   944.63   990.72   996.70  1001.10
eigval :     1003.71  1052.19  1068.67  1096.35  1175.08  1178.50
eigval :     1218.76  1230.55  1294.70  1314.17  1354.16  1356.21
eigval :     1397.46  1411.62  1417.55  1419.43  1421.31  1427.93
eigval :     1704.08  1709.40  2954.92  2956.26  3006.42  3009.31
eigval :     3027.79  3034.86  3050.12  3050.62  3074.57  3077.19
 reduced masses (amu)
   1: 12.70   2: 12.64   3: 12.02   4: 12.93   5: 11.68   6: 12.05   7:  7.64   8:  9.76
   9: 11.10  10:  6.16  11:  8.10  12: 10.58  13: 12.19  14: 12.90  15: 10.54  16:  9.28
  17: 10.22  18: 10.58  19:  9.23  20:  9.95  21:  9.98  22: 11.59  23: 11.27  24: 10.01
  25: 10.01  26:  9.24  27: 10.22  28:  6.91  29:  6.75  30:  5.90  31:  5.99  32: 11.76
  33: 11.49  34:  9.15  35:  9.64  36:  8.43  37:  5.91  38:  3.97  39:  3.50  40:  3.38
  41:  3.33  42:  3.32  43:  1.92  44:  1.89  45:  1.78  46:  1.79  47:  1.57  48:  1.59
  49: 13.27  50: 13.28  51:  1.71  52:  1.66  53:  1.78  54:  1.82  55:  1.76  56:  1.81
  57:  1.51  58:  1.56  59:  1.87  60:  1.87
 IR intensities (km·mol⁻¹)
   1:  0.51   2:  0.66   3:  1.59   4:  0.03   5:  0.73   6:  1.73   7:  1.39   8:  0.79
   9:  1.09  10: 14.33  11:  1.07  12:  8.23  13:  1.02  14:  6.68  15: 29.13  16:  5.68
  17: 13.21  18: 12.73  19:  2.58  20: 10.73  21: 31.87  22: 10.18  23: 23.19  24: 38.00
  25: 13.71  26: 10.01  27: 25.23  28: 15.61  29: 38.87  30: 61.08  31: 10.36  32: 59.34
  33: 97.55  34: 19.39  35:302.05  36:472.75  37:228.02  38:100.35  39:  3.44  40:  1.65
  41: 64.42  42: 74.58  43:  8.88  44: 19.96  45: 23.30  46: 36.87  47: 12.21  48: 19.53
  49:713.19  50:654.27  51:  8.24  52: 21.23  53:  5.01  54:  5.73  55:  0.23  56:  0.19
  57:  0.21  58:  0.51  59:  6.44  60:  6.73
 Raman intensities (Ä⁴*amu⁻¹)
   1:  0.00   2:  0.00   3:  0.00   4:  0.00   5:  0.00   6:  0.00   7:  0.00   8:  0.00
   9:  0.00  10:  0.00  11:  0.00  12:  0.00  13:  0.00  14:  0.00  15:  0.00  16:  0.00
  17:  0.00  18:  0.00  19:  0.00  20:  0.00  21:  0.00  22:  0.00  23:  0.00  24:  0.00
  25:  0.00  26:  0.00  27:  0.00  28:  0.00  29:  0.00  30:  0.00  31:  0.00  32:  0.00
  33:  0.00  34:  0.00  35:  0.00  36:  0.00  37:  0.00  38:  0.00  39:  0.00  40:  0.00
  41:  0.00  42:  0.00  43:  0.00  44:  0.00  45:  0.00  46:  0.00  47:  0.00  48:  0.00
  49:  0.00  50:  0.00  51:  0.00  52:  0.00  53:  0.00  54:  0.00  55:  0.00  56:  0.00
  57:  0.00  58:  0.00  59:  0.00  60:  0.00
 output can be read by thermo (or use thermo option).
 writing <g98.out> molden fake output.
 recommended (thermochemical) frequency scaling factor: 1.0
           -------------------------------------------------
          |             Thermodynamic Functions             |
           -------------------------------------------------

Molecule has no symmetry elements
It seems to be the C1 point group
c1  symmetry found (for desy threshold:  0.10E+00) used in thermo

          ...................................................
          :                      SETUP                      :
          :.................................................:
          :  # frequencies                          54      :
          :  # imaginary freq.                       0      :
          :  linear?                             false      :
          :  only rotor calc.                    false      :
          :  symmetry                               c1      :
          :  rotational number                       1      :
          :  scaling factor                  1.0000000      :
          :  rotor cutoff                    0.0000000 cm⁻¹ :
          :  imag. cutoff                 -100.0000000 cm⁻¹ :
          :.................................................:

    mode    ω/cm⁻¹     T·S(HO)/kcal·mol⁻¹    T·S(FR)/kcal·mol⁻¹   T·S(vib)
   ------------------------------------------------------------------------
       1     41.85    -1.54136 (100.00%)    -1.10904 (  0.00%)    -1.54136
       2     47.04    -1.47233 (100.00%)    -1.07442 (  0.00%)    -1.47233
       3     58.08    -1.34805 (100.00%)    -1.01199 (  0.00%)    -1.34805
       4     56.53    -1.36392 (100.00%)    -1.01997 (  0.00%)    -1.36392
       5     86.45    -1.11471 (100.00%)    -0.89421 (  0.00%)    -1.11471
       6    118.48    -0.93175 (100.00%)    -0.80090 (  0.00%)    -0.93175
       7    131.15    -0.87330 (100.00%)    -0.77079 (  0.00%)    -0.87330
       8    236.62    -0.54507 (100.00%)    -0.59602 (  0.00%)    -0.54507
       9    263.62    -0.48826 (100.00%)    -0.56401 (  0.00%)    -0.48826
   ------------------------------------------------------------------------

   temp. (K)  partition function   enthalpy   heat capacity  entropy
                                   cal/mol     cal/K/mol   cal/K/mol   J/K/mol
 298.15  VIB  0.367E+05             5598.044     33.677     39.664
         ROT  0.683E+06              888.752      2.981     29.677
         INT  0.251E+11             6486.796     36.658     69.342
         TR   0.171E+28             1481.254      4.968     40.830
         TOT                        7968.0503    41.6259   110.1719   460.9592

       T/K    H(0)-H(T)+PV         H(T)/Eh          T*S/Eh         G(T)/Eh
   ------------------------------------------------------------------------
    298.15    0.126979E-01    0.167916E+00    0.523462E-01    0.115570E+00
   ------------------------------------------------------------------------

         :::::::::::::::::::::::::::::::::::::::::::::::::::::
         ::                  THERMODYNAMIC                  ::
         :::::::::::::::::::::::::::::::::::::::::::::::::::::
         :: total free energy         -34.137707477791 Eh   ::
         ::.................................................::
         :: total energy              -34.253277421188 Eh   ::
         :: zero point energy           0.155218272679 Eh   ::
         :: G(RRHO) w/o ZPVE           -0.039648329283 Eh   ::
         :: G(RRHO) contrib.            0.115569943396 Eh   ::
         :::::::::::::::::::::::::::::::::::::::::::::::::::::

optimized geometry written to: xtbopt.coord


           -------------------------------------------------
          | TOTAL ENERGY              -34.253277421188 Eh   |
          | TOTAL ENTHALPY            -34.085361252160 Eh   |
          | TOTAL FREE ENERGY         -34.137707477791 Eh   |
          | GRADIENT NORM               0.000026843455 Eh/α |
          | HOMO-LUMO GAP               4.997565051387 eV   |
           -------------------------------------------------

------------------------------------------------------------------------
 * finished run on 2025/04/11 at 16:27:35.424     
------------------------------------------------------------------------
 total:
 * wall-time:     0 d,  0 h,  0 min,  6.228 sec
 *  cpu-time:     0 d,  0 h,  0 min,  6.033 sec
 * ratio c/w:     0.969 speedup
 SCF:
 * wall-time:     0 d,  0 h,  0 min,  0.034 sec
 *  cpu-time:     0 d,  0 h,  0 min,  0.018 sec
 * ratio c/w:     0.523 speedup
 analytical hessian:
 * wall-time:     0 d,  0 h,  0 min,  1.411 sec
 *  cpu-time:     0 d,  0 h,  0 min,  1.398 sec
 * ratio c/w:     0.991 speedup

