      -----------------------------------------------------------      
     |                   =====================                   |     
     |                           x T B                           |     
     |                   =====================                   |     
     |                         S. Grimme                         |     
     |          Mulliken Center for Theoretical Chemistry        |     
     |                    University of Bonn                     |     
      -----------------------------------------------------------      

   * xtb version 6.7.1 (edcfbbe) compiled by 'albert@albert-system' on 2024-07-22

   xtb is free software: you can redistribute it and/or modify it under
   the terms of the GNU Lesser General Public License as published by
   the Free Software Foundation, either version 3 of the License, or
   (at your option) any later version.
   
   xtb is distributed in the hope that it will be useful,
   but WITHOUT ANY WARRANTY; without even the implied warranty of
   MERCHANTABILITY or FITNESS FOR A PARTICULAR PURPOSE.  See the
   GNU Lesser General Public License for more details.
   
   Cite this work as:
   * C. Bannwarth, E. Caldeweyher, S. Ehlert, A. Hansen, P. Pracht,
     J. Seibert, S. Spicher, S. Grimme, WIREs Comput. Mol. Sci., 2020, 11,
     e01493. DOI: 10.1002/wcms.1493
   
   for GFN2-xTB:
   * C. Bannwarth, S. Ehlert and S. Grimme., J. Chem. Theory Comput., 2019,
     15, 1652-1671. DOI: 10.1021/acs.jctc.8b01176
   for GFN1-xTB:
   * S. Grimme, C. Bannwarth, P. Shushkov, J. Chem. Theory Comput., 2017,
     13, 1989-2009. DOI: 10.1021/acs.jctc.7b00118
   for GFN0-xTB:
   * P. Pracht, E. Caldeweyher, S. Ehlert, S. Grimme, ChemRxiv, 2019, preprint.
     DOI: 10.26434/chemrxiv.8326202.v1
   for GFN-FF:
   * S. Spicher and S. Grimme, Angew. Chem. Int. Ed., 2020, 59, 15665-15673.
     DOI: 10.1002/anie.202004239
   
   for ALPB and GBSA implicit solvation:
   * S. Ehlert, M. Stahn, S. Spicher, S. Grimme, J. Chem. Theory Comput.,
     2021, 17, 4250-4261. DOI: 10.1021/acs.jctc.1c00471
   
   for ddCOSMO and CPCM-X implicit solvation:
   * M. Stahn, S. Ehlert, S. Grimme, J. Phys. Chem. A,
     2023, XX, XXXX-XXXX. DOI: 10.1021/acs.jpca.3c04382
   
   for DFT-D4:
   * E. Caldeweyher, C. Bannwarth and S. Grimme, J. Chem. Phys., 2017,
     147, 034112. DOI: 10.1063/1.4993215
   * E. Caldeweyher, S. Ehlert, A. Hansen, H. Neugebauer, S. Spicher,
     C. Bannwarth and S. Grimme, J. Chem. Phys., 2019, 150, 154122.
     DOI: 10.1063/1.5090222
   * E. Caldeweyher, J.-M. Mewes, S. Ehlert and S. Grimme, Phys. Chem. Chem. Phys.
     2020, 22, 8499-8512. DOI: 10.1039/D0CP00502A
   
   for sTDA-xTB:
   * S. Grimme and C. Bannwarth, J. Chem. Phys., 2016, 145, 054103.
     DOI: 10.1063/1.4959605
   
   in the mass-spec context:
   * V. Asgeirsson, C. Bauer and S. Grimme, Chem. Sci., 2017, 8, 4879.
     DOI: 10.1039/c7sc00601b
   * J. Koopman and S. Grimme, ACS Omega 2019, 4, 12, 15120-15133.
     DOI: 10.1021/acsomega.9b02011
   
   for metadynamics refer to:
   * S. Grimme, J. Chem. Theory Comput., 2019, 155, 2847-2862
     DOI: 10.1021/acs.jctc.9b00143
   
   for SPH calculations refer to:
   * S. Spicher and S. Grimme, J. Chem. Theory Comput., 2021, 17, 1701-1714
     DOI: 10.1021/acs.jctc.0c01306
   
   for ONIOM refer to:
   * C. Plett, A. Katbashev, S. Ehlert, S. Grimme, M. Bursch,
     Phys. Chem. Chem. Phys., 2023, 25, 17860-17868. DOI: 10.1039/D3CP02178E
   
   for DIPRO refer to:
   * J. Kohn, N. Gildemeister, S. Grimme, D. Fazzi, A. Hansen,
     J. Chem. Phys., 2023, just accepted.
   
   for PTB refer to:
   * S. Grimme, M. Mueller, A. Hansen, J. Chem. Phys., 2023, 158, 124111.
     DOI: 10.1063/5.0137838
   
   with help from (in alphabetical order)
   P. Atkinson, C. Bannwarth, F. Bohle, G. Brandenburg, E. Caldeweyher
   M. Checinski, S. Dohm, S. Ehlert, S. Ehrlich, I. Gerasimov, C. Hölzer
   A. Katbashev, J. Kohn, J. Koopman, C. Lavigne, S. Lehtola, F. März, M. Müller,
   F. Musil, H. Neugebauer, J. Pisarek, C. Plett, P. Pracht, F. Pultar,
   J. Seibert, P. Shushkov, S. Spicher, M. Stahn, M. Steiner, T. Strunk,
   J. Stückrath, T. Rose, and J. Unsleber
   
 * started run on 2025/04/11 at 16:09:19.301     
   ID    Z sym.   atoms
    1    6 C      1-5, 7
    2    8 O      6
    3    1 H      8-19

           -------------------------------------------------
          |                Calculation Setup                |
           -------------------------------------------------

          program call               : /srv/scratch/z5358697/.xtb/bin/xtb solv.coord --gfn2 --sp --chrg 0 --norestart --parallel 1 --alpb water reference -I xtb_sp-xcontrol-inp
          hostname                   : k065
          coordinate file            : solv.coord
          omp threads                :                     1


           -------------------------------------------------
          |                 G F N 2 - x T B                 |
           -------------------------------------------------

        Reference                      10.1021/acs.jctc.8b01176
      * Hamiltonian:
        H0-scaling (s, p, d)           1.850000    2.230000    2.230000
        zeta-weighting                 0.500000
      * Dispersion:
        s8                             2.700000
        a1                             0.520000
        a2                             5.000000
        s9                             5.000000
      * Repulsion:
        kExp                           1.500000    1.000000
        rExp                           1.000000
      * Coulomb:
        alpha                          2.000000
        third order                    shell-resolved
        anisotropic                    true
        a3                             3.000000
        a5                             4.000000
        cn-shift                       1.200000
        cn-exp                         4.000000
        max-rad                        5.000000

      * Solvation model:               ALPB
        Solvent                        water
        Parameter file                 internal GFN2-xTB/ALPB
        Dielectric constant                8.0200E+01
        Reference state                gsolv=reference [X=1]
        Free energy shift                  2.8945E-03 Eh       1.8164E+00 kcal/mol
        Temperature                        2.9815E+02 K
        Density                            1.0000E+00 kg/L
        Solvent mass                       1.8000E+01 g/mol
        Interaction kernel             P16
        Born radius scaling (c1)           1.4744E+00
        Born radii integrator          GBOBC
        Born offset                        0.0000E+00 a0       0.0000E+00 AA
        H-bond correction              true
        Ion screening                  false
        Surface tension                    1.0000E-05 Eh       1.5569E+01 dyn/cm
        Grid points                               974 per atom

          ...................................................
          :                      SETUP                      :
          :.................................................:
          :  # basis functions                  40          :
          :  # atomic orbitals                  40          :
          :  # shells                           26          :
          :  # electrons                        42          :
          :  max. iterations                   250          :
          :  Hamiltonian                  GFN2-xTB          :
          :  restarted?                      false          :
          :  GBSA solvation                   true          :
          :  PC potential                    false          :
          :  electronic temp.          300.0000000     K    :
          :  accuracy                    1.0000000          :
          :  -> integral cutoff          0.2500000E+02      :
          :  -> integral neglect         0.1000000E-07      :
          :  -> SCF convergence          0.1000000E-05 Eh   :
          :  -> wf. convergence          0.1000000E-03 e    :
          :  Broyden damping             0.4000000          :
          :  net charge                          0          :
          :  unpaired electrons                  0          :
          ...................................................

 iter      E             dE          RMSdq      gap      omega  full diag
   1    -23.2700045 -0.232700E+02  0.379E+00    4.60       0.0  T
   2    -23.3334924 -0.634879E-01  0.184E+00    3.66       1.0  T
   3    -23.3368184 -0.332604E-02  0.107E+00    4.06       1.0  T
   4    -23.3388270 -0.200861E-02  0.181E-01    3.83       1.0  T
   5    -23.3391008 -0.273772E-03  0.704E-02    3.89       1.0  T
   6    -23.3391038 -0.302598E-05  0.178E-02    3.88       1.3  T
   7    -23.3391052 -0.134520E-05  0.517E-03    3.88       4.4  T
   8    -23.3391052 -0.385522E-07  0.214E-03    3.88      10.7  T
   9    -23.3391052 -0.874911E-08  0.715E-04    3.88      32.1  T
  10    -23.3391052 -0.117903E-08  0.202E-04    3.88     113.3  T

   *** convergence criteria satisfied after 10 iterations ***

         #    Occupation            Energy/Eh            Energy/eV
      -------------------------------------------------------------
         1        2.0000           -0.7141473             -19.4329
       ...           ...                  ...                  ...
        15        2.0000           -0.4683174             -12.7436
        16        2.0000           -0.4645194             -12.6402
        17        2.0000           -0.4522222             -12.3056
        18        2.0000           -0.4393064             -11.9541
        19        2.0000           -0.4295247             -11.6880
        20        2.0000           -0.4266433             -11.6096
        21        2.0000           -0.3966303             -10.7929 (HOMO)
        22                         -0.2539065              -6.9091 (LUMO)
        23                          0.0783919               2.1332
        24                          0.0997433               2.7142
        25                          0.1095770               2.9817
        26                          0.1280329               3.4840
       ...                                ...                  ...
        40                          0.5919060              16.1066
      -------------------------------------------------------------
                  HL-Gap            0.1427239 Eh            3.8837 eV
             Fermi-level           -0.3252684 Eh           -8.8510 eV

 SCC (total)                   0 d,  0 h,  0 min,  0.020 sec
 SCC setup                      ...        0 min,  0.002 sec (  9.745%)
 Dispersion                     ...        0 min,  0.000 sec (  0.754%)
 classical contributions        ...        0 min,  0.000 sec (  0.176%)
 integral evaluation            ...        0 min,  0.002 sec ( 12.017%)
 iterations                     ...        0 min,  0.009 sec ( 41.761%)
 molecular gradient             ...        0 min,  0.007 sec ( 34.470%)
 printout                       ...        0 min,  0.000 sec (  0.974%)

         :::::::::::::::::::::::::::::::::::::::::::::::::::::
         ::                     SUMMARY                     ::
         :::::::::::::::::::::::::::::::::::::::::::::::::::::
         :: total energy             -23.028449145723 Eh    ::
         :: total w/o Gsasa/hb       -23.030726806471 Eh    ::
         :: gradient norm              0.000105588336 Eh/a0 ::
         :: HOMO-LUMO gap              3.883714327841 eV    ::
         ::.................................................::
         :: SCC energy               -23.339072615490 Eh    ::
         :: -> isotropic ES            0.041509243824 Eh    ::
         :: -> anisotropic ES          0.002948103989 Eh    ::
         :: -> anisotropic XC          0.011367226988 Eh    ::
         :: -> dispersion             -0.010865695427 Eh    ::
         :: -> Gsolv                  -0.006054323491 Eh    ::
         ::    -> Gelec               -0.008331984239 Eh    ::
         ::    -> Gsasa                0.001421624824 Eh    ::
         ::    -> Ghb                 -0.002038513236 Eh    ::
         ::    -> Gshift               0.002894549160 Eh    ::
         :: repulsion energy           0.310623469767 Eh    ::
         :: add. restraining           0.000000000000 Eh    ::
         :: total charge              -0.000000000000 e     ::
         :::::::::::::::::::::::::::::::::::::::::::::::::::::

           -------------------------------------------------
          |                Property Printout                |
           -------------------------------------------------

    * Orbital Energies and Occupations

         #    Occupation            Energy/Eh            Energy/eV
      -------------------------------------------------------------
         1        2.0000           -0.7141473             -19.4329
       ...           ...                  ...                  ...
         9        2.0000           -0.5331881             -14.5088
        10        2.0000           -0.5248289             -14.2813
        11        2.0000           -0.5064032             -13.7799
        12        2.0000           -0.4950624             -13.4713
        13        2.0000           -0.4806638             -13.0795
        14        2.0000           -0.4734133             -12.8822
        15        2.0000           -0.4683174             -12.7436
        16        2.0000           -0.4645194             -12.6402
        17        2.0000           -0.4522222             -12.3056
        18        2.0000           -0.4393064             -11.9541
        19        2.0000           -0.4295247             -11.6880
        20        2.0000           -0.4266433             -11.6096
        21        2.0000           -0.3966303             -10.7929 (HOMO)
        22                         -0.2539065              -6.9091 (LUMO)
        23                          0.0783919               2.1332
        24                          0.0997433               2.7142
        25                          0.1095770               2.9817
        26                          0.1280329               3.4840
        27                          0.1385077               3.7690
        28                          0.1429128               3.8889
        29                          0.1625263               4.4226
        30                          0.1809317               4.9234
        31                          0.1866910               5.0801
        32                          0.2018712               5.4932
       ...                                ...                  ...
        40                          0.5919060              16.1066
      -------------------------------------------------------------
                  HL-Gap            0.1427239 Eh            3.8837 eV
             Fermi-level           -0.3252684 Eh           -8.8510 eV

     #   Z          covCN         q      C6AA      α(0)
     1   6 C        3.752    -0.115    22.757     6.803
     2   6 C        3.800    -0.059    21.639     6.623
     3   6 C        3.804    -0.055    21.557     6.610
     4   6 C        3.804    -0.092    22.249     6.715
     5   6 C        2.814     0.251    22.797     7.823
     6   8 O        0.857    -0.449    22.680     6.385
     7   6 C        3.754    -0.159    23.651     6.935
     8   1 H        0.925     0.042     2.420     2.433
     9   1 H        0.925     0.041     2.434     2.440
    10   1 H        0.925     0.040     2.451     2.448
    11   1 H        0.924     0.037     2.490     2.468
    12   1 H        0.924     0.040     2.446     2.446
    13   1 H        0.924     0.034     2.529     2.487
    14   1 H        0.924     0.050     2.321     2.383
    15   1 H        0.924     0.058     2.224     2.332
    16   1 H        0.925     0.075     2.036     2.231
    17   1 H        0.925     0.077     2.007     2.215
    18   1 H        0.925     0.091     1.867     2.137
    19   1 H        0.925     0.093     1.851     2.128

 Mol. C6AA /au·bohr⁶  :       2607.993559
 Mol. C8AA /au·bohr⁸  :      55854.256651
 Mol. α(0) /au        :         76.040728


Wiberg/Mayer (AO) data.
largest (>0.10) Wiberg bond orders for each atom

 ---------------------------------------------------------------------------
     #   Z sym  total        # sym  WBO       # sym  WBO       # sym  WBO
 ---------------------------------------------------------------------------
     1   6 C    3.995 --     2 C    1.021     8 H    0.987    10 H    0.987
                             9 H    0.985
     2   6 C    3.996 --     1 C    1.021     3 C    1.005    11 H    0.978
                            12 H    0.975
     3   6 C    3.993 --     2 C    1.005    13 H    0.979    14 H    0.975
                             4 C    0.973
     4   6 C    3.994 --     5 C    1.002     3 C    0.973    15 H    0.973
                            16 H    0.954
     5   6 C    3.894 --     6 O    1.800     7 C    1.019     4 C    1.002
     6   8 O    2.004 --     5 C    1.800
     7   6 C    3.990 --     5 C    1.019    17 H    0.983    18 H    0.952
                            19 H    0.950
     8   1 H    0.998 --     1 C    0.987
     9   1 H    0.998 --     1 C    0.985
    10   1 H    0.998 --     1 C    0.987
    11   1 H    0.999 --     2 C    0.978
    12   1 H    0.997 --     2 C    0.975
    13   1 H    0.999 --     3 C    0.979
    14   1 H    0.998 --     3 C    0.975
    15   1 H    0.997 --     4 C    0.973
    16   1 H    0.994 --     4 C    0.954
    17   1 H    0.994 --     7 C    0.983
    18   1 H    0.992 --     7 C    0.952
    19   1 H    0.991 --     7 C    0.950
 ---------------------------------------------------------------------------

Topologies differ in total number of bonds
Writing topology from bond orders to xtbtopo.mol

molecular dipole:
                 x           y           z       tot (Debye)
 q only:        0.916       1.301       0.276
   full:        0.928       1.342       0.285       4.211
molecular quadrupole (traceless):
                xx          xy          yy          xz          yz          zz
 q only:       -2.368      -8.226      -0.174      -1.253      -0.481       2.542
  q+dip:       -3.256      -9.366       0.074      -1.463      -0.828       3.182
   full:       -3.287      -9.226      -0.569      -1.731      -0.851       3.855


           -------------------------------------------------
          | TOTAL ENERGY              -23.028449145723 Eh   |
          | GRADIENT NORM               0.000105588336 Eh/α |
          | HOMO-LUMO GAP               3.883714327841 eV   |
           -------------------------------------------------

------------------------------------------------------------------------
 * finished run on 2025/04/11 at 16:09:19.364     
------------------------------------------------------------------------
 total:
 * wall-time:     0 d,  0 h,  0 min,  0.062 sec
 *  cpu-time:     0 d,  0 h,  0 min,  0.032 sec
 * ratio c/w:     0.521 speedup
 SCF:
 * wall-time:     0 d,  0 h,  0 min,  0.021 sec
 *  cpu-time:     0 d,  0 h,  0 min,  0.019 sec
 * ratio c/w:     0.925 speedup

