      -----------------------------------------------------------      
     |                   =====================                   |     
     |                           x T B                           |     
     |                   =====================                   |     
     |                         S. Grimme                         |     
     |          Mulliken Center for Theoretical Chemistry        |     
     |                    University of Bonn                     |     
      -----------------------------------------------------------      

   * xtb version 6.7.1 (edcfbbe) compiled by 'albert@albert-system' on 2024-07-22

   xtb is free software: you can redistribute it and/or modify it under
   the terms of the GNU Lesser General Public License as published by
   the Free Software Foundation, either version 3 of the License, or
   (at your option) any later version.
   
   xtb is distributed in the hope that it will be useful,
   but WITHOUT ANY WARRANTY; without even the implied warranty of
   MERCHANTABILITY or FITNESS FOR A PARTICULAR PURPOSE.  See the
   GNU Lesser General Public License for more details.
   
   Cite this work as:
   * C. Bannwarth, E. Caldeweyher, S. Ehlert, A. Hansen, P. Pracht,
     J. Seibert, S. Spicher, S. Grimme, WIREs Comput. Mol. Sci., 2020, 11,
     e01493. DOI: 10.1002/wcms.1493
   
   for GFN2-xTB:
   * C. Bannwarth, S. Ehlert and S. Grimme., J. Chem. Theory Comput., 2019,
     15, 1652-1671. DOI: 10.1021/acs.jctc.8b01176
   for GFN1-xTB:
   * S. Grimme, C. Bannwarth, P. Shushkov, J. Chem. Theory Comput., 2017,
     13, 1989-2009. DOI: 10.1021/acs.jctc.7b00118
   for GFN0-xTB:
   * P. Pracht, E. Caldeweyher, S. Ehlert, S. Grimme, ChemRxiv, 2019, preprint.
     DOI: 10.26434/chemrxiv.8326202.v1
   for GFN-FF:
   * S. Spicher and S. Grimme, Angew. Chem. Int. Ed., 2020, 59, 15665-15673.
     DOI: 10.1002/anie.202004239
   
   for ALPB and GBSA implicit solvation:
   * S. Ehlert, M. Stahn, S. Spicher, S. Grimme, J. Chem. Theory Comput.,
     2021, 17, 4250-4261. DOI: 10.1021/acs.jctc.1c00471
   
   for ddCOSMO and CPCM-X implicit solvation:
   * M. Stahn, S. Ehlert, S. Grimme, J. Phys. Chem. A,
     2023, XX, XXXX-XXXX. DOI: 10.1021/acs.jpca.3c04382
   
   for DFT-D4:
   * E. Caldeweyher, C. Bannwarth and S. Grimme, J. Chem. Phys., 2017,
     147, 034112. DOI: 10.1063/1.4993215
   * E. Caldeweyher, S. Ehlert, A. Hansen, H. Neugebauer, S. Spicher,
     C. Bannwarth and S. Grimme, J. Chem. Phys., 2019, 150, 154122.
     DOI: 10.1063/1.5090222
   * E. Caldeweyher, J.-M. Mewes, S. Ehlert and S. Grimme, Phys. Chem. Chem. Phys.
     2020, 22, 8499-8512. DOI: 10.1039/D0CP00502A
   
   for sTDA-xTB:
   * S. Grimme and C. Bannwarth, J. Chem. Phys., 2016, 145, 054103.
     DOI: 10.1063/1.4959605
   
   in the mass-spec context:
   * V. Asgeirsson, C. Bauer and S. Grimme, Chem. Sci., 2017, 8, 4879.
     DOI: 10.1039/c7sc00601b
   * J. Koopman and S. Grimme, ACS Omega 2019, 4, 12, 15120-15133.
     DOI: 10.1021/acsomega.9b02011
   
   for metadynamics refer to:
   * S. Grimme, J. Chem. Theory Comput., 2019, 155, 2847-2862
     DOI: 10.1021/acs.jctc.9b00143
   
   for SPH calculations refer to:
   * S. Spicher and S. Grimme, J. Chem. Theory Comput., 2021, 17, 1701-1714
     DOI: 10.1021/acs.jctc.0c01306
   
   for ONIOM refer to:
   * C. Plett, A. Katbashev, S. Ehlert, S. Grimme, M. Bursch,
     Phys. Chem. Chem. Phys., 2023, 25, 17860-17868. DOI: 10.1039/D3CP02178E
   
   for DIPRO refer to:
   * J. Kohn, N. Gildemeister, S. Grimme, D. Fazzi, A. Hansen,
     J. Chem. Phys., 2023, just accepted.
   
   for PTB refer to:
   * S. Grimme, M. Mueller, A. Hansen, J. Chem. Phys., 2023, 158, 124111.
     DOI: 10.1063/5.0137838
   
   with help from (in alphabetical order)
   P. Atkinson, C. Bannwarth, F. Bohle, G. Brandenburg, E. Caldeweyher
   M. Checinski, S. Dohm, S. Ehlert, S. Ehrlich, I. Gerasimov, C. Hölzer
   A. Katbashev, J. Kohn, J. Koopman, C. Lavigne, S. Lehtola, F. März, M. Müller,
   F. Musil, H. Neugebauer, J. Pisarek, C. Plett, P. Pracht, F. Pultar,
   J. Seibert, P. Shushkov, S. Spicher, M. Stahn, M. Steiner, T. Strunk,
   J. Stückrath, T. Rose, and J. Unsleber
   
 * started run on 2025/04/11 at 16:15:25.468     
   ID    Z sym.   atoms
    1    6 C      1-4, 7, 10, 12
    2    7 N      5, 9
    3    8 O      6, 8
    4   16 S      11
    5    1 H      13-26

           -------------------------------------------------
          |                Calculation Setup                |
           -------------------------------------------------

          program call               : /srv/scratch/z5358697/.xtb/bin/xtb gas.coord --gfn2 --sp --chrg 0 --norestart --parallel 1
          hostname                   : k073
          coordinate file            : gas.coord
          omp threads                :                     1


           -------------------------------------------------
          |                 G F N 2 - x T B                 |
           -------------------------------------------------

        Reference                      10.1021/acs.jctc.8b01176
      * Hamiltonian:
        H0-scaling (s, p, d)           1.850000    2.230000    2.230000
        zeta-weighting                 0.500000
      * Dispersion:
        s8                             2.700000
        a1                             0.520000
        a2                             5.000000
        s9                             5.000000
      * Repulsion:
        kExp                           1.500000    1.000000
        rExp                           1.000000
      * Coulomb:
        alpha                          2.000000
        third order                    shell-resolved
        anisotropic                    true
        a3                             3.000000
        a5                             4.000000
        cn-shift                       1.200000
        cn-exp                         4.000000
        max-rad                        5.000000


          ...................................................
          :                      SETUP                      :
          :.................................................:
          :  # basis functions                  68          :
          :  # atomic orbitals                  67          :
          :  # shells                           39          :
          :  # electrons                        70          :
          :  max. iterations                   250          :
          :  Hamiltonian                  GFN2-xTB          :
          :  restarted?                      false          :
          :  GBSA solvation                  false          :
          :  PC potential                    false          :
          :  electronic temp.          300.0000000     K    :
          :  accuracy                    1.0000000          :
          :  -> integral cutoff          0.2500000E+02      :
          :  -> integral neglect         0.1000000E-07      :
          :  -> SCF convergence          0.1000000E-05 Eh   :
          :  -> wf. convergence          0.1000000E-03 e    :
          :  Broyden damping             0.4000000          :
          :  net charge                          0          :
          :  unpaired electrons                  0          :
          ...................................................

 iter      E             dE          RMSdq      gap      omega  full diag
   1    -39.6484880 -0.396485E+02  0.431E+00    3.98       0.0  T
   2    -39.7372929 -0.888049E-01  0.235E+00    3.51       1.0  T
   3    -39.7392057 -0.191283E-02  0.108E+00    2.70       1.0  T
   4    -39.7410684 -0.186270E-02  0.589E-01    2.82       1.0  T
   5    -39.7447698 -0.370140E-02  0.191E-01    2.75       1.0  T
   6    -39.7448041 -0.342536E-04  0.853E-02    2.79       1.0  T
   7    -39.7448244 -0.203573E-04  0.367E-02    2.80       1.0  T
   8    -39.7448326 -0.819686E-05  0.160E-02    2.80       1.2  T
   9    -39.7448329 -0.306093E-06  0.465E-03    2.80       4.2  T
  10    -39.7448330 -0.873019E-07  0.223E-03    2.80       8.8  T
  11    -39.7448330 -0.974918E-08  0.857E-04    2.80      22.9  T
  12    -39.7448330 -0.142736E-08  0.323E-04    2.80      60.8  T

   *** convergence criteria satisfied after 12 iterations ***

         #    Occupation            Energy/Eh            Energy/eV
      -------------------------------------------------------------
         1        2.0000           -0.7355381             -20.0150
       ...           ...                  ...                  ...
        29        2.0000           -0.4591591             -12.4944
        30        2.0000           -0.4457929             -12.1306
        31        2.0000           -0.4311217             -11.7314
        32        2.0000           -0.4144585             -11.2780
        33        2.0000           -0.4057121             -11.0400
        34        2.0000           -0.3854993             -10.4900
        35        2.0000           -0.3566546              -9.7051 (HOMO)
        36                         -0.2538175              -6.9067 (LUMO)
        37                         -0.1955876              -5.3222
        38                         -0.1856287              -5.0512
        39                         -0.1497748              -4.0756
        40                         -0.0861178              -2.3434
       ...                                ...                  ...
        67                          0.6671392              18.1538
      -------------------------------------------------------------
                  HL-Gap            0.1028371 Eh            2.7983 eV
             Fermi-level           -0.3052361 Eh           -8.3059 eV

 SCC (total)                   0 d,  0 h,  0 min,  0.041 sec
 SCC setup                      ...        0 min,  0.000 sec (  0.620%)
 Dispersion                     ...        0 min,  0.000 sec (  0.520%)
 classical contributions        ...        0 min,  0.000 sec (  0.100%)
 integral evaluation            ...        0 min,  0.018 sec ( 43.326%)
 iterations                     ...        0 min,  0.013 sec ( 30.783%)
 molecular gradient             ...        0 min,  0.010 sec ( 24.170%)
 printout                       ...        0 min,  0.000 sec (  0.433%)

         :::::::::::::::::::::::::::::::::::::::::::::::::::::
         ::                     SUMMARY                     ::
         :::::::::::::::::::::::::::::::::::::::::::::::::::::
         :: total energy             -39.312280830799 Eh    ::
         :: gradient norm              0.036200227234 Eh/a0 ::
         :: HOMO-LUMO gap              2.798339174847 eV    ::
         ::.................................................::
         :: SCC energy               -39.744567189660 Eh    ::
         :: -> isotropic ES            0.065283168070 Eh    ::
         :: -> anisotropic ES         -0.001162702386 Eh    ::
         :: -> anisotropic XC          0.023951910249 Eh    ::
         :: -> dispersion             -0.023629653364 Eh    ::
         :: repulsion energy           0.432286358861 Eh    ::
         :: add. restraining           0.000000000000 Eh    ::
         :: total charge               0.000000000000 e     ::
         :::::::::::::::::::::::::::::::::::::::::::::::::::::

           -------------------------------------------------
          |                Property Printout                |
           -------------------------------------------------

    * Orbital Energies and Occupations

         #    Occupation            Energy/Eh            Energy/eV
      -------------------------------------------------------------
         1        2.0000           -0.7355381             -20.0150
       ...           ...                  ...                  ...
        23        2.0000           -0.4939224             -13.4403
        24        2.0000           -0.4797611             -13.0550
        25        2.0000           -0.4781663             -13.0116
        26        2.0000           -0.4749337             -12.9236
        27        2.0000           -0.4703103             -12.7978
        28        2.0000           -0.4640652             -12.6279
        29        2.0000           -0.4591591             -12.4944
        30        2.0000           -0.4457929             -12.1306
        31        2.0000           -0.4311217             -11.7314
        32        2.0000           -0.4144585             -11.2780
        33        2.0000           -0.4057121             -11.0400
        34        2.0000           -0.3854993             -10.4900
        35        2.0000           -0.3566546              -9.7051 (HOMO)
        36                         -0.2538175              -6.9067 (LUMO)
        37                         -0.1955876              -5.3222
        38                         -0.1856287              -5.0512
        39                         -0.1497748              -4.0756
        40                         -0.0861178              -2.3434
        41                         -0.0089095              -0.2424
        42                         -0.0063677              -0.1733
        43                          0.0169974               0.4625
        44                          0.0265023               0.7212
        45                          0.0770299               2.0961
        46                          0.0936862               2.5493
       ...                                ...                  ...
        67                          0.6671392              18.1538
      -------------------------------------------------------------
                  HL-Gap            0.1028371 Eh            2.7983 eV
             Fermi-level           -0.3052361 Eh           -8.3059 eV

     #   Z          covCN         q      C6AA      α(0)
     1   6 C        3.795    -0.104    22.499     6.754
     2   6 C        3.891     0.071    19.343     6.252
     3   6 C        3.784    -0.104    22.505     6.757
     4   6 C        2.865     0.070    26.432     8.427
     5   7 N        1.830    -0.068    23.285     7.151
     6   8 O        1.774    -0.234    17.858     5.706
     7   6 C        2.641     0.409    20.116     7.337
     8   8 O        0.857    -0.470    23.125     6.447
     9   7 N        2.686    -0.175    24.793     7.395
    10   6 C        3.691    -0.045    21.566     6.645
    11  16 S        2.031    -0.216   150.248    20.630
    12   6 C        3.745    -0.050    21.546     6.621
    13   1 H        0.925     0.048     2.340     2.392
    14   1 H        0.925     0.046     2.375     2.410
    15   1 H        0.925     0.041     2.432     2.439
    16   1 H        0.925     0.077     2.007     2.215
    17   1 H        0.925     0.043     2.404     2.425
    18   1 H        0.925     0.041     2.434     2.440
    19   1 H        0.925     0.072     2.061     2.245
    20   1 H        0.860     0.188     1.167     1.692
    21   1 H        0.925     0.059     2.208     2.324
    22   1 H        0.925     0.057     2.233     2.337
    23   1 H        0.925     0.088     1.896     2.153
    24   1 H        0.925     0.046     2.368     2.407
    25   1 H        0.925     0.050     2.320     2.382
    26   1 H        0.926     0.057     2.235     2.338

 Mol. C6AA /au·bohr⁶  :       7095.737665
 Mol. C8AA /au·bohr⁸  :     175657.689319
 Mol. α(0) /au        :        128.323174


Wiberg/Mayer (AO) data.
largest (>0.10) Wiberg bond orders for each atom

 ---------------------------------------------------------------------------
     #   Z sym  total        # sym  WBO       # sym  WBO       # sym  WBO
 ---------------------------------------------------------------------------
     1   6 C    3.994 --     2 C    0.989    13 H    0.986    15 H    0.979
                            14 H    0.979
     2   6 C    3.977 --     4 C    0.991     1 C    0.989     3 C    0.980
                            11 S    0.943
     3   6 C    3.989 --     2 C    0.980    18 H    0.979    17 H    0.978
                            16 H    0.976
     4   6 C    3.963 --     5 N    1.905     2 C    0.991    19 H    0.939
     5   7 N    3.029 --     4 C    1.905     6 O    0.966
     6   8 O    2.269 --     7 C    1.010     5 N    0.966     8 O    0.122
     7   6 C    3.937 --     8 O    1.621     9 N    1.239     6 O    1.010
     8   8 O    1.969 --     7 C    1.621     9 N    0.166     6 O    0.122
     9   7 N    3.422 --     7 C    1.239    10 C    1.000    20 H    0.936
                             8 O    0.166
    10   6 C    3.957 --     9 N    1.000    21 H    0.979    22 H    0.977
                            23 H    0.977
    11  16 S    2.103 --    12 C    1.010     2 C    0.943
    12   6 C    3.983 --    11 S    1.010    25 H    0.983    24 H    0.981
                            26 H    0.979
    13   1 H    0.998 --     1 C    0.986
    14   1 H    0.998 --     1 C    0.979
    15   1 H    0.998 --     1 C    0.979
    16   1 H    0.994 --     3 C    0.976
    17   1 H    0.998 --     3 C    0.978
    18   1 H    0.998 --     3 C    0.979
    19   1 H    0.994 --     4 C    0.939
    20   1 H    0.964 --     9 N    0.936
    21   1 H    0.996 --    10 C    0.979
    22   1 H    0.996 --    10 C    0.977
    23   1 H    0.992 --    10 C    0.977
    24   1 H    0.998 --    12 C    0.981
    25   1 H    0.998 --    12 C    0.983
    26   1 H    0.996 --    12 C    0.979
 ---------------------------------------------------------------------------

Topologies differ in total number of bonds
Writing topology from bond orders to xtbtopo.mol

molecular dipole:
                 x           y           z       tot (Debye)
 q only:        0.347       0.862       0.324
   full:        0.843       1.079       0.506       3.710
molecular quadrupole (traceless):
                xx          xy          yy          xz          yz          zz
 q only:       10.025      -8.972      -4.410      -2.077       4.678      -5.616
  q+dip:       13.118      -9.628      -4.785      -0.705       3.944      -8.333
   full:       12.733      -9.637      -4.617      -0.907       4.251      -8.116


           -------------------------------------------------
          | TOTAL ENERGY              -39.312280830799 Eh   |
          | GRADIENT NORM               0.036200227234 Eh/α |
          | HOMO-LUMO GAP               2.798339174847 eV   |
           -------------------------------------------------

------------------------------------------------------------------------
 * finished run on 2025/04/11 at 16:15:25.551     
------------------------------------------------------------------------
 total:
 * wall-time:     0 d,  0 h,  0 min,  0.083 sec
 *  cpu-time:     0 d,  0 h,  0 min,  0.038 sec
 * ratio c/w:     0.458 speedup
 SCF:
 * wall-time:     0 d,  0 h,  0 min,  0.041 sec
 *  cpu-time:     0 d,  0 h,  0 min,  0.028 sec
 * ratio c/w:     0.679 speedup

