 Entering Gaussian System
 *********************************************
 Gaussian 98:
 frequency output generated by the xtb code
 *********************************************
                         Standard orientation:
 --------------------------------------------------------------------
  Center     Atomic     Atomic              Coordinates (Angstroms)
  Number     Number      Type              X           Y           Z
 --------------------------------------------------------------------
    1          6             0       -2.103546   -1.295488    0.807309
    2          6             0       -1.876754   -0.447369   -0.441509
    3          6             0       -2.396372    0.974405   -0.244486
    4          6             0       -0.392818   -0.427204   -0.811057
    5          8             0        0.325761    0.168137    0.275112
    6          7             0        1.657211    0.273605    0.137168
    7          8             0        2.150130   -0.131934   -0.873273
    8          8             0        2.209869    0.775782    1.069126
    9          1             0       -1.569283   -0.868831    1.652238
   10          1             0       -1.753670   -2.312685    0.650698
   11          1             0       -3.161813   -1.329048    1.048809
   12          1             0       -2.399186   -0.906068   -1.285990
   13          1             0       -3.456447    0.955348   -0.009404
   14          1             0       -2.254176    1.564700   -1.146128
   15          1             0       -1.868944    1.456034    0.574807
   16          1             0       -0.011187   -1.439723   -0.973717
   17          1             0       -0.217678    0.163056   -1.715607
 --------------------------------------------------------------------
     1 basis functions        1 primitive gaussians
     1 alpha electrons        1 beta electrons
 
 Harmonic frequencies (cm**-1), IR intensities (km*mol⁻¹),
 Raman scattering activities (A**4/amu), Raman depolarization ratios,
 reduced masses (AMU), force constants (mDyne/A) and normal coordinates:
                      1                      2                      3
                        a                      a                      a 
 Frequencies --    29.4182                70.5301               141.4108
 Red. masses --    13.1912                10.9351                11.5919
 Frc consts  --     0.0000                 0.0000                 0.0000
 IR Inten    --     2.0023                 0.7141                 1.0530
 Raman Activ --     0.0000                 0.0000                 0.0000
 Depolar     --     0.0000                 0.0000                 0.0000
 Atom AN      X      Y      Z        X      Y      Z        X      Y      Z
   1   6    -0.27   0.09   0.04    -0.25  -0.23  -0.25    -0.29  -0.10  -0.14
   2   6     0.00  -0.02   0.01    -0.01   0.04  -0.02     0.00  -0.01  -0.02
   3   6     0.24   0.08  -0.12     0.27   0.10   0.31    -0.30  -0.10  -0.14
   4   6     0.04  -0.30   0.14     0.02  -0.15   0.07     0.07   0.14   0.29
   5   8     0.06  -0.45   0.21    -0.00   0.01  -0.01     0.13   0.16   0.32
   6   7    -0.01   0.06  -0.03    -0.01   0.06  -0.03     0.14   0.02   0.01
   7   8    -0.07   0.53  -0.25     0.04  -0.29   0.13    -0.17  -0.07  -0.10
   8   8     0.00  -0.00   0.00    -0.06   0.47  -0.22     0.47  -0.01  -0.16
   9   1    -0.07   0.01   0.02    -0.04  -0.18  -0.04    -0.20  -0.01   0.02
  10   1    -0.13   0.00   0.04    -0.16  -0.08  -0.15    -0.01  -0.01  -0.02
  11   1    -0.08   0.09  -0.01    -0.08   0.00  -0.08    -0.11  -0.09  -0.16
  12   1    -0.00   0.01  -0.00    -0.01   0.10  -0.05     0.09  -0.01  -0.06
  13   1     0.06   0.08  -0.07     0.06   0.07   0.04    -0.11  -0.08  -0.16
  14   1     0.13   0.00  -0.04     0.16   0.10   0.15    -0.02  -0.01  -0.02
  15   1     0.07   0.01  -0.02     0.07  -0.07   0.16    -0.20  -0.01   0.02
  16   1    -0.04  -0.11   0.06    -0.02  -0.06   0.08     0.03   0.05   0.08
  17   1     0.06  -0.11   0.04     0.03  -0.09  -0.01     0.03   0.04   0.09
                      4                      5                      6
                        a                      a                      a 
 Frequencies --   184.6984               211.5967               234.4597
 Red. masses --    10.7000                 3.8916                 4.1155
 Frc consts  --     0.0000                 0.0000                 0.0000
 IR Inten    --     0.0792                 0.0037                 0.8903
 Raman Activ --     0.0000                 0.0000                 0.0000
 Depolar     --     0.0000                 0.0000                 0.0000
 Atom AN      X      Y      Z        X      Y      Z        X      Y      Z
   1   6    -0.12  -0.07   0.07     0.19   0.08   0.03    -0.09   0.10   0.09
   2   6     0.02  -0.12   0.05    -0.01   0.06  -0.03    -0.04   0.02   0.05
   3   6     0.13  -0.07  -0.00    -0.20  -0.01  -0.07    -0.08  -0.01   0.14
   4   6     0.02  -0.17   0.08    -0.01   0.10  -0.04    -0.05  -0.05  -0.09
   5   8    -0.07   0.57  -0.26     0.03  -0.27   0.13     0.07  -0.09  -0.20
   6   7    -0.01   0.10  -0.05     0.01  -0.05   0.03     0.07  -0.02  -0.06
   7   8    -0.02   0.14  -0.06     0.00  -0.05   0.02     0.28   0.04   0.01
   8   8     0.05  -0.34   0.16    -0.01   0.12  -0.06    -0.12   0.00   0.04
   9   1     0.11  -0.13  -0.02     0.36  -0.15  -0.10    -0.31   0.23   0.10
  10   1    -0.22  -0.08  -0.03    -0.24  -0.06  -0.11     0.28   0.11   0.18
  11   1    -0.02   0.16   0.11     0.10   0.29   0.25    -0.07  -0.23  -0.18
  12   1     0.00  -0.03   0.01     0.00  -0.00   0.00    -0.02   0.01   0.02
  13   1    -0.00   0.02  -0.19    -0.13  -0.03  -0.36    -0.10  -0.01  -0.30
  14   1     0.23   0.02   0.06     0.23   0.09   0.09     0.28   0.12   0.17
  15   1    -0.08  -0.09   0.12    -0.32  -0.09   0.20    -0.27  -0.14   0.28
  16   1     0.04  -0.06   0.19    -0.02   0.03  -0.09    -0.04  -0.02  -0.04
  17   1    -0.01  -0.19  -0.07     0.01   0.10   0.03    -0.04  -0.02  -0.04
                      7                      8                      9
                        a                      a                      a 
 Frequencies --   240.0768               365.5902               381.0567
 Red. masses --    10.6830                 6.8269                 7.9174
 Frc consts  --     0.0000                 0.0000                 0.0000
 IR Inten    --     2.1880                 1.7496                 1.4695
 Raman Activ --     0.0000                 0.0000                 0.0000
 Depolar     --     0.0000                 0.0000                 0.0000
 Atom AN      X      Y      Z        X      Y      Z        X      Y      Z
   1   6     0.33  -0.02  -0.04     0.28   0.09  -0.20     0.12  -0.41   0.04
   2   6     0.14  -0.01  -0.07    -0.03   0.26  -0.12    -0.20   0.11   0.30
   3   6     0.33   0.05  -0.07    -0.31   0.15   0.09     0.03   0.31  -0.30
   4   6     0.10   0.03   0.03     0.05  -0.39   0.18    -0.23   0.03   0.12
   5   8    -0.21   0.07   0.21    -0.00   0.00  -0.00     0.04  -0.00  -0.02
   6   7    -0.25  -0.00   0.06     0.00   0.00  -0.00     0.06  -0.01  -0.03
   7   8    -0.54  -0.09  -0.04    -0.00   0.02  -0.01     0.17   0.02   0.00
   8   8    -0.01  -0.04  -0.08     0.00  -0.04   0.02    -0.02   0.00   0.01
   9   1    -0.02   0.10   0.01     0.10   0.04  -0.08     0.03  -0.21   0.06
  10   1     0.27   0.05   0.03     0.16   0.06  -0.11     0.13  -0.06  -0.17
  11   1     0.09  -0.17  -0.07     0.10  -0.08   0.01     0.05  -0.27   0.04
  12   1     0.03  -0.00  -0.01    -0.01   0.09  -0.04    -0.07   0.03   0.09
  13   1     0.06   0.08  -0.18    -0.08  -0.08   0.06    -0.02   0.21  -0.18
  14   1     0.28   0.05   0.03    -0.18   0.09   0.04     0.14  -0.07  -0.17
  15   1     0.00  -0.06   0.08    -0.11   0.06   0.03    -0.02   0.18  -0.12
  16   1     0.06   0.02   0.02    -0.12  -0.21   0.31    -0.09   0.00   0.02
  17   1     0.06   0.02   0.02     0.19  -0.34  -0.06    -0.09   0.00   0.03
                     10                     11                     12
                        a                      a                      a 
 Frequencies --   516.1111               594.2188               724.4851
 Red. masses --    10.3685                12.6836                15.1988
 Frc consts  --     0.0000                 0.0000                 0.0000
 IR Inten    --     0.4178                 9.3860                24.1493
 Raman Activ --     0.0000                 0.0000                 0.0000
 Depolar     --     0.0000                 0.0000                 0.0000
 Atom AN      X      Y      Z        X      Y      Z        X      Y      Z
   1   6    -0.06  -0.07   0.06     0.05   0.07  -0.09    -0.03  -0.02  -0.00
   2   6     0.47   0.20   0.30    -0.12  -0.09  -0.15    -0.15  -0.04  -0.04
   3   6    -0.08   0.08  -0.01     0.07  -0.10  -0.01    -0.03   0.00  -0.01
   4   6     0.34   0.06   0.03    -0.04   0.21   0.46    -0.03  -0.02  -0.03
   5   8     0.11  -0.02  -0.07     0.12   0.14   0.26     0.49  -0.02  -0.17
   6   7    -0.10  -0.07  -0.13     0.03  -0.12  -0.27     0.35   0.08   0.08
   7   8    -0.10  -0.08  -0.15     0.27  -0.06  -0.21    -0.46  -0.17  -0.25
   8   8    -0.42  -0.04   0.03    -0.48  -0.08  -0.04    -0.14   0.18   0.43
   9   1    -0.11  -0.17   0.14     0.07   0.10  -0.10     0.03   0.04  -0.05
  10   1    -0.10  -0.04  -0.05     0.04   0.02   0.02     0.03   0.01   0.01
  11   1    -0.06   0.05  -0.14     0.04   0.00   0.06     0.01  -0.04   0.07
  12   1     0.14   0.05   0.08     0.06  -0.03  -0.09    -0.02  -0.01  -0.02
  13   1    -0.03  -0.15  -0.05     0.03   0.05   0.04    -0.01   0.07   0.01
  14   1    -0.10  -0.04  -0.05     0.04   0.01   0.03     0.03   0.01   0.01
  15   1    -0.15   0.19  -0.02     0.10  -0.12   0.00     0.04  -0.05  -0.00
  16   1     0.08   0.01  -0.00     0.01   0.07   0.13    -0.04  -0.01  -0.02
  17   1     0.08   0.01  -0.00     0.01   0.06   0.13    -0.04  -0.02  -0.02
                     13                     14                     15
                        a                      a                      a 
 Frequencies --   743.1241               870.3274               897.4482
 Red. masses --    14.3423                 8.8689                15.0350
 Frc consts  --     0.0000                 0.0000                 0.0000
 IR Inten    --   101.0843                 0.7194               563.4564
 Raman Activ --     0.0000                 0.0000                 0.0000
 Depolar     --     0.0000                 0.0000                 0.0000
 Atom AN      X      Y      Z        X      Y      Z        X      Y      Z
   1   6    -0.00   0.01  -0.01     0.12   0.30  -0.29    -0.02   0.03  -0.05
   2   6    -0.00   0.00  -0.00     0.15   0.13   0.25    -0.05   0.01   0.03
   3   6    -0.00   0.01  -0.00     0.21  -0.38   0.02    -0.00  -0.06  -0.01
   4   6     0.01  -0.05   0.02    -0.42   0.02   0.15    -0.06   0.00   0.02
   5   8     0.03  -0.20   0.09    -0.04  -0.04  -0.09     0.68   0.04  -0.11
   6   7    -0.10   0.79  -0.37     0.08   0.02   0.03    -0.59  -0.04   0.07
   7   8     0.03  -0.27   0.13    -0.04  -0.01  -0.01    -0.05   0.12   0.27
   8   8     0.03  -0.26   0.12     0.05   0.04   0.06     0.02  -0.09  -0.21
   9   1     0.01   0.00  -0.01    -0.03  -0.05   0.02     0.02   0.03  -0.04
  10   1     0.01   0.00  -0.01     0.00   0.09  -0.21     0.02   0.02  -0.02
  11   1     0.00  -0.00   0.01     0.01   0.08  -0.20     0.01  -0.02   0.03
  12   1    -0.00   0.01  -0.00     0.02   0.04   0.08     0.03  -0.00  -0.02
  13   1    -0.00  -0.01   0.00     0.04  -0.20  -0.07     0.00   0.04   0.01
  14   1    -0.01   0.01   0.00     0.04  -0.21  -0.07     0.02  -0.02  -0.00
  15   1    -0.01   0.01   0.00    -0.04   0.04  -0.02     0.03  -0.04  -0.01
  16   1     0.01  -0.00  -0.06    -0.21  -0.02   0.02    -0.04  -0.00   0.00
  17   1    -0.01   0.04   0.04    -0.21  -0.02   0.01    -0.04  -0.01   0.00
                     16                     17                     18
                        a                      a                      a 
 Frequencies --   911.4454               955.0443               993.1391
 Red. masses --     4.3850                 2.6829                 4.8792
 Frc consts  --     0.0000                 0.0000                 0.0000
 IR Inten    --     0.0157                 3.8410                 0.0563
 Raman Activ --     0.0000                 0.0000                 0.0000
 Depolar     --     0.0000                 0.0000                 0.0000
 Atom AN      X      Y      Z        X      Y      Z        X      Y      Z
   1   6     0.08  -0.05   0.15    -0.03   0.19   0.16     0.28   0.10  -0.20
   2   6    -0.01   0.09  -0.04    -0.01   0.08  -0.04     0.03  -0.20   0.09
   3   6    -0.05  -0.16  -0.05     0.00   0.00  -0.25    -0.31   0.16   0.09
   4   6    -0.05   0.41  -0.19     0.02  -0.12   0.06     0.02  -0.18   0.08
   5   8     0.02  -0.11   0.05    -0.00   0.03  -0.01    -0.00   0.03  -0.02
   6   7    -0.01   0.05  -0.02     0.00  -0.01   0.01     0.00  -0.01   0.00
   7   8     0.00  -0.02   0.01    -0.00   0.00  -0.00    -0.00   0.00  -0.00
   8   8     0.00  -0.01   0.00    -0.00   0.00  -0.00     0.00   0.00  -0.00
   9   1    -0.10  -0.14   0.18    -0.02  -0.31   0.23    -0.12  -0.04   0.10
  10   1    -0.09  -0.05   0.01     0.05   0.13  -0.41    -0.13  -0.06   0.05
  11   1    -0.03   0.07  -0.16    -0.01  -0.18  -0.01    -0.01   0.26  -0.39
  12   1     0.02  -0.15   0.07     0.03  -0.26   0.12     0.03  -0.23   0.10
  13   1     0.00   0.17   0.05     0.05  -0.10   0.14    -0.08   0.46   0.06
  14   1     0.09  -0.02   0.02    -0.11   0.38   0.17     0.14  -0.05  -0.00
  15   1     0.14  -0.20  -0.02     0.11  -0.36   0.08     0.14  -0.08  -0.04
  16   1    -0.33  -0.08   0.34     0.10   0.02  -0.09     0.11   0.02  -0.11
  17   1     0.37  -0.24  -0.20    -0.11   0.06   0.05    -0.13   0.07   0.07
                     19                     20                     21
                        a                      a                      a 
 Frequencies --   994.3063               998.9321              1127.6888
 Red. masses --    11.3311                 6.5356                 6.5998
 Frc consts  --     0.0000                 0.0000                 0.0000
 IR Inten    --    76.5609                12.5422                23.6366
 Raman Activ --     0.0000                 0.0000                 0.0000
 Depolar     --     0.0000                 0.0000                 0.0000
 Atom AN      X      Y      Z        X      Y      Z        X      Y      Z
   1   6    -0.06  -0.06  -0.00     0.16  -0.25   0.09     0.19   0.03   0.05
   2   6     0.09   0.02   0.03     0.26  -0.05  -0.19    -0.36  -0.12  -0.17
   3   6    -0.07   0.02  -0.04     0.09   0.26  -0.15     0.19   0.06   0.04
   4   6     0.15   0.23   0.46    -0.43  -0.03   0.06     0.17   0.15   0.28
   5   8    -0.20  -0.28  -0.55     0.08   0.03   0.03     0.02  -0.12  -0.26
   6   7     0.00   0.03   0.07    -0.00   0.00   0.00    -0.03   0.01   0.03
   7   8    -0.09   0.04   0.11    -0.00  -0.00  -0.00    -0.04   0.02   0.05
   8   8     0.11   0.00  -0.02     0.01   0.02   0.03     0.03   0.00  -0.01
   9   1     0.06   0.08  -0.09    -0.08   0.05   0.04    -0.12  -0.11   0.17
  10   1     0.04  -0.01   0.06    -0.12  -0.16   0.33    -0.11  -0.04  -0.00
  11   1     0.02  -0.03   0.12    -0.01   0.18  -0.16    -0.02   0.11  -0.24
  12   1     0.32  -0.03  -0.16     0.11  -0.02  -0.07    -0.41   0.01   0.14
  13   1    -0.00   0.11   0.05     0.04  -0.24   0.04     0.03  -0.25  -0.07
  14   1     0.03   0.06   0.03    -0.18   0.32   0.10    -0.11   0.00  -0.03
  15   1     0.08  -0.11  -0.00    -0.07  -0.02   0.07    -0.15   0.17   0.04
  16   1    -0.09   0.02   0.03    -0.16  -0.02   0.02     0.14   0.07   0.06
  17   1    -0.09  -0.01   0.04    -0.16  -0.00   0.02     0.15   0.03   0.08
                     22                     23                     24
                        a                      a                      a 
 Frequencies --  1152.0365              1192.2732              1221.2600
 Red. masses --     5.9423                 6.6472                 2.6290
 Frc consts  --     0.0000                 0.0000                 0.0000
 IR Inten    --     0.3408                 7.0066                12.7737
 Raman Activ --     0.0000                 0.0000                 0.0000
 Depolar     --     0.0000                 0.0000                 0.0000
 Atom AN      X      Y      Z        X      Y      Z        X      Y      Z
   1   6    -0.09   0.12  -0.21    -0.02   0.14   0.28     0.10  -0.04   0.15
   2   6     0.05  -0.41   0.19     0.15  -0.19  -0.46    -0.03   0.21  -0.10
   3   6     0.05   0.26   0.04    -0.02   0.11   0.29    -0.07  -0.16  -0.06
   4   6    -0.03   0.25  -0.11    -0.19  -0.01   0.04    -0.01   0.04  -0.02
   5   8     0.02  -0.13   0.06     0.03  -0.00  -0.02     0.02  -0.12   0.05
   6   7    -0.00   0.01  -0.00    -0.01   0.00   0.00    -0.00   0.00  -0.00
   7   8     0.00  -0.01   0.00     0.00  -0.00  -0.01     0.00  -0.00   0.00
   8   8     0.00   0.00  -0.00     0.01   0.01   0.02    -0.00   0.00  -0.00
   9   1     0.07   0.07  -0.14    -0.00  -0.24   0.20    -0.06  -0.06   0.11
  10   1     0.06   0.07  -0.11     0.01   0.08  -0.24    -0.05  -0.03   0.03
  11   1     0.01  -0.05   0.06    -0.01  -0.15   0.00    -0.01   0.04  -0.07
  12   1     0.04  -0.30   0.14     0.25  -0.08  -0.24    -0.05   0.41  -0.19
  13   1     0.01  -0.08  -0.00    -0.04   0.09  -0.11    -0.01   0.08   0.02
  14   1    -0.09   0.11   0.02     0.05  -0.23  -0.09     0.05  -0.03  -0.00
  15   1    -0.10   0.13   0.04    -0.07   0.30  -0.05     0.08  -0.11  -0.03
  16   1     0.22   0.08   0.34    -0.02   0.01   0.01     0.46   0.14   0.25
  17   1    -0.20  -0.25  -0.26    -0.02  -0.00   0.02    -0.45  -0.20  -0.22
                     25                     26                     27
                        a                      a                      a 
 Frequencies --  1278.3704              1307.5510              1316.0930
 Red. masses --    13.7992                 6.0696                 5.2737
 Frc consts  --     0.0000                 0.0000                 0.0000
 IR Inten    --   610.2154                 8.6152                 8.0560
 Raman Activ --     0.0000                 0.0000                 0.0000
 Depolar     --     0.0000                 0.0000                 0.0000
 Atom AN      X      Y      Z        X      Y      Z        X      Y      Z
   1   6     0.00  -0.00  -0.02    -0.16  -0.02  -0.02     0.03   0.15   0.06
   2   6    -0.03   0.03   0.07     0.51  -0.02  -0.18     0.07  -0.52   0.24
   3   6     0.01  -0.01  -0.02    -0.16  -0.03  -0.01    -0.06   0.05  -0.15
   4   6    -0.11  -0.01   0.01    -0.26   0.03   0.13    -0.01   0.06  -0.03
   5   8    -0.07  -0.04  -0.06     0.01  -0.05  -0.12    -0.00   0.02  -0.01
   6   7    -0.50  -0.04   0.05     0.02   0.01   0.01     0.00   0.00  -0.00
   7   8     0.25  -0.18  -0.46    -0.02   0.01   0.03    -0.00  -0.00   0.00
   8   8     0.27   0.23   0.41     0.01  -0.00  -0.01    -0.00  -0.00   0.00
   9   1    -0.00   0.02  -0.01     0.07   0.00  -0.07     0.04  -0.03   0.02
  10   1    -0.00  -0.00   0.01     0.09   0.03   0.02     0.02   0.07  -0.19
  11   1     0.00   0.01   0.01     0.00  -0.08   0.14    -0.02  -0.01  -0.13
  12   1     0.10  -0.01  -0.04    -0.51   0.08   0.32    -0.08   0.59  -0.27
  13   1     0.01  -0.00   0.01    -0.03   0.16   0.03     0.01   0.09   0.09
  14   1    -0.00   0.01   0.00     0.09   0.01   0.03    -0.05   0.18   0.07
  15   1     0.00  -0.02   0.01     0.08  -0.04  -0.05    -0.03  -0.05   0.02
  16   1     0.20   0.07   0.04     0.18   0.08   0.09    -0.16  -0.05  -0.02
  17   1     0.21   0.03   0.06     0.18   0.06   0.11     0.17   0.02   0.04
                     28                     29                     30
                        a                      a                      a 
 Frequencies --  1319.1072              1403.8091              1416.7780
 Red. masses --     5.0373                 3.3529                 3.0982
 Frc consts  --     0.0000                 0.0000                 0.0000
 IR Inten    --    56.1062                 5.6565                 1.8964
 Raman Activ --     0.0000                 0.0000                 0.0000
 Depolar     --     0.0000                 0.0000                 0.0000
 Atom AN      X      Y      Z        X      Y      Z        X      Y      Z
   1   6     0.03  -0.02   0.00     0.05   0.20  -0.25    -0.06  -0.15   0.25
   2   6    -0.12   0.07   0.18     0.01  -0.10   0.05     0.04  -0.01  -0.03
   3   6     0.02   0.02  -0.01    -0.11   0.29   0.02    -0.11   0.28   0.05
   4   6    -0.35  -0.09  -0.09    -0.00   0.01  -0.01     0.01   0.03   0.05
   5   8     0.02  -0.04  -0.09    -0.00   0.00  -0.00     0.00   0.01   0.02
   6   7     0.21   0.03  -0.00    -0.00   0.00  -0.00    -0.03  -0.00   0.00
   7   8    -0.10   0.07   0.17    -0.00  -0.00   0.00     0.01  -0.01  -0.02
   8   8    -0.09  -0.08  -0.15    -0.00   0.00  -0.00     0.01   0.01   0.01
   9   1     0.00   0.05  -0.02    -0.12  -0.29   0.21     0.15   0.26  -0.21
  10   1     0.00   0.00  -0.03    -0.10  -0.07   0.33     0.10   0.07  -0.32
  11   1    -0.01   0.06  -0.05     0.08  -0.21   0.27    -0.09   0.18  -0.29
  12   1     0.30  -0.03  -0.14    -0.01   0.10  -0.05    -0.06   0.01   0.03
  13   1     0.01  -0.08   0.01    -0.01  -0.35  -0.00    -0.02  -0.35  -0.05
  14   1     0.01  -0.02  -0.02     0.14  -0.26  -0.17     0.14  -0.27  -0.17
  15   1     0.01  -0.05   0.02     0.20  -0.31   0.07     0.23  -0.30   0.04
  16   1     0.49   0.16   0.11    -0.02  -0.00  -0.00    -0.03   0.01  -0.12
  17   1     0.49   0.08   0.14     0.02   0.00   0.00    -0.02  -0.10  -0.07
                     31                     32                     33
                        a                      a                      a 
 Frequencies --  1444.9855              1485.6962              1490.1587
 Red. masses --     1.8369                 1.5458                 1.5908
 Frc consts  --     0.0000                 0.0000                 0.0000
 IR Inten    --     4.2068                 0.5007                 0.9143
 Raman Activ --     0.0000                 0.0000                 0.0000
 Depolar     --     0.0000                 0.0000                 0.0000
 Atom AN      X      Y      Z        X      Y      Z        X      Y      Z
   1   6    -0.00   0.01  -0.05     0.13   0.07   0.07     0.10  -0.10  -0.07
   2   6     0.00   0.00   0.00    -0.00   0.02  -0.01     0.01  -0.06   0.03
   3   6     0.00  -0.05  -0.02    -0.13  -0.03  -0.08    -0.08  -0.03   0.13
   4   6    -0.10   0.08   0.21    -0.00   0.00  -0.00    -0.00   0.01  -0.00
   5   8     0.01   0.03   0.07     0.00  -0.00   0.00    -0.00  -0.00   0.00
   6   7     0.01   0.01   0.01    -0.00   0.00  -0.00    -0.00   0.00  -0.00
   7   8     0.01   0.00   0.00     0.00  -0.00   0.00     0.00  -0.00   0.00
   8   8    -0.01  -0.01  -0.02     0.00  -0.00   0.00     0.00  -0.00   0.00
   9   1    -0.03  -0.07   0.05    -0.03   0.25  -0.09    -0.42   0.22   0.15
  10   1     0.04   0.00   0.07    -0.47  -0.14  -0.11    -0.04   0.02  -0.26
  11   1     0.01   0.02   0.06     0.01  -0.39  -0.06     0.08   0.20   0.34
  12   1     0.00   0.00   0.00     0.00  -0.04   0.02    -0.00   0.03  -0.01
  13   1     0.01   0.04   0.05     0.07  -0.20   0.33    -0.09  -0.14  -0.36
  14   1     0.03   0.06   0.04     0.47   0.09   0.13     0.01   0.21   0.15
  15   1    -0.04   0.07  -0.02    -0.03   0.23  -0.13     0.38   0.11  -0.30
  16   1     0.10   0.15  -0.64     0.00   0.00  -0.00    -0.02  -0.00  -0.00
  17   1     0.19  -0.56  -0.32    -0.00   0.00  -0.00     0.02   0.00   0.00
                     34                     35                     36
                        a                      a                      a 
 Frequencies --  1497.4098              1499.7360              1697.8198
 Red. masses --     1.5315                 1.5890                14.6614
 Frc consts  --     0.0000                 0.0000                 0.0000
 IR Inten    --     4.3954                 2.7066               948.1428
 Raman Activ --     0.0000                 0.0000                 0.0000
 Depolar     --     0.0000                 0.0000                 0.0000
 Atom AN      X      Y      Z        X      Y      Z        X      Y      Z
   1   6    -0.08  -0.11  -0.06    -0.12   0.09   0.01    -0.00   0.00  -0.00
   2   6    -0.05  -0.03  -0.04    -0.08   0.01   0.05    -0.00   0.00   0.01
   3   6    -0.09   0.01  -0.11    -0.10  -0.07   0.09    -0.00  -0.00   0.00
   4   6     0.03  -0.01  -0.02     0.02  -0.00  -0.01     0.01   0.00  -0.00
   5   8     0.00  -0.00  -0.01    -0.00   0.00   0.00    -0.02   0.01   0.02
   6   7    -0.00  -0.00  -0.00    -0.01  -0.00  -0.00    -0.03  -0.35  -0.74
   7   8    -0.00  -0.00  -0.00     0.00  -0.00  -0.00    -0.15   0.14   0.34
   8   8     0.00   0.00   0.00     0.00   0.00   0.00     0.19   0.18   0.33
   9   1    -0.11  -0.15   0.14     0.39  -0.30  -0.10    -0.00   0.00   0.00
  10   1     0.42   0.14  -0.01     0.19   0.03   0.29     0.00   0.00  -0.00
  11   1     0.01   0.44   0.15    -0.07  -0.06  -0.29     0.00  -0.00   0.00
  12   1     0.02  -0.01  -0.03     0.03  -0.00  -0.02     0.01  -0.00  -0.00
  13   1     0.09  -0.16   0.43    -0.05  -0.20  -0.23     0.00   0.00   0.00
  14   1     0.44  -0.01   0.06     0.16   0.24   0.20     0.00  -0.00  -0.00
  15   1    -0.16   0.18  -0.01     0.33   0.20  -0.33    -0.00   0.00   0.00
  16   1    -0.03  -0.02   0.07     0.00  -0.00   0.02     0.01   0.00  -0.01
  17   1    -0.04   0.06   0.03    -0.00   0.01   0.01     0.02  -0.01  -0.01
                     37                     38                     39
                        a                      a                      a 
 Frequencies --  2949.1346              2950.0565              2966.5400
 Red. masses --     1.7465                 2.0010                 1.4699
 Frc consts  --     0.0000                 0.0000                 0.0000
 IR Inten    --    35.8877                19.3723                24.9430
 Raman Activ --     0.0000                 0.0000                 0.0000
 Depolar     --     0.0000                 0.0000                 0.0000
 Atom AN      X      Y      Z        X      Y      Z        X      Y      Z
   1   6    -0.01  -0.01  -0.00     0.00  -0.00   0.00     0.00   0.00   0.00
   2   6     0.13   0.11   0.20    -0.00   0.01  -0.00    -0.02  -0.02  -0.03
   3   6    -0.01   0.00  -0.01    -0.00  -0.00   0.00     0.00   0.00   0.00
   4   6     0.02  -0.01  -0.02    -0.03   0.27  -0.13     0.09  -0.07  -0.17
   5   8    -0.00  -0.00  -0.00    -0.00   0.01  -0.00    -0.01  -0.01  -0.01
   6   7    -0.00  -0.00   0.00     0.00  -0.00   0.00     0.00  -0.00  -0.00
   7   8     0.00  -0.00  -0.00    -0.00   0.00  -0.00    -0.00   0.00   0.00
   8   8     0.00   0.00   0.00    -0.00   0.00  -0.00     0.00   0.00   0.00
   9   1     0.02   0.02   0.04    -0.00  -0.00  -0.01    -0.01  -0.01  -0.01
  10   1    -0.01   0.02   0.00    -0.00   0.01   0.00     0.00  -0.01  -0.00
  11   1     0.02  -0.00  -0.01    -0.01  -0.00   0.00    -0.00   0.00   0.00
  12   1    -0.46  -0.40  -0.73    -0.00  -0.00  -0.00     0.07   0.06   0.12
  13   1     0.02   0.00  -0.01     0.01   0.00  -0.00    -0.00  -0.00   0.00
  14   1    -0.01  -0.01   0.02     0.00   0.01  -0.01     0.00   0.00  -0.01
  15   1     0.02   0.02   0.03     0.00   0.00   0.01    -0.01  -0.01  -0.01
  16   1    -0.04   0.11   0.01     0.23  -0.62  -0.12    -0.22   0.64   0.07
  17   1    -0.01  -0.06   0.09    -0.11  -0.35   0.57    -0.09  -0.39   0.55
                     40                     41                     42
                        a                      a                      a 
 Frequencies --  3036.8235              3040.0645              3046.3274
 Red. masses --     1.8982                 1.8128                 1.8161
 Frc consts  --     0.0000                 0.0000                 0.0000
 IR Inten    --    68.9579                37.6882                 7.5786
 Raman Activ --     0.0000                 0.0000                 0.0000
 Depolar     --     0.0000                 0.0000                 0.0000
 Atom AN      X      Y      Z        X      Y      Z        X      Y      Z
   1   6    -0.06   0.18   0.07     0.07  -0.17  -0.05    -0.16  -0.04  -0.11
   2   6    -0.00   0.01  -0.00    -0.00  -0.01  -0.01    -0.00   0.00  -0.00
   3   6     0.03   0.07  -0.18     0.03   0.09  -0.17     0.14   0.09   0.08
   4   6    -0.00   0.00  -0.00     0.00  -0.00  -0.00    -0.00   0.00  -0.00
   5   8     0.00  -0.00   0.00    -0.00  -0.00  -0.00     0.00  -0.00   0.00
   6   7    -0.00   0.00  -0.00     0.00  -0.00  -0.00     0.00   0.00  -0.00
   7   8     0.00   0.00  -0.00    -0.00   0.00   0.00    -0.00   0.00  -0.00
   8   8     0.00  -0.00   0.00    -0.00  -0.00  -0.00    -0.00  -0.00  -0.00
   9   1    -0.11  -0.05  -0.14     0.05   0.01   0.06     0.31   0.27   0.50
  10   1     0.22  -0.61  -0.10    -0.21   0.62   0.10     0.02  -0.14  -0.04
  11   1     0.10   0.03  -0.01    -0.07  -0.03   0.01     0.23  -0.00  -0.07
  12   1    -0.00  -0.00  -0.00     0.02   0.02   0.03     0.00   0.00   0.00
  13   1    -0.11   0.00  -0.00    -0.08   0.01  -0.01    -0.21   0.00   0.06
  14   1    -0.09  -0.34   0.53    -0.09  -0.36   0.57     0.00  -0.06   0.13
  15   1     0.10   0.09   0.12     0.05   0.05   0.04    -0.29  -0.25  -0.46
  16   1     0.01  -0.01  -0.00    -0.00   0.01   0.00     0.00  -0.01  -0.00
  17   1    -0.00  -0.01   0.01    -0.00  -0.00   0.01    -0.00  -0.01   0.01
                     43                     44                     45
                        a                      a                      a 
 Frequencies --  3047.9556              3054.6121              3057.8094
 Red. masses --     1.8651                 1.4528                 1.4636
 Frc consts  --     0.0000                 0.0000                 0.0000
 IR Inten    --    86.9010                12.9459                59.0278
 Raman Activ --     0.0000                 0.0000                 0.0000
 Depolar     --     0.0000                 0.0000                 0.0000
 Atom AN      X      Y      Z        X      Y      Z        X      Y      Z
   1   6     0.14   0.05   0.11     0.12   0.02  -0.07     0.12   0.00  -0.08
   2   6     0.02   0.01   0.02    -0.00   0.00  -0.00     0.01  -0.00  -0.00
   3   6     0.16   0.08   0.10    -0.13   0.04   0.04     0.12  -0.04  -0.06
   4   6    -0.00   0.00   0.00    -0.00   0.00  -0.00    -0.00  -0.00  -0.00
   5   8    -0.00  -0.00  -0.00     0.00  -0.00   0.00     0.00   0.00  -0.00
   6   7    -0.00  -0.00  -0.00     0.00  -0.00   0.00    -0.00  -0.00   0.00
   7   8     0.00   0.00   0.00    -0.00   0.00  -0.00     0.00  -0.00  -0.00
   8   8     0.00   0.00   0.00     0.00   0.00  -0.00     0.00   0.00   0.00
   9   1    -0.29  -0.24  -0.47     0.12   0.09   0.15     0.15   0.10   0.19
  10   1     0.01   0.05   0.02     0.07  -0.15  -0.03     0.05  -0.10  -0.03
  11   1    -0.23   0.00   0.07    -0.62  -0.01   0.13    -0.62  -0.02   0.13
  12   1    -0.03  -0.03  -0.05    -0.00   0.00  -0.00    -0.00  -0.00  -0.00
  13   1    -0.26   0.00   0.08     0.62   0.03  -0.14    -0.62  -0.02   0.13
  14   1     0.02  -0.02   0.06    -0.04  -0.09   0.15     0.03   0.06  -0.10
  15   1    -0.31  -0.28  -0.50    -0.12  -0.09  -0.16     0.15   0.11   0.19
  16   1     0.00  -0.00   0.00    -0.00   0.00   0.00    -0.00   0.00   0.00
  17   1     0.00   0.00  -0.00     0.00   0.00  -0.00    -0.00  -0.00   0.00
