 Entering Gaussian System
 *********************************************
 Gaussian 98:
 frequency output generated by the xtb code
 *********************************************
                         Standard orientation:
 --------------------------------------------------------------------
  Center     Atomic     Atomic              Coordinates (Angstroms)
  Number     Number      Type              X           Y           Z
 --------------------------------------------------------------------
    1          6             0        2.346867    0.353162   -0.641001
    2          6             0        1.516410    0.338288    0.637714
    3          6             0        0.510443   -0.812493    0.693454
    4          6             0       -0.563740   -0.782069   -0.404091
    5          6             0       -1.412747    0.447426   -0.339196
    6          6             0       -2.670166    0.462259    0.062181
    7          1             0        1.727041    0.561586   -1.509117
    8          1             0        2.835448   -0.607734   -0.787718
    9          1             0        3.113367    1.122350   -0.581989
   10          1             0        2.189139    0.239246    1.493286
   11          1             0        0.992364    1.289413    0.745354
   12          1             0        1.052196   -1.758302    0.617069
   13          1             0        0.010968   -0.792078    1.665076
   14          1             0       -0.081346   -0.838398   -1.381705
   15          1             0       -1.196525   -1.664312   -0.287400
   16          1             0       -0.932385    1.369157   -0.639534
   17          1             0       -3.248141    1.369920    0.103366
   18          1             0       -3.177913   -0.439519    0.364268
 --------------------------------------------------------------------
     1 basis functions        1 primitive gaussians
     1 alpha electrons        1 beta electrons
 
 Harmonic frequencies (cm**-1), IR intensities (km*mol⁻¹),
 Raman scattering activities (A**4/amu), Raman depolarization ratios,
 reduced masses (AMU), force constants (mDyne/A) and normal coordinates:
                      1                      2                      3
                        a                      a                      a 
 Frequencies --    42.3840                57.1284               149.0544
 Red. masses --     8.5176                 7.7677                 5.0571
 Frc consts  --     0.0000                 0.0000                 0.0000
 IR Inten    --     0.0566                 0.0532                 0.0511
 Raman Activ --     0.0000                 0.0000                 0.0000
 Depolar     --     0.0000                 0.0000                 0.0000
 Atom AN      X      Y      Z        X      Y      Z        X      Y      Z
   1   6     0.32  -0.27  -0.01     0.30  -0.18   0.21     0.20   0.10   0.09
   2   6     0.18   0.03  -0.09    -0.16   0.14  -0.08    -0.12   0.05  -0.13
   3   6     0.03   0.16  -0.03    -0.13   0.11  -0.14     0.16  -0.20  -0.18
   4   6    -0.01   0.26   0.01    -0.01   0.04  -0.26    -0.18  -0.16   0.16
   5   6    -0.20   0.11   0.30    -0.12  -0.03  -0.22     0.01  -0.02   0.19
   6   6    -0.36  -0.27  -0.15     0.09  -0.07   0.45    -0.08   0.21  -0.11
   7   1     0.13  -0.09  -0.03     0.17  -0.16  -0.02     0.06  -0.31  -0.06
   8   1     0.06  -0.10   0.05     0.14  -0.05   0.21     0.35   0.15   0.23
   9   1     0.12  -0.10  -0.01     0.05  -0.02   0.07    -0.17   0.27  -0.05
  10   1     0.02   0.02  -0.00    -0.13   0.12   0.05    -0.08   0.11   0.01
  11   1     0.09   0.03  -0.08    -0.07   0.04  -0.15    -0.12  -0.02  -0.11
  12   1    -0.02   0.03  -0.01    -0.03   0.04  -0.01     0.10  -0.02  -0.16
  13   1     0.02   0.07  -0.00    -0.07   0.04  -0.06     0.12  -0.16  -0.01
  14   1    -0.01   0.16  -0.01     0.02   0.04  -0.06    -0.14  -0.09   0.00
  15   1     0.04   0.04  -0.05     0.02  -0.01  -0.10    -0.08  -0.02   0.12
  16   1    -0.07   0.09   0.26    -0.11  -0.02  -0.21     0.06  -0.03   0.09
  17   1    -0.15  -0.11   0.02     0.00  -0.04   0.15     0.03   0.10  -0.05
  18   1    -0.10  -0.14  -0.22     0.10  -0.02   0.28    -0.10   0.09  -0.08
                      4                      5                      6
                        a                      a                      a 
 Frequencies --   240.9764               259.7875               346.1650
 Red. masses --     5.7361                 5.7274                 6.1877
 Frc consts  --     0.0000                 0.0000                 0.0000
 IR Inten    --     0.1185                 0.1833                 1.6739
 Raman Activ --     0.0000                 0.0000                 0.0000
 Depolar     --     0.0000                 0.0000                 0.0000
 Atom AN      X      Y      Z        X      Y      Z        X      Y      Z
   1   6     0.33   0.18   0.08    -0.06  -0.10   0.04    -0.22  -0.21   0.06
   2   6     0.14  -0.02  -0.05    -0.37   0.27  -0.15    -0.09   0.11   0.12
   3   6     0.11  -0.02  -0.12     0.02  -0.05  -0.06     0.33  -0.20  -0.08
   4   6    -0.21  -0.14   0.18     0.05  -0.14  -0.06     0.09   0.27   0.17
   5   6    -0.23  -0.13  -0.11     0.22  -0.06   0.27    -0.04   0.23  -0.10
   6   6    -0.20   0.13  -0.00     0.14   0.05  -0.02    -0.04  -0.08  -0.06
   7   1     0.18   0.39   0.04     0.10   0.21  -0.02    -0.08  -0.06   0.03
   8   1    -0.14  -0.04  -0.16    -0.27  -0.15  -0.03    -0.15  -0.11   0.05
   9   1     0.29  -0.16   0.22     0.19  -0.25   0.12     0.01  -0.13  -0.06
  10   1     0.01  -0.05   0.00    -0.16   0.22   0.02    -0.02   0.13   0.04
  11   1     0.05  -0.00   0.01    -0.18   0.05  -0.18    -0.11  -0.01  -0.03
  12   1     0.04   0.00  -0.09     0.09   0.04  -0.02     0.17   0.01  -0.27
  13   1     0.10  -0.04   0.00     0.00  -0.06  -0.02     0.18  -0.30   0.03
  14   1    -0.13  -0.11   0.02     0.01   0.00  -0.02    -0.01   0.07   0.03
  15   1    -0.05  -0.03   0.17     0.01  -0.04  -0.05     0.01   0.09   0.05
  16   1    -0.07  -0.08  -0.17     0.14  -0.00   0.24    -0.12   0.06  -0.23
  17   1    -0.04   0.06  -0.11     0.11   0.05   0.09    -0.14  -0.10  -0.17
  18   1    -0.07   0.09   0.14    -0.05   0.01  -0.18     0.13  -0.04   0.17
                      7                      8                      9
                        a                      a                      a 
 Frequencies --   418.2279               455.0294               655.0503
 Red. masses --     7.7225                 6.3690                 5.9967
 Frc consts  --     0.0000                 0.0000                 0.0000
 IR Inten    --     0.7586                 1.1892                 0.6760
 Raman Activ --     0.0000                 0.0000                 0.0000
 Depolar     --     0.0000                 0.0000                 0.0000
 Atom AN      X      Y      Z        X      Y      Z        X      Y      Z
   1   6    -0.15  -0.14   0.06     0.08   0.09  -0.12    -0.02  -0.01   0.04
   2   6     0.16   0.17   0.23    -0.15  -0.18  -0.22    -0.02   0.03   0.00
   3   6     0.19   0.13  -0.12    -0.00  -0.27   0.31    -0.12   0.12  -0.23
   4   6     0.19  -0.10  -0.22     0.30   0.13   0.05    -0.03  -0.08  -0.09
   5   6    -0.21  -0.36   0.03    -0.11  -0.08   0.10     0.22  -0.03   0.53
   6   6    -0.22   0.27   0.05    -0.16   0.15  -0.02     0.04  -0.05  -0.14
   7   1    -0.12  -0.12   0.06     0.10   0.08  -0.07    -0.01  -0.02   0.01
   8   1    -0.08  -0.07   0.06     0.08   0.06  -0.07    -0.02  -0.01   0.04
   9   1    -0.02  -0.05  -0.14    -0.02   0.06   0.10     0.00  -0.01  -0.01
  10   1     0.06  -0.01   0.04    -0.04   0.12  -0.05    -0.02  -0.12  -0.01
  11   1     0.08   0.06   0.10    -0.15  -0.10  -0.16     0.07   0.04   0.07
  12   1     0.11   0.07  -0.07    -0.04  -0.10   0.14    -0.03   0.03   0.07
  13   1     0.02  -0.06  -0.05    -0.01   0.01   0.08    -0.11   0.11  -0.10
  14   1     0.07   0.12  -0.06     0.24   0.28   0.08    -0.12   0.08  -0.09
  15   1     0.18  -0.13  -0.13     0.14  -0.04  -0.27     0.00  -0.03  -0.04
  16   1    -0.02  -0.11   0.05    -0.10  -0.03  -0.11    -0.03  -0.08  -0.21
  17   1     0.13   0.20  -0.01    -0.01   0.07  -0.18    -0.10  -0.06  -0.46
  18   1    -0.26   0.19   0.02    -0.08   0.12   0.16     0.12   0.07   0.38
                     10                     11                     12
                        a                      a                      a 
 Frequencies --   771.0841               851.1863               877.0441
 Red. masses --     3.1779                 5.8635                 5.4100
 Frc consts  --     0.0000                 0.0000                 0.0000
 IR Inten    --    22.4311                 2.4627                 3.2084
 Raman Activ --     0.0000                 0.0000                 0.0000
 Depolar     --     0.0000                 0.0000                 0.0000
 Atom AN      X      Y      Z        X      Y      Z        X      Y      Z
   1   6    -0.01  -0.01   0.09    -0.21  -0.03   0.12     0.01   0.14  -0.07
   2   6     0.18  -0.11   0.11    -0.23  -0.18  -0.20     0.02   0.21   0.02
   3   6     0.22  -0.12  -0.08     0.20   0.12  -0.18     0.17  -0.31   0.12
   4   6     0.09  -0.01  -0.18     0.35   0.18   0.07    -0.03  -0.24  -0.18
   5   6    -0.04   0.09   0.05    -0.04  -0.03  -0.03    -0.06   0.22   0.03
   6   6    -0.10   0.02   0.00    -0.04  -0.04   0.05    -0.16   0.13  -0.06
   7   1    -0.23   0.05   0.20     0.18  -0.02  -0.13     0.16  -0.11  -0.16
   8   1    -0.02   0.03  -0.18    -0.01  -0.01   0.19    -0.14  -0.09   0.31
   9   1    -0.03   0.03  -0.10    -0.05  -0.03   0.25     0.15  -0.10  -0.11
  10   1    -0.11   0.33   0.19     0.05  -0.21  -0.16     0.17  -0.05  -0.13
  11   1    -0.20  -0.13  -0.31    -0.04  -0.06   0.18    -0.06  -0.01   0.28
  12   1    -0.09  -0.14   0.29    -0.01  -0.02   0.12     0.04  -0.10   0.28
  13   1    -0.14   0.27  -0.13    -0.03   0.20  -0.09    -0.06   0.11  -0.03
  14   1    -0.18  -0.17  -0.14    -0.09  -0.20  -0.06    -0.03  -0.04  -0.06
  15   1    -0.04   0.07   0.18     0.06   0.11   0.33    -0.06  -0.03  -0.09
  16   1    -0.08   0.05  -0.01    -0.10   0.06   0.04     0.01   0.03  -0.06
  17   1    -0.03   0.01   0.02     0.10   0.06  -0.02    -0.19  -0.07   0.19
  18   1    -0.03   0.01   0.01    -0.16   0.06  -0.03     0.15  -0.06   0.03
                     13                     14                     15
                        a                      a                      a 
 Frequencies --   895.3476               934.9228               973.1098
 Red. masses --     3.8801                 5.0820                 5.3086
 Frc consts  --     0.0000                 0.0000                 0.0000
 IR Inten    --    13.2444                 1.2842                 0.6912
 Raman Activ --     0.0000                 0.0000                 0.0000
 Depolar     --     0.0000                 0.0000                 0.0000
 Atom AN      X      Y      Z        X      Y      Z        X      Y      Z
   1   6     0.00   0.03   0.01     0.16   0.14  -0.18    -0.06   0.14   0.18
   2   6     0.01   0.03   0.00     0.03   0.15   0.15     0.09  -0.06  -0.14
   3   6     0.04  -0.06  -0.03    -0.17  -0.21   0.11     0.09  -0.01  -0.26
   4   6    -0.03  -0.04   0.01    -0.03   0.24  -0.07    -0.23   0.15   0.31
   5   6    -0.07  -0.00  -0.19     0.06  -0.10   0.00     0.03  -0.16  -0.07
   6   6     0.13   0.10   0.43     0.10  -0.26   0.03     0.13  -0.06  -0.06
   7   1     0.00  -0.02  -0.01     0.04  -0.08  -0.07    -0.08  -0.09   0.07
   8   1    -0.04  -0.02   0.05    -0.09  -0.06   0.11    -0.18  -0.07   0.19
   9   1     0.03  -0.02  -0.04     0.16  -0.06  -0.23     0.10  -0.06  -0.18
  10   1     0.01   0.00  -0.00     0.06   0.06   0.01    -0.04  -0.01   0.01
  11   1    -0.02  -0.01   0.03    -0.08  -0.02   0.11    -0.17  -0.13   0.04
  12   1    -0.01  -0.03   0.08    -0.12  -0.09  -0.04    -0.23  -0.16   0.05
  13   1    -0.02   0.06  -0.03    -0.10  -0.11   0.00     0.14   0.32  -0.01
  14   1    -0.03   0.05  -0.01    -0.06  -0.12  -0.03     0.02   0.34   0.10
  15   1     0.00  -0.03  -0.05    -0.18   0.20   0.09     0.06  -0.07  -0.16
  16   1     0.10   0.03   0.23    -0.17   0.08   0.05     0.08  -0.10  -0.07
  17   1    -0.27  -0.13  -0.66     0.35   0.15  -0.18     0.14   0.04   0.11
  18   1    -0.06  -0.07  -0.33    -0.32   0.16   0.07     0.01  -0.01  -0.05
                     16                     17                     18
                        a                      a                      a 
 Frequencies --  1020.0665              1028.5101              1056.0311
 Red. masses --     6.2270                 2.2502                 4.1731
 Frc consts  --     0.0000                 0.0000                 0.0000
 IR Inten    --     8.6704                10.6323                 3.7221
 Raman Activ --     0.0000                 0.0000                 0.0000
 Depolar     --     0.0000                 0.0000                 0.0000
 Atom AN      X      Y      Z        X      Y      Z        X      Y      Z
   1   6    -0.27  -0.11   0.17     0.07   0.05   0.02    -0.07  -0.01  -0.24
   2   6     0.21   0.03  -0.12    -0.06  -0.02  -0.04     0.08  -0.06   0.28
   3   6     0.24   0.01   0.17    -0.05  -0.01  -0.08    -0.03   0.08   0.02
   4   6    -0.37  -0.01  -0.21     0.12  -0.02   0.08    -0.06   0.21  -0.01
   5   6     0.02   0.02  -0.07    -0.08  -0.00  -0.21    -0.02  -0.26  -0.02
   6   6     0.07  -0.16  -0.03    -0.08   0.01  -0.12     0.04   0.11  -0.06
   7   1     0.11   0.07  -0.05    -0.08  -0.03   0.06     0.24   0.02  -0.24
   8   1     0.07   0.04   0.04    -0.05  -0.02   0.00     0.06   0.02   0.07
   9   1    -0.14   0.03   0.34     0.05  -0.01  -0.14    -0.01  -0.02   0.17
  10   1     0.20   0.16  -0.13    -0.10  -0.07   0.05     0.16   0.28  -0.01
  11   1     0.06   0.02  -0.09    -0.01  -0.00   0.02    -0.20  -0.12   0.00
  12   1     0.06   0.00   0.06    -0.02  -0.01  -0.01    -0.19  -0.07  -0.12
  13   1     0.14   0.07   0.08     0.02   0.03  -0.00    -0.17  -0.10  -0.07
  14   1    -0.05   0.08  -0.04     0.09  -0.09   0.05    -0.23   0.12  -0.11
  15   1    -0.18   0.05  -0.20     0.01   0.01   0.01     0.17  -0.06   0.18
  16   1     0.00   0.07   0.19     0.18   0.12   0.65     0.23  -0.16   0.10
  17   1     0.16   0.06  -0.12    -0.05  -0.02  -0.03    -0.10  -0.06   0.05
  18   1    -0.08   0.09   0.21     0.18   0.08   0.55     0.21  -0.06   0.06
                     19                     20                     21
                        a                      a                      a 
 Frequencies --  1099.4051              1142.8220              1151.4115
 Red. masses --     5.1977                 7.5490                 7.2755
 Frc consts  --     0.0000                 0.0000                 0.0000
 IR Inten    --     2.3488                 0.1827                 3.0871
 Raman Activ --     0.0000                 0.0000                 0.0000
 Depolar     --     0.0000                 0.0000                 0.0000
 Atom AN      X      Y      Z        X      Y      Z        X      Y      Z
   1   6    -0.13   0.16   0.20     0.11   0.02  -0.25     0.14   0.09   0.14
   2   6     0.26  -0.13  -0.20    -0.22  -0.30   0.27    -0.19  -0.14  -0.23
   3   6    -0.21   0.14   0.09     0.23   0.38   0.06     0.15   0.05   0.39
   4   6     0.11  -0.07  -0.22    -0.17  -0.15  -0.16    -0.10   0.26  -0.28
   5   6     0.03  -0.02   0.14     0.02   0.16   0.03    -0.01  -0.25   0.03
   6   6    -0.07   0.09   0.03     0.00  -0.07   0.02     0.04   0.07  -0.03
   7   1    -0.01  -0.06   0.01     0.07  -0.03  -0.11    -0.17  -0.06   0.16
   8   1    -0.15  -0.05   0.24     0.01  -0.02  -0.01    -0.10  -0.04  -0.02
   9   1     0.07  -0.06  -0.05     0.06  -0.03  -0.07     0.07  -0.00  -0.20
  10   1     0.12   0.17  -0.07    -0.14  -0.02   0.14    -0.05  -0.15  -0.07
  11   1    -0.11  -0.12  -0.11    -0.32  -0.23   0.14     0.03  -0.01   0.05
  12   1    -0.25  -0.05  -0.32     0.08   0.11  -0.03     0.15   0.08   0.01
  13   1     0.21  -0.08   0.15     0.25   0.11   0.11     0.09  -0.07   0.13
  14   1     0.24  -0.31   0.07     0.12  -0.04   0.04    -0.32   0.07  -0.21
  15   1    -0.00   0.02   0.08     0.02  -0.08  -0.08    -0.01   0.08   0.12
  16   1    -0.04  -0.00  -0.04    -0.05   0.07  -0.00     0.12  -0.13  -0.00
  17   1    -0.14  -0.05  -0.05     0.05   0.02  -0.07    -0.05  -0.03   0.01
  18   1     0.04  -0.03  -0.03    -0.08   0.04   0.03     0.13  -0.05  -0.02
                     22                     23                     24
                        a                      a                      a 
 Frequencies --  1198.5901              1241.2205              1274.1380
 Red. masses --     4.8663                 3.6921                 2.8606
 Frc consts  --     0.0000                 0.0000                 0.0000
 IR Inten    --     1.5753                 1.2753                 1.4331
 Raman Activ --     0.0000                 0.0000                 0.0000
 Depolar     --     0.0000                 0.0000                 0.0000
 Atom AN      X      Y      Z        X      Y      Z        X      Y      Z
   1   6     0.05  -0.19  -0.08     0.17  -0.21   0.10    -0.12   0.07  -0.10
   2   6    -0.11   0.24   0.11    -0.14   0.25  -0.09     0.01   0.06   0.07
   3   6     0.11  -0.10  -0.08    -0.00  -0.05   0.06     0.04  -0.18   0.07
   4   6    -0.04   0.22  -0.10    -0.02  -0.08  -0.08    -0.04   0.09  -0.16
   5   6     0.02  -0.33   0.09    -0.01   0.21  -0.01    -0.02   0.18   0.00
   6   6    -0.03   0.14  -0.01    -0.01  -0.10   0.02    -0.08  -0.13   0.05
   7   1     0.00   0.08   0.01    -0.14   0.08   0.18     0.11  -0.02  -0.13
   8   1     0.13   0.04  -0.17     0.10   0.03  -0.25    -0.01   0.01   0.10
   9   1    -0.09   0.05   0.08    -0.08   0.08  -0.01     0.01  -0.03   0.05
  10   1    -0.06  -0.09   0.04     0.23   0.04  -0.23    -0.32  -0.15   0.25
  11   1    -0.04   0.04   0.17    -0.18  -0.06   0.31     0.30   0.20  -0.19
  12   1    -0.18  -0.14   0.00    -0.31  -0.17  -0.14    -0.17  -0.14  -0.02
  13   1     0.23   0.23   0.08     0.08   0.03   0.06     0.24   0.12   0.13
  14   1     0.26  -0.22   0.13    -0.04   0.01  -0.04     0.00  -0.07  -0.03
  15   1    -0.32   0.27  -0.07     0.33  -0.24   0.14     0.25  -0.14   0.16
  16   1     0.03  -0.11  -0.02     0.08   0.01  -0.01     0.35  -0.17  -0.08
  17   1    -0.14  -0.06   0.02     0.07   0.03  -0.05     0.06   0.03  -0.05
  18   1     0.13  -0.06  -0.04    -0.08   0.03   0.03    -0.11   0.03   0.04
                     25                     26                     27
                        a                      a                      a 
 Frequencies --  1283.2802              1324.5834              1348.4855
 Red. masses --     2.3918                 4.1898                 4.1802
 Frc consts  --     0.0000                 0.0000                 0.0000
 IR Inten    --     2.2108                 0.6778                11.3672
 Raman Activ --     0.0000                 0.0000                 0.0000
 Depolar     --     0.0000                 0.0000                 0.0000
 Atom AN      X      Y      Z        X      Y      Z        X      Y      Z
   1   6     0.04   0.00   0.07     0.01   0.05   0.02    -0.04  -0.06  -0.07
   2   6    -0.02  -0.09  -0.04    -0.12  -0.06   0.04     0.28   0.18  -0.28
   3   6     0.04   0.04  -0.08     0.15  -0.08  -0.03     0.19   0.09   0.19
   4   6    -0.09   0.16  -0.00    -0.38   0.20  -0.12    -0.10   0.00  -0.01
   5   6    -0.01   0.12   0.02    -0.01  -0.11   0.08     0.01  -0.00   0.01
   6   6    -0.16  -0.14   0.07     0.11   0.08  -0.05     0.01   0.00  -0.00
   7   1    -0.04  -0.01   0.05     0.00  -0.01  -0.00    -0.06   0.05   0.04
   8   1    -0.02  -0.01  -0.04    -0.02  -0.00   0.01    -0.00  -0.02   0.11
   9   1     0.01   0.00  -0.06     0.03  -0.01  -0.06    -0.08   0.03   0.17
  10   1     0.16   0.11  -0.13     0.08   0.01  -0.07    -0.39  -0.28   0.25
  11   1    -0.08  -0.07   0.04     0.16   0.10  -0.11    -0.24  -0.15   0.17
  12   1     0.23   0.12   0.12     0.06  -0.01   0.11    -0.12  -0.07  -0.06
  13   1    -0.25  -0.09  -0.15    -0.18  -0.03  -0.11    -0.37  -0.24  -0.16
  14   1     0.30  -0.17   0.17     0.38  -0.14   0.22     0.08  -0.04   0.05
  15   1    -0.07   0.08  -0.02     0.33  -0.22   0.22     0.01  -0.03  -0.02
  16   1     0.57  -0.31  -0.13    -0.30   0.14   0.07    -0.02   0.01   0.01
  17   1     0.02   0.01  -0.02     0.06   0.03  -0.05     0.00   0.00  -0.01
  18   1    -0.15   0.04   0.05     0.18  -0.07  -0.04     0.01  -0.00   0.00
                     28                     29                     30
                        a                      a                      a 
 Frequencies --  1354.3082              1410.6301              1413.3278
 Red. masses --     4.7908                 2.9058                 2.6791
 Frc consts  --     0.0000                 0.0000                 0.0000
 IR Inten    --     5.3175                 9.1267                 3.9090
 Raman Activ --     0.0000                 0.0000                 0.0000
 Depolar     --     0.0000                 0.0000                 0.0000
 Atom AN      X      Y      Z        X      Y      Z        X      Y      Z
   1   6    -0.04  -0.07  -0.03     0.20   0.02  -0.27    -0.16  -0.01   0.22
   2   6     0.28   0.12  -0.08    -0.08  -0.05   0.05     0.04   0.03  -0.03
   3   6    -0.39  -0.20  -0.11     0.01   0.02  -0.03     0.03   0.03   0.04
   4   6    -0.02   0.14  -0.06     0.07  -0.02   0.04     0.08  -0.05   0.02
   5   6    -0.05  -0.03   0.02    -0.17   0.06   0.05    -0.21   0.07   0.06
   6   6     0.03   0.01  -0.01    -0.07  -0.01   0.03    -0.09  -0.01   0.03
   7   1    -0.00   0.05   0.01    -0.31   0.00   0.21     0.26  -0.02  -0.18
   8   1     0.05   0.01   0.02    -0.18  -0.15   0.31     0.15   0.13  -0.27
   9   1    -0.04   0.01   0.09    -0.11   0.11   0.35     0.10  -0.10  -0.28
  10   1    -0.08  -0.01   0.10     0.06   0.09  -0.03    -0.04  -0.08   0.01
  11   1    -0.27  -0.18   0.16     0.08   0.05  -0.01    -0.06  -0.03  -0.01
  12   1     0.44   0.23   0.22    -0.04  -0.02   0.01    -0.04  -0.01  -0.06
  13   1     0.27   0.09   0.16     0.04   0.00   0.01    -0.05  -0.01  -0.02
  14   1     0.00  -0.02  -0.00    -0.05  -0.11  -0.02    -0.04  -0.08  -0.02
  15   1     0.18  -0.08   0.17    -0.03   0.00  -0.14    -0.06   0.02  -0.10
  16   1    -0.02   0.00   0.02     0.04  -0.04  -0.01     0.04  -0.04  -0.01
  17   1     0.08   0.04  -0.03     0.33   0.21  -0.14     0.41   0.26  -0.17
  18   1     0.10  -0.05  -0.02     0.32  -0.20  -0.08     0.40  -0.25  -0.09
                     31                     32                     33
                        a                      a                      a 
 Frequencies --  1476.0152              1484.0073              1496.6379
 Red. masses --     2.0525                 1.9292                 1.8187
 Frc consts  --     0.0000                 0.0000                 0.0000
 IR Inten    --     0.9036                 0.9912                 0.7935
 Raman Activ --     0.0000                 0.0000                 0.0000
 Depolar     --     0.0000                 0.0000                 0.0000
 Atom AN      X      Y      Z        X      Y      Z        X      Y      Z
   1   6     0.04  -0.05   0.01    -0.01  -0.02  -0.04    -0.02  -0.03  -0.07
   2   6    -0.00  -0.01  -0.00    -0.01  -0.06  -0.05     0.00   0.15   0.20
   3   6     0.00   0.08  -0.07     0.00  -0.18   0.16     0.00  -0.04   0.05
   4   6     0.03  -0.22  -0.16     0.01  -0.10  -0.05     0.00  -0.02  -0.02
   5   6    -0.04   0.03  -0.01    -0.01   0.02  -0.00    -0.00   0.01  -0.01
   6   6    -0.04  -0.01   0.02    -0.02  -0.00   0.01    -0.01  -0.01   0.00
   7   1     0.05   0.15   0.00    -0.03   0.08   0.03    -0.09   0.19   0.10
   8   1    -0.08  -0.06   0.08     0.06   0.01   0.09     0.16   0.05   0.21
   9   1    -0.12   0.12  -0.10     0.01  -0.02  -0.02     0.06  -0.06  -0.04
  10   1    -0.00   0.01   0.00    -0.07   0.17   0.08     0.20  -0.53  -0.22
  11   1     0.02   0.01  -0.01     0.10   0.03   0.17    -0.29  -0.10  -0.53
  12   1    -0.10  -0.07   0.20     0.19   0.15  -0.55     0.05   0.04  -0.13
  13   1     0.09  -0.23   0.05    -0.23   0.54  -0.12    -0.04   0.13  -0.02
  14   1     0.24   0.52   0.08     0.10   0.20   0.04     0.01   0.05  -0.00
  15   1    -0.21   0.21   0.51    -0.07   0.07   0.20    -0.01   0.01   0.05
  16   1     0.04  -0.02   0.00     0.00   0.00  -0.00     0.04  -0.01   0.01
  17   1     0.08   0.05  -0.03     0.03   0.03  -0.02     0.00   0.00  -0.00
  18   1     0.07  -0.05  -0.01     0.03  -0.02  -0.01    -0.00   0.00   0.01
                     34                     35                     36
                        a                      a                      a 
 Frequencies --  1501.8930              1510.1848              1717.0315
 Red. masses --     1.6585                 1.6065                11.2016
 Frc consts  --     0.0000                 0.0000                 0.0000
 IR Inten    --     1.4029                 0.6446                16.5639
 Raman Activ --     0.0000                 0.0000                 0.0000
 Depolar     --     0.0000                 0.0000                 0.0000
 Atom AN      X      Y      Z        X      Y      Z        X      Y      Z
   1   6     0.17   0.03   0.11    -0.02   0.20  -0.03     0.00   0.00   0.00
   2   6     0.06   0.07   0.07     0.01   0.07   0.02     0.00   0.00   0.00
   3   6    -0.01  -0.06   0.04    -0.00  -0.01  -0.00    -0.01   0.00  -0.01
   4   6    -0.00   0.01  -0.00     0.00  -0.07  -0.05    -0.08   0.05   0.03
   5   6     0.00   0.00   0.00    -0.00   0.01  -0.00     0.68  -0.10  -0.20
   6   6    -0.00   0.00  -0.00    -0.01  -0.00   0.00    -0.61   0.01   0.19
   7   1     0.21  -0.23  -0.20    -0.22  -0.61   0.01     0.00   0.00  -0.00
   8   1    -0.54  -0.24  -0.29     0.04   0.08  -0.31    -0.00  -0.00   0.00
   9   1    -0.35   0.36   0.05     0.26  -0.29   0.42    -0.00   0.00  -0.00
  10   1     0.03  -0.17  -0.03     0.03  -0.08  -0.03     0.00   0.00  -0.00
  11   1    -0.11  -0.04  -0.16    -0.06  -0.01  -0.04    -0.00  -0.00  -0.00
  12   1     0.06   0.04  -0.13    -0.01  -0.01  -0.01     0.00   0.00   0.01
  13   1    -0.05   0.14  -0.02     0.00   0.01   0.00     0.01  -0.01   0.00
  14   1     0.00  -0.02   0.00     0.10   0.17   0.04    -0.04   0.04  -0.02
  15   1     0.01  -0.01  -0.00    -0.06   0.06   0.17     0.05  -0.03  -0.01
  16   1    -0.00   0.00   0.01     0.01  -0.00   0.00    -0.04   0.12  -0.01
  17   1    -0.00  -0.00  -0.00     0.01   0.01  -0.01     0.03   0.14  -0.03
  18   1    -0.00   0.00   0.00     0.01  -0.01  -0.00     0.06  -0.15   0.01
                     37                     38                     39
                        a                      a                      a 
 Frequencies --  2955.5705              2958.3424              2967.4994
 Red. masses --     1.9342                 1.8541                 1.8535
 Frc consts  --     0.0000                 0.0000                 0.0000
 IR Inten    --    44.5420                62.8191                49.7597
 Raman Activ --     0.0000                 0.0000                 0.0000
 Depolar     --     0.0000                 0.0000                 0.0000
 Atom AN      X      Y      Z        X      Y      Z        X      Y      Z
   1   6    -0.01  -0.00  -0.00    -0.01   0.01  -0.00    -0.00   0.00   0.00
   2   6     0.08  -0.06   0.07     0.16  -0.08   0.15     0.04  -0.02   0.04
   3   6    -0.15   0.16   0.13     0.08  -0.03  -0.10     0.03  -0.09   0.04
   4   6     0.02   0.01  -0.04    -0.02  -0.01   0.03     0.16   0.13  -0.14
   5   6     0.00  -0.00  -0.00     0.00   0.00   0.00     0.00  -0.00  -0.00
   6   6     0.00  -0.00  -0.00     0.00   0.00   0.00    -0.00  -0.00   0.00
   7   1     0.01  -0.00   0.02     0.03  -0.01   0.04    -0.00   0.00  -0.00
   8   1     0.01  -0.01  -0.00     0.01  -0.03  -0.01     0.00  -0.01  -0.00
   9   1     0.01   0.01   0.00     0.01   0.02  -0.00     0.01   0.01   0.00
  10   1    -0.20   0.03  -0.26    -0.49   0.08  -0.62    -0.11   0.02  -0.14
  11   1    -0.11   0.22   0.03    -0.10   0.21   0.05    -0.03   0.05   0.01
  12   1     0.34  -0.60  -0.04    -0.05   0.10  -0.01    -0.21   0.36   0.04
  13   1     0.21   0.01  -0.44    -0.21   0.01   0.40     0.11  -0.02  -0.21
  14   1    -0.07   0.01   0.15     0.06  -0.01  -0.12    -0.23   0.04   0.47
  15   1    -0.01  -0.01  -0.00     0.03   0.05  -0.00    -0.36  -0.50   0.06
  16   1     0.00   0.00   0.00    -0.01  -0.01   0.00     0.02   0.03  -0.01
  17   1    -0.00   0.00   0.00    -0.00   0.00  -0.00    -0.00   0.01   0.00
  18   1    -0.00  -0.00   0.00    -0.00  -0.00   0.00     0.00   0.00  -0.00
                     40                     41                     42
                        a                      a                      a 
 Frequencies --  2976.0590              2982.4622              2987.8444
 Red. masses --     1.6639                 1.4884                 1.5755
 Frc consts  --     0.0000                 0.0000                 0.0000
 IR Inten    --   142.1014                84.2764                73.7594
 Raman Activ --     0.0000                 0.0000                 0.0000
 Depolar     --     0.0000                 0.0000                 0.0000
 Atom AN      X      Y      Z        X      Y      Z        X      Y      Z
   1   6    -0.01   0.00  -0.01    -0.00  -0.00  -0.00    -0.01  -0.03  -0.00
   2   6     0.04  -0.04   0.03    -0.01   0.01  -0.01    -0.06   0.19   0.09
   3   6    -0.02  -0.10   0.14    -0.02   0.05  -0.01    -0.02   0.02   0.04
   4   6    -0.09  -0.04   0.13     0.03   0.16   0.12    -0.01  -0.00   0.01
   5   6    -0.00   0.01   0.00    -0.00   0.00   0.00    -0.00  -0.01   0.00
   6   6     0.00   0.00  -0.00    -0.00  -0.00   0.00     0.00   0.00  -0.00
   7   1     0.02  -0.01   0.02     0.01  -0.00   0.01    -0.00  -0.01   0.00
   8   1     0.01  -0.02  -0.00    -0.00   0.00  -0.00    -0.04   0.08   0.01
   9   1     0.01   0.01   0.00     0.00   0.00  -0.00     0.06   0.06   0.01
  10   1    -0.09   0.01  -0.12     0.04  -0.00   0.05    -0.23   0.07  -0.27
  11   1    -0.07   0.13   0.02     0.01  -0.02  -0.00     0.44  -0.76  -0.06
  12   1    -0.24   0.39   0.06     0.11  -0.19  -0.02     0.02  -0.04  -0.00
  13   1     0.30  -0.04  -0.56    -0.04   0.01   0.08     0.06  -0.00  -0.12
  14   1     0.22  -0.02  -0.43     0.29  -0.00  -0.54     0.01  -0.00  -0.02
  15   1     0.10   0.15  -0.01    -0.42  -0.57   0.11     0.01   0.02  -0.00
  16   1    -0.01  -0.02   0.01     0.00   0.01  -0.00     0.01   0.02  -0.01
  17   1     0.00  -0.00  -0.00     0.00  -0.01  -0.00     0.00  -0.00  -0.00
  18   1    -0.00  -0.00   0.00     0.00   0.01  -0.00    -0.00  -0.00   0.00
                     43                     44                     45
                        a                      a                      a 
 Frequencies --  3025.2096              3029.6134              3042.3974
 Red. masses --     1.9119                 1.8649                 1.3641
 Frc consts  --     0.0000                 0.0000                 0.0000
 IR Inten    --    91.7297                81.6276                48.0151
 Raman Activ --     0.0000                 0.0000                 0.0000
 Depolar     --     0.0000                 0.0000                 0.0000
 Atom AN      X      Y      Z        X      Y      Z        X      Y      Z
   1   6     0.02  -0.28  -0.03    -0.25  -0.02  -0.11     0.01  -0.06   0.17
   2   6     0.01  -0.03  -0.01    -0.02   0.00  -0.02     0.00  -0.01   0.01
   3   6     0.00  -0.00  -0.00     0.00   0.00  -0.00     0.00   0.00   0.00
   4   6    -0.00  -0.00  -0.00     0.00  -0.00  -0.00    -0.00   0.00   0.00
   5   6    -0.00  -0.00   0.00    -0.00  -0.00   0.00    -0.00  -0.01   0.00
   6   6     0.00   0.00  -0.00    -0.00   0.00   0.00    -0.00   0.00   0.00
   7   1    -0.01  -0.04  -0.02     0.28  -0.11   0.41    -0.49   0.15  -0.64
   8   1    -0.38   0.74   0.10     0.14  -0.35  -0.06     0.12  -0.25  -0.01
   9   1     0.34   0.30   0.03     0.48   0.53   0.04     0.33   0.32   0.06
  10   1     0.01  -0.01   0.02     0.05  -0.01   0.06    -0.01   0.00  -0.01
  11   1    -0.06   0.10   0.01     0.00  -0.00  -0.00    -0.01   0.02   0.00
  12   1    -0.01   0.02   0.00     0.00  -0.00  -0.00     0.00  -0.00   0.00
  13   1    -0.01  -0.00   0.02    -0.01   0.00   0.01    -0.00  -0.00   0.00
  14   1     0.00  -0.00   0.00    -0.01   0.00   0.02     0.01  -0.00  -0.02
  15   1     0.00   0.00   0.00     0.00   0.00  -0.00     0.00   0.00   0.00
  16   1     0.00   0.00  -0.00     0.00   0.00  -0.00     0.01   0.02  -0.01
  17   1     0.00  -0.00  -0.00     0.00  -0.00  -0.00     0.00  -0.00  -0.00
  18   1    -0.00  -0.00   0.00     0.00  -0.00   0.00     0.00   0.00  -0.00
                     46                     47                     48
                        a                      a                      a 
 Frequencies --  3053.7441              3092.1089              3113.0488
 Red. masses --     1.8057                 1.5632                 2.0571
 Frc consts  --     0.0000                 0.0000                 0.0000
 IR Inten    --    78.5521                51.7793               110.8473
 Raman Activ --     0.0000                 0.0000                 0.0000
 Depolar     --     0.0000                 0.0000                 0.0000
 Atom AN      X      Y      Z        X      Y      Z        X      Y      Z
   1   6     0.00   0.00  -0.00    -0.00   0.00   0.00     0.00   0.00   0.00
   2   6     0.00  -0.00  -0.00    -0.00  -0.00  -0.00     0.00   0.00   0.00
   3   6     0.00  -0.00  -0.00     0.00   0.00  -0.00    -0.00   0.00  -0.00
   4   6    -0.01  -0.01   0.01    -0.00   0.00   0.00     0.00  -0.00  -0.00
   5   6    -0.13  -0.22   0.08    -0.02  -0.00   0.01     0.02   0.04  -0.01
   6   6    -0.00   0.03  -0.00     0.19   0.09  -0.07    -0.07   0.30  -0.02
   7   1     0.01  -0.00   0.01    -0.00   0.00  -0.00    -0.00   0.00  -0.00
   8   1    -0.00   0.00   0.00     0.00  -0.00  -0.00     0.00  -0.00  -0.00
   9   1    -0.01  -0.01  -0.00     0.00   0.00   0.00    -0.00  -0.00  -0.00
  10   1     0.00  -0.00   0.00     0.00  -0.00   0.00    -0.00  -0.00  -0.00
  11   1    -0.01   0.02   0.00    -0.00   0.00  -0.00    -0.00  -0.00  -0.00
  12   1    -0.00   0.00   0.00     0.00  -0.00   0.00    -0.00   0.00  -0.00
  13   1    -0.00  -0.00   0.00    -0.00   0.00   0.00     0.00   0.00   0.00
  14   1     0.01  -0.00  -0.02     0.00  -0.00  -0.01    -0.01   0.00   0.01
  15   1     0.02   0.03  -0.00    -0.00  -0.01   0.00    -0.00  -0.01   0.00
  16   1     0.43   0.81  -0.26     0.01   0.02  -0.01    -0.05  -0.10   0.03
  17   1     0.07  -0.10  -0.01    -0.22   0.41   0.01     0.46  -0.70  -0.03
  18   1    -0.02  -0.03   0.01    -0.39  -0.73   0.24    -0.23  -0.35   0.13
