20
 xtb: 6.7.1 (edcfbbe)
C            2.24411461440892       -1.69202646916829       -0.27587513302472
C            1.87973181258769       -0.27414744743969        0.01554178592212
O            2.24700710082608        0.35898612985910        0.98999516733889
O            1.06188355761497        0.23508722542849       -0.93379685262983
C            0.55773814240663        1.58013759898817       -0.71789452375603
C           -0.58170802522742        1.60287474409487        0.27101042581273
O           -1.68794214362721        0.80019081563489       -0.22200322979940
C           -1.79287839737362       -0.47123968028241        0.23232495885073
O           -1.02214631768766       -0.96893967080056        1.03353678671744
C           -2.98827429121744       -1.15477498287807       -0.34610653629924
H            1.47111039776031       -2.33516855224054        0.16104210169729
H            3.19905306316946       -1.93080107570719        0.19329078976499
H            2.27887835720724       -1.88489470894306       -1.34922767528015
H            1.36139377084084        2.23484771174796       -0.36883607722207
H            0.22168043933788        1.90589401127989       -1.70378881013408
H           -0.96444051807909        2.62399820211053        0.34154186443890
H           -0.28206928309924        1.25418665846704        1.26038811092519
H           -3.14669717728293       -0.86298217985268       -1.38596018391957
H           -3.86961099864783       -0.84651422981258        0.22816231317427
H           -2.87319916891605       -2.23514936003151       -0.26036177522924
