      -----------------------------------------------------------      
     |                   =====================                   |     
     |                           x T B                           |     
     |                   =====================                   |     
     |                         S. Grimme                         |     
     |          Mulliken Center for Theoretical Chemistry        |     
     |                    University of Bonn                     |     
      -----------------------------------------------------------      

   * xtb version 6.7.1 (edcfbbe) compiled by 'albert@albert-system' on 2024-07-22

   xtb is free software: you can redistribute it and/or modify it under
   the terms of the GNU Lesser General Public License as published by
   the Free Software Foundation, either version 3 of the License, or
   (at your option) any later version.
   
   xtb is distributed in the hope that it will be useful,
   but WITHOUT ANY WARRANTY; without even the implied warranty of
   MERCHANTABILITY or FITNESS FOR A PARTICULAR PURPOSE.  See the
   GNU Lesser General Public License for more details.
   
   Cite this work as:
   * C. Bannwarth, E. Caldeweyher, S. Ehlert, A. Hansen, P. Pracht,
     J. Seibert, S. Spicher, S. Grimme, WIREs Comput. Mol. Sci., 2020, 11,
     e01493. DOI: 10.1002/wcms.1493
   
   for GFN2-xTB:
   * C. Bannwarth, S. Ehlert and S. Grimme., J. Chem. Theory Comput., 2019,
     15, 1652-1671. DOI: 10.1021/acs.jctc.8b01176
   for GFN1-xTB:
   * S. Grimme, C. Bannwarth, P. Shushkov, J. Chem. Theory Comput., 2017,
     13, 1989-2009. DOI: 10.1021/acs.jctc.7b00118
   for GFN0-xTB:
   * P. Pracht, E. Caldeweyher, S. Ehlert, S. Grimme, ChemRxiv, 2019, preprint.
     DOI: 10.26434/chemrxiv.8326202.v1
   for GFN-FF:
   * S. Spicher and S. Grimme, Angew. Chem. Int. Ed., 2020, 59, 15665-15673.
     DOI: 10.1002/anie.202004239
   
   for ALPB and GBSA implicit solvation:
   * S. Ehlert, M. Stahn, S. Spicher, S. Grimme, J. Chem. Theory Comput.,
     2021, 17, 4250-4261. DOI: 10.1021/acs.jctc.1c00471
   
   for ddCOSMO and CPCM-X implicit solvation:
   * M. Stahn, S. Ehlert, S. Grimme, J. Phys. Chem. A,
     2023, XX, XXXX-XXXX. DOI: 10.1021/acs.jpca.3c04382
   
   for DFT-D4:
   * E. Caldeweyher, C. Bannwarth and S. Grimme, J. Chem. Phys., 2017,
     147, 034112. DOI: 10.1063/1.4993215
   * E. Caldeweyher, S. Ehlert, A. Hansen, H. Neugebauer, S. Spicher,
     C. Bannwarth and S. Grimme, J. Chem. Phys., 2019, 150, 154122.
     DOI: 10.1063/1.5090222
   * E. Caldeweyher, J.-M. Mewes, S. Ehlert and S. Grimme, Phys. Chem. Chem. Phys.
     2020, 22, 8499-8512. DOI: 10.1039/D0CP00502A
   
   for sTDA-xTB:
   * S. Grimme and C. Bannwarth, J. Chem. Phys., 2016, 145, 054103.
     DOI: 10.1063/1.4959605
   
   in the mass-spec context:
   * V. Asgeirsson, C. Bauer and S. Grimme, Chem. Sci., 2017, 8, 4879.
     DOI: 10.1039/c7sc00601b
   * J. Koopman and S. Grimme, ACS Omega 2019, 4, 12, 15120-15133.
     DOI: 10.1021/acsomega.9b02011
   
   for metadynamics refer to:
   * S. Grimme, J. Chem. Theory Comput., 2019, 155, 2847-2862
     DOI: 10.1021/acs.jctc.9b00143
   
   for SPH calculations refer to:
   * S. Spicher and S. Grimme, J. Chem. Theory Comput., 2021, 17, 1701-1714
     DOI: 10.1021/acs.jctc.0c01306
   
   for ONIOM refer to:
   * C. Plett, A. Katbashev, S. Ehlert, S. Grimme, M. Bursch,
     Phys. Chem. Chem. Phys., 2023, 25, 17860-17868. DOI: 10.1039/D3CP02178E
   
   for DIPRO refer to:
   * J. Kohn, N. Gildemeister, S. Grimme, D. Fazzi, A. Hansen,
     J. Chem. Phys., 2023, just accepted.
   
   for PTB refer to:
   * S. Grimme, M. Mueller, A. Hansen, J. Chem. Phys., 2023, 158, 124111.
     DOI: 10.1063/5.0137838
   
   with help from (in alphabetical order)
   P. Atkinson, C. Bannwarth, F. Bohle, G. Brandenburg, E. Caldeweyher
   M. Checinski, S. Dohm, S. Ehlert, S. Ehrlich, I. Gerasimov, C. Hölzer
   A. Katbashev, J. Kohn, J. Koopman, C. Lavigne, S. Lehtola, F. März, M. Müller,
   F. Musil, H. Neugebauer, J. Pisarek, C. Plett, P. Pracht, F. Pultar,
   J. Seibert, P. Shushkov, S. Spicher, M. Stahn, M. Steiner, T. Strunk,
   J. Stückrath, T. Rose, and J. Unsleber
   
 * started run on 2025/04/11 at 16:27:36.182     
   ID    Z sym.   atoms
    1    6 C      1-7
    2    1 H      8-19

           -------------------------------------------------
          |                Calculation Setup                |
           -------------------------------------------------

          program call               : /srv/scratch/z5358697/.xtb/bin/xtb xtb_rrho.coord --gfn2 --ohess vtight --chrg 0 --enso --norestart -I rrho-xcontrol-inp --parallel 1 --alpb water
          hostname                   : k113
          coordinate file            : xtb_rrho.coord
          omp threads                :                     1


           -------------------------------------------------
          |                 G F N 2 - x T B                 |
           -------------------------------------------------

        Reference                      10.1021/acs.jctc.8b01176
      * Hamiltonian:
        H0-scaling (s, p, d)           1.850000    2.230000    2.230000
        zeta-weighting                 0.500000
      * Dispersion:
        s8                             2.700000
        a1                             0.520000
        a2                             5.000000
        s9                             5.000000
      * Repulsion:
        kExp                           1.500000    1.000000
        rExp                           1.000000
      * Coulomb:
        alpha                          2.000000
        third order                    shell-resolved
        anisotropic                    true
        a3                             3.000000
        a5                             4.000000
        cn-shift                       1.200000
        cn-exp                         4.000000
        max-rad                        5.000000

      * Solvation model:               ALPB
        Solvent                        water
        Parameter file                 internal GFN2-xTB/ALPB
        Dielectric constant                8.0200E+01
        Reference state                gsolv [1 M gas/solution]
        Free energy shift                  1.0808E-03 Eh       6.7819E-01 kcal/mol
        Temperature                        2.9815E+02 K
        Density                            1.0000E+00 kg/L
        Solvent mass                       1.8000E+01 g/mol
        Interaction kernel             P16
        Born radius scaling (c1)           1.4744E+00
        Born radii integrator          GBOBC
        Born offset                        0.0000E+00 a0       0.0000E+00 AA
        H-bond correction              true
        Ion screening                  false
        Surface tension                    1.0000E-05 Eh       1.5569E+01 dyn/cm
        Grid points                               974 per atom

          ...................................................
          :                      SETUP                      :
          :.................................................:
          :  # basis functions                  40          :
          :  # atomic orbitals                  40          :
          :  # shells                           26          :
          :  # electrons                        40          :
          :  max. iterations                   250          :
          :  Hamiltonian                  GFN2-xTB          :
          :  restarted?                      false          :
          :  GBSA solvation                   true          :
          :  PC potential                    false          :
          :  electronic temp.          300.0000000     K    :
          :  accuracy                    1.0000000          :
          :  -> integral cutoff          0.2500000E+02      :
          :  -> integral neglect         0.1000000E-07      :
          :  -> SCF convergence          0.1000000E-05 Eh   :
          :  -> wf. convergence          0.1000000E-03 e    :
          :  Broyden damping             0.4000000          :
          :  net charge                          0          :
          :  unpaired electrons                  0          :
          ...................................................

 iter      E             dE          RMSdq      gap      omega  full diag
   1    -21.3905061 -0.213905E+02  0.424E+00    6.84       0.0  T
   2    -21.4124649 -0.219588E-01  0.254E+00    6.76       1.0  T
   3    -21.3900526  0.224123E-01  0.141E+00    6.78       1.0  T
   4    -21.4153911 -0.253385E-01  0.429E-01    6.67       1.0  T
   5    -21.4176681 -0.227702E-02  0.819E-02    6.68       1.0  T
   6    -21.4176771 -0.906342E-05  0.318E-02    6.69       1.0  T
   7    -21.4176802 -0.300601E-05  0.125E-02    6.69       1.8  T
   8    -21.4176807 -0.505259E-06  0.323E-03    6.69       7.1  T
   9    -21.4176807 -0.253340E-07  0.190E-03    6.69      12.1  T
  10    -21.4176807 -0.703259E-08  0.227E-04    6.69     101.2  T
  11    -21.4176807  0.155421E-09  0.172E-04    6.69     133.1  T

   *** convergence criteria satisfied after 11 iterations ***

         #    Occupation            Energy/Eh            Energy/eV
      -------------------------------------------------------------
         1        2.0000           -0.6229752             -16.9520
       ...           ...                  ...                  ...
        14        2.0000           -0.4540653             -12.3557
        15        2.0000           -0.4414491             -12.0124
        16        2.0000           -0.4310784             -11.7302
        17        2.0000           -0.4211804             -11.4609
        18        2.0000           -0.4204100             -11.4399
        19        2.0000           -0.3983463             -10.8396
        20        2.0000           -0.3955681             -10.7640 (HOMO)
        21                         -0.1497081              -4.0738 (LUMO)
        22                         -0.1445022              -3.9321
        23                          0.0442841               1.2050
        24                          0.0939516               2.5566
        25                          0.1070370               2.9126
       ...                                ...                  ...
        40                          1.3696918              37.2712
      -------------------------------------------------------------
                  HL-Gap            0.2458600 Eh            6.6902 eV
             Fermi-level           -0.2726381 Eh           -7.4189 eV

 SCC (total)                   0 d,  0 h,  0 min,  0.015 sec
 SCC setup                      ...        0 min,  0.001 sec (  7.632%)
 Dispersion                     ...        0 min,  0.000 sec (  0.689%)
 classical contributions        ...        0 min,  0.000 sec (  0.136%)
 integral evaluation            ...        0 min,  0.001 sec (  8.797%)
 iterations                     ...        0 min,  0.008 sec ( 53.291%)
 molecular gradient             ...        0 min,  0.004 sec ( 28.223%)
 printout                       ...        0 min,  0.000 sec (  1.137%)

         :::::::::::::::::::::::::::::::::::::::::::::::::::::
         ::                     SUMMARY                     ::
         :::::::::::::::::::::::::::::::::::::::::::::::::::::
         :: total energy             -21.039639297431 Eh    ::
         :: total w/o Gsasa/hb       -21.038334038559 Eh    ::
         :: gradient norm              0.029180151545 Eh/a0 ::
         :: HOMO-LUMO gap              6.690192012690 eV    ::
         ::.................................................::
         :: SCC energy               -21.417683182520 Eh    ::
         :: -> isotropic ES            0.005677215624 Eh    ::
         :: -> anisotropic ES          0.004329688219 Eh    ::
         :: -> anisotropic XC          0.018965896456 Eh    ::
         :: -> dispersion             -0.010799015542 Eh    ::
         :: -> Gsolv                  -0.002012736278 Eh    ::
         ::    -> Gelec               -0.000707477406 Eh    ::
         ::    -> Gsasa               -0.001537043531 Eh    ::
         ::    -> Ghb                 -0.000848975039 Eh    ::
         ::    -> Gshift               0.001080759698 Eh    ::
         :: repulsion energy           0.378043885089 Eh    ::
         :: add. restraining           0.000000000000 Eh    ::
         :: total charge               0.000000000000 e     ::
         :::::::::::::::::::::::::::::::::::::::::::::::::::::

      ----------------------------------------------------------- 
     |                   =====================                   |
     |                        A N C O P T                        |
     |                   =====================                   |
     |               Approximate Normal Coordinate               |
     |                Rational Function Optimizer                |
      ----------------------------------------------------------- 
      ----------------------------------------------------------- 
     |                   =====================                   |
     |                        A N C O P T                        |
     |                   =====================                   |
     |               Approximate Normal Coordinate               |
     |                Rational Function Optimizer                |
      ----------------------------------------------------------- 

          ...................................................
          :                      SETUP                      :
          :.................................................:
          :   optimization level         verytight          :
          :   max. optcycles                   380          :
          :   ANC micro-cycles                  20          :
          :   degrees of freedom                51          :
          :.................................................:
          :   RF solver                   davidson          :
          :   write xtbopt.log                true          :
          :   linear?                        false          :
          :   energy convergence         0.1000000E-06 Eh   :
          :   grad. convergence          0.2000000E-03 Eh/α :
          :   maxmium RF displ.          1.0000000          :
          :   Hlow (freq-cutoff)         0.1000000E-01      :
          :   Hmax (freq-cutoff)         5.0000000          :
          :   S6 in model hess.         20.0000000          :
          ...................................................

generating ANC from exact Hessian ...
Using Lindh-Hessian (1995)
 Shifting diagonal of input Hessian by   9.398143701147769E-003
 Lowest  eigenvalues of input Hessian
    0.000000    0.000000    0.000000    0.000000    0.000000    0.000000
    0.010000    0.010819    0.012016    0.012123    0.014034    0.018418
    0.019151    0.021634    0.026789    0.029502    0.047340    0.050334
 Highest eigenvalues
    1.146944    1.179101    1.206041    1.240135    1.282575    2.483502
 

........................................................................
.............................. CYCLE    1 ..............................
........................................................................

 iter      E             dE          RMSdq      gap      omega  full diag
   1    -21.4176807 -0.214177E+02  0.158E-05    6.69       0.0  T
   2    -21.4176807 -0.241585E-12  0.103E-05    6.69    2217.4  T
   3    -21.4176807 -0.113687E-12  0.276E-06    6.69    8305.5  T
     SCC iter.                  ...        0 min,  0.001 sec
     gradient                   ...        0 min,  0.004 sec
 * total energy  :   -21.0396393 Eh     change       -0.2912977E-09 Eh
   gradient norm :     0.0291811 Eh/α   predicted     0.0000000E+00 (-100.00%)
   displ. norm   :     0.1344919 α      lambda       -0.1764145E-02
   maximum displ.:     0.0624215 α      in ANC's #22, #9, #8, ...

........................................................................
.............................. CYCLE    2 ..............................
........................................................................

 iter      E             dE          RMSdq      gap      omega  full diag
   1    -21.4357738 -0.214358E+02  0.145E-01    6.88       0.0  T
   2    -21.4357763 -0.258443E-05  0.872E-02    6.88       1.0  T
   3    -21.4357282  0.481657E-04  0.597E-02    6.88       1.0  T
   4    -21.4357835 -0.553522E-04  0.304E-03    6.88       7.5  T
   5    -21.4357835 -0.109584E-07  0.165E-03    6.88      13.9  T
   6    -21.4357835 -0.577484E-08  0.477E-04    6.88      48.1  T
   7    -21.4357835 -0.537693E-09  0.115E-04    6.88     199.8  T
     SCC iter.                  ...        0 min,  0.003 sec
     gradient                   ...        0 min,  0.004 sec
 * total energy  :   -21.0405482 Eh     change       -0.9088578E-03 Eh
   gradient norm :     0.0112748 Eh/α   predicted    -0.8980719E-03 (  -1.19%)
   displ. norm   :     0.1442738 α      lambda       -0.3644191E-03
   maximum displ.:     0.0878106 α      in ANC's #2, #1, #4, ...

........................................................................
.............................. CYCLE    3 ..............................
........................................................................

 iter      E             dE          RMSdq      gap      omega  full diag
   1    -21.4401539 -0.214402E+02  0.186E-01    6.88       0.0  T
   2    -21.4401552 -0.128026E-05  0.110E-01    6.87       1.0  T
   3    -21.4401371  0.180944E-04  0.340E-02    6.88       1.0  T
   4    -21.4401570 -0.199021E-04  0.284E-03    6.88       8.1  T
   5    -21.4401570 -0.191973E-07  0.133E-03    6.88      17.2  T
   6    -21.4401570 -0.501394E-09  0.257E-04    6.88      89.4  T
   7    -21.4401570 -0.209759E-09  0.105E-04    6.88     217.8  T
     SCC iter.                  ...        0 min,  0.003 sec
     gradient                   ...        0 min,  0.004 sec
 * total energy  :   -21.0405330 Eh     change        0.1519962E-04 Eh
   gradient norm :     0.0061294 Eh/α   predicted    -0.1860051E-03 (*******%)
   displ. norm   :     0.0778797 α      lambda       -0.2582672E-03
   maximum displ.:     0.0400244 α      in ANC's #2, #5, #4, ...

........................................................................
.............................. CYCLE    4 ..............................
........................................................................

 iter      E             dE          RMSdq      gap      omega  full diag
   1    -21.4383094 -0.214383E+02  0.121E-01    6.86       0.0  T
   2    -21.4383098 -0.374549E-06  0.717E-02    6.86       1.0  T
   3    -21.4383097  0.115925E-06  0.467E-03    6.86       4.9  T
   4    -21.4383100 -0.284919E-06  0.178E-03    6.86      12.9  T
   5    -21.4383100 -0.196470E-07  0.855E-04    6.86      26.8  T
   6    -21.4383100 -0.176544E-08  0.810E-05    6.86     283.2  T
     SCC iter.                  ...        0 min,  0.002 sec
     gradient                   ...        0 min,  0.004 sec
 * total energy  :   -21.0406706 Eh     change       -0.1375970E-03 Eh
   gradient norm :     0.0030149 Eh/α   predicted    -0.1299174E-03 (  -5.58%)
   displ. norm   :     0.0261272 α      lambda       -0.1837464E-04
   maximum displ.:     0.0167047 α      in ANC's #5, #8, #4, ...

........................................................................
.............................. CYCLE    5 ..............................
........................................................................

 iter      E             dE          RMSdq      gap      omega  full diag
   1    -21.4379041 -0.214379E+02  0.146E-02    6.86       0.0  T
   2    -21.4379041 -0.763666E-08  0.860E-03    6.86       2.7  T
   3    -21.4379038  0.301247E-06  0.451E-03    6.86       5.1  T
   4    -21.4379042 -0.331855E-06  0.237E-04    6.86      96.7  T
   5    -21.4379042 -0.835705E-10  0.126E-04    6.86     182.5  T
     SCC iter.                  ...        0 min,  0.002 sec
     gradient                   ...        0 min,  0.004 sec
 * total energy  :   -21.0406835 Eh     change       -0.1291482E-04 Eh
   gradient norm :     0.0004692 Eh/α   predicted    -0.9197068E-05 ( -28.79%)
   displ. norm   :     0.0841236 α      lambda       -0.1797331E-04
   maximum displ.:     0.0548574 α      in ANC's #5, #8, #1, ...

........................................................................
.............................. CYCLE    6 ..............................
........................................................................

 iter      E             dE          RMSdq      gap      omega  full diag
   1    -21.4376693 -0.214377E+02  0.436E-02    6.87       0.0  T
   2    -21.4376693 -0.365968E-07  0.257E-02    6.87       1.0  T
   3    -21.4376692  0.828468E-07  0.252E-03    6.87       9.1  T
   4    -21.4376693 -0.105840E-06  0.531E-04    6.87      43.2  T
   5    -21.4376693 -0.633047E-09  0.173E-04    6.87     132.3  T
     SCC iter.                  ...        0 min,  0.002 sec
     gradient                   ...        0 min,  0.004 sec
 * total energy  :   -21.0406983 Eh     change       -0.1482687E-04 Eh
   gradient norm :     0.0019982 Eh/α   predicted    -0.9016201E-05 ( -39.19%)
   displ. norm   :     0.0368686 α      lambda       -0.5581361E-05
   maximum displ.:     0.0231449 α      in ANC's #5, #1, #8, ...

........................................................................
.............................. CYCLE    7 ..............................
........................................................................

 iter      E             dE          RMSdq      gap      omega  full diag
   1    -21.4379650 -0.214380E+02  0.216E-02    6.87       0.0  T
   2    -21.4379650 -0.946669E-08  0.128E-02    6.87       1.8  T
   3    -21.4379647  0.278608E-06  0.423E-03    6.87       5.4  T
   4    -21.4379650 -0.303888E-06  0.269E-04    6.87      85.4  T
   5    -21.4379650 -0.268088E-10  0.148E-04    6.87     155.0  T
     SCC iter.                  ...        0 min,  0.002 sec
     gradient                   ...        0 min,  0.004 sec
 * total energy  :   -21.0407032 Eh     change       -0.4910615E-05 Eh
   gradient norm :     0.0005472 Eh/α   predicted    -0.2793356E-05 ( -43.12%)
   displ. norm   :     0.0247331 α      lambda       -0.2185206E-05
   maximum displ.:     0.0195545 α      in ANC's #5, #1, #4, ...

........................................................................
.............................. CYCLE    8 ..............................
........................................................................

 iter      E             dE          RMSdq      gap      omega  full diag
   1    -21.4380272 -0.214380E+02  0.213E-02    6.86       0.0  T
   2    -21.4380272 -0.740241E-08  0.126E-02    6.86       1.8  T
   3    -21.4380271  0.221767E-07  0.127E-03    6.86      18.1  T
   4    -21.4380272 -0.263038E-07  0.210E-04    6.86     109.1  T
   5    -21.4380272 -0.135213E-09  0.109E-04    6.86     210.0  T
     SCC iter.                  ...        0 min,  0.002 sec
     gradient                   ...        0 min,  0.004 sec
 * total energy  :   -21.0407048 Eh     change       -0.1622425E-05 Eh
   gradient norm :     0.0004527 Eh/α   predicted    -0.1093765E-05 ( -32.58%)
   displ. norm   :     0.0188648 α      lambda       -0.1340488E-05
   maximum displ.:     0.0133674 α      in ANC's #5, #7, #9, ...

........................................................................
.............................. CYCLE    9 ..............................
........................................................................

 iter      E             dE          RMSdq      gap      omega  full diag
   1    -21.4379973 -0.214380E+02  0.123E-02    6.86       0.0  T
   2    -21.4379973 -0.307880E-08  0.730E-03    6.86       3.1  T
   3    -21.4379973  0.124317E-08  0.418E-04    6.86      54.9  T
   4    -21.4379973 -0.231873E-08  0.161E-04    6.86     142.1  T
     SCC iter.                  ...        0 min,  0.002 sec
     gradient                   ...        0 min,  0.004 sec
 * total energy  :   -21.0407062 Eh     change       -0.1404224E-05 Eh
   gradient norm :     0.0004947 Eh/α   predicted    -0.6726442E-06 ( -52.10%)
   displ. norm   :     0.0218808 α      lambda       -0.1060912E-05
   maximum displ.:     0.0149614 α      in ANC's #5, #7, #9, ...

........................................................................
.............................. CYCLE   10 ..............................
........................................................................

 iter      E             dE          RMSdq      gap      omega  full diag
   1    -21.4380153 -0.214380E+02  0.127E-02    6.86       0.0  T
   2    -21.4380153 -0.248244E-08  0.753E-03    6.86       3.0  T
   3    -21.4380153  0.506909E-08  0.640E-04    6.86      35.8  T
   4    -21.4380153 -0.665398E-08  0.160E-04    6.86     143.7  T
     SCC iter.                  ...        0 min,  0.002 sec
     gradient                   ...        0 min,  0.004 sec
 * total energy  :   -21.0407073 Eh     change       -0.1045892E-05 Eh
   gradient norm :     0.0002095 Eh/α   predicted    -0.5330635E-06 ( -49.03%)
   displ. norm   :     0.0130726 α      lambda       -0.3640471E-06
   maximum displ.:     0.0090076 α      in ANC's #5, #6, #7, ...

........................................................................
.............................. CYCLE   11 ..............................
........................................................................

 iter      E             dE          RMSdq      gap      omega  full diag
   1    -21.4379788 -0.214380E+02  0.517E-03    6.86       0.0  T
   2    -21.4379788 -0.500386E-09  0.308E-03    6.86       7.4  T
   3    -21.4379788  0.932661E-08  0.767E-04    6.86      29.9  T
   4    -21.4379788 -0.102187E-07  0.762E-05    6.86     301.0  T
     SCC iter.                  ...        0 min,  0.002 sec
     gradient                   ...        0 min,  0.004 sec
 * total energy  :   -21.0407077 Eh     change       -0.3794402E-06 Eh
   gradient norm :     0.0001272 Eh/α   predicted    -0.1846476E-06 ( -51.34%)
   displ. norm   :     0.0116802 α      lambda       -0.2267660E-06
   maximum displ.:     0.0078260 α      in ANC's #5, #6, #7, ...

........................................................................
.............................. CYCLE   12 ..............................
........................................................................

 iter      E             dE          RMSdq      gap      omega  full diag
   1    -21.4380014 -0.214380E+02  0.312E-03    6.86       0.0  T
   2    -21.4380014 -0.356295E-09  0.187E-03    6.86      12.2  T
   3    -21.4380014  0.128835E-08  0.299E-04    6.86      76.8  T
   4    -21.4380014 -0.150021E-08  0.568E-05    6.86     403.7  T
     SCC iter.                  ...        0 min,  0.002 sec
     gradient                   ...        0 min,  0.004 sec
 * total energy  :   -21.0407079 Eh     change       -0.2346768E-06 Eh
   gradient norm :     0.0001574 Eh/α   predicted    -0.1170113E-06 ( -50.14%)
   displ. norm   :     0.0116802 α      lambda        0.0000000E+00
   maximum displ.:     0.0078260 α      in ANC's #5, #6, #7, ...

........................................................................
.............................. CYCLE   13 ..............................
........................................................................

 iter      E             dE          RMSdq      gap      omega  full diag
   1    -21.4380196 -0.214380E+02  0.312E-03    6.87       0.0  T
   2    -21.4380196 -0.316597E-09  0.187E-03    6.87      12.3  T
   3    -21.4380196  0.133787E-08  0.303E-04    6.87      75.7  T
   4    -21.4380196 -0.155689E-08  0.532E-05    6.87     431.6  T
     SCC iter.                  ...        0 min,  0.002 sec
     gradient                   ...        0 min,  0.004 sec
 * total energy  :   -21.0407079 Eh     change        0.2721166E-08 Eh
   gradient norm :     0.0002479 Eh/α   predicted     0.2390347E-08 ( -12.16%)
   displ. norm   :     0.0048904 α      lambda       -0.1291957E-06
   maximum displ.:     0.0027157 α      in ANC's #5, #6, #10, ...

........................................................................
.............................. CYCLE   14 ..............................
........................................................................

 iter      E             dE          RMSdq      gap      omega  full diag
   1    -21.4379971 -0.214380E+02  0.313E-03    6.86       0.0  T
   2    -21.4379971 -0.250363E-09  0.186E-03    6.86      12.3  T
   3    -21.4379971  0.413176E-08  0.506E-04    6.86      45.4  T
   4    -21.4379971 -0.448837E-08  0.466E-05    6.86     492.6  T
     SCC iter.                  ...        0 min,  0.002 sec
     gradient                   ...        0 min,  0.004 sec
 * total energy  :   -21.0407080 Eh     change       -0.1231821E-06 Eh
   gradient norm :     0.0000772 Eh/α   predicted    -0.6906291E-07 ( -43.93%)
   displ. norm   :     0.0063909 α      lambda        0.5778909E-07
   maximum displ.:     0.0036497 α      in ANC's #5, #6, #10, ...

........................................................................
.............................. CYCLE   15 ..............................
........................................................................

 iter      E             dE          RMSdq      gap      omega  full diag
   1    -21.4379774 -0.214380E+02  0.406E-03    6.86       0.0  T
   2    -21.4379774 -0.292069E-09  0.241E-03    6.86       9.5  T
   3    -21.4379774  0.573325E-08  0.596E-04    6.86      38.5  T
   4    -21.4379774 -0.625206E-08  0.551E-05    6.86     416.3  T
     SCC iter.                  ...        0 min,  0.002 sec
     gradient                   ...        0 min,  0.004 sec
 * total energy  :   -21.0407080 Eh     change        0.3867444E-07 Eh
   gradient norm :     0.0001976 Eh/α   predicted     0.2564554E-07 ( -33.69%)
   displ. norm   :     0.0038144 α      lambda       -0.8351192E-07
   maximum displ.:     0.0024952 α      in ANC's #5, #6, #7, ...

........................................................................
.............................. CYCLE   16 ..............................
........................................................................

 iter      E             dE          RMSdq      gap      omega  full diag
   1    -21.4379947 -0.214380E+02  0.213E-03    6.86       0.0  T
   2    -21.4379947 -0.204107E-09  0.127E-03    6.86      18.0  T
   3    -21.4379947  0.297998E-08  0.430E-04    6.86      53.3  T
   4    -21.4379947 -0.322711E-08  0.392E-05    6.86     584.7  T
     SCC iter.                  ...        0 min,  0.002 sec
     gradient                   ...        0 min,  0.004 sec
 * total energy  :   -21.0407080 Eh     change       -0.6985764E-07 Eh
   gradient norm :     0.0000226 Eh/α   predicted    -0.4435211E-07 ( -36.51%)
   displ. norm   :     0.0025997 α      lambda        0.7794398E-08
   maximum displ.:     0.0012767 α      in ANC's #6, #5, #7, ...

   *** GEOMETRY OPTIMIZATION CONVERGED AFTER 16 ITERATIONS ***

------------------------------------------------------------------------
 total energy gain   :        -0.0010687 Eh       -0.6706 kcal/mol
 total RMSD          :         0.0740909 a0        0.0392 Å
 total power (kW/mol):        -0.1753745 (step)  -18.8150 (real)
------------------------------------------------------------------------

 ANCopt (total)                0 d,  0 h,  0 min,  0.149 sec
 optimizer setup                ...        0 min,  0.000 sec (  0.315%)
 model hessian                  ...        0 min,  0.005 sec (  3.321%)
 ANC generation                 ...        0 min,  0.000 sec (  0.310%)
 coordinate transformation      ...        0 min,  0.000 sec (  0.074%)
 single point calculation       ...        0 min,  0.135 sec ( 90.564%)
 optimization log               ...        0 min,  0.006 sec (  4.249%)
 hessian update                 ...        0 min,  0.000 sec (  0.085%)
 rational function              ...        0 min,  0.001 sec (  0.549%)

================
 final structure:
================
$coord
       -5.59169170756008       -1.48133918144376       -0.39089814202747      C
       -4.60485692652489        0.97072402874948        0.75633833407600      C
       -2.07804730630355        1.81646954313016       -0.36250357367166      C
        0.10838431027409        0.05734496960810        0.30941775669926      C
        2.62753993898783        1.09024534472372       -0.67941522204807      C
        4.70153580570519       -0.58455472143276       -0.05937808337024      C
        6.38005416707880       -2.00276795699589        0.47769713917869      C
       -7.45628561026409       -1.91539907365989        0.35591616394182      H
       -4.34684213662842       -3.05504938522105        0.04650445713638      H
       -5.73587368323316       -1.31087363492760       -2.43443832028880      H
       -5.99559612505554        2.46218138275151        0.43353640539785      H
       -4.40128322195533        0.73894984773835        2.79752414380617      H
       -1.64782807439091        3.70993968297111        0.34263091586488      H
       -2.25345801232624        1.93877274677021       -2.41645574758004      H
       -0.20832869969317       -1.81166725186168       -0.50198132980311      H
        0.22015218620376       -0.15555833918215        2.36021498643160      H
        2.99822032791201        2.94696519711260        0.14883024233473      H
        2.53525706409009        1.30670664009653       -2.73242481418108      H
        7.86756943182040       -3.22877206429922        0.93694365551176      H
$end
 
 Bond Distances (Angstroems)
 ---------------------------
C1-C2=1.5248         C1-H8=1.0874         C1-H9=1.0868         C1-H10=1.0878        C2-C1=1.5248         C2-C3=1.5293         
C2-H11=1.0926        C2-H12=1.0924        C3-C2=1.5293         C3-C4=1.5270         C3-H13=1.0932        C3-H14=1.0928        
C4-C3=1.5270         C4-C5=1.5329         C4-H15=1.0912        C4-H16=1.0927        C5-C4=1.5329         C5-C6=1.4483         
C5-H17=1.0936        C5-H18=1.0935        C6-C5=1.4483         C6-C7=1.1971         C7-C6=1.1971         C7-H19=1.0486        
H8-C1=1.0874         H9-C1=1.0868         H10-C1=1.0878        H11-C2=1.0926        H12-C2=1.0924        H13-C3=1.0932        
H14-C3=1.0928        H15-C4=1.0912        H16-C4=1.0927        H17-C5=1.0936        H18-C5=1.0935        H19-C7=1.0486        
 C  H  Rav=1.0877 sigma=0.0120  Rmin=1.0486  Rmax=1.0936    12
 C  C  Rav=1.4599 sigma=0.1212  Rmin=1.1971  Rmax=1.5329     6
 
 selected bond angles (degree)
 --------------------
H8-C1-C2=110.23                H9-C1-C2=111.08                H9-C1-H8=108.10                H10-C1-C2=110.44               
H10-C1-H8=108.37               H10-C1-H9=108.53               C3-C2-C1=113.23                H11-C2-C1=108.77               
H11-C2-C3=108.48               H12-C2-C1=109.38               H12-C2-C3=109.23               H12-C2-H11=107.59              
C4-C3-C2=113.20                H13-C3-C2=108.55               H13-C3-C4=108.75               H14-C3-C2=109.16               
H14-C3-C4=109.39               H14-C3-H13=107.63              C5-C4-C3=111.23                H15-C4-C3=110.15               
H15-C4-C5=108.81               H16-C4-C3=109.58               H16-C4-C5=109.19               H16-C4-H15=107.80              
C6-C5-C4=111.31                H17-C5-C4=109.85               H17-C5-C6=108.85               H18-C5-C4=109.73               
H18-C5-C6=108.85               H18-C5-H17=108.18              C7-C6-C5=178.61                H19-C7-C6=179.24               
 
 selected dihedral angles (degree)
 ---------------------------------
C3-C2-C1-H8=184.60            C3-C2-C1-H9= 64.80            C3-C2-C1-H10=304.32           H11-C2-C1-H8=305.28           
H11-C2-C1-H9=185.47           H11-C2-C1-H10= 65.00          H12-C2-C1-H8= 62.53           H12-C2-C1-H9=302.72           
H12-C2-C1-H10=182.25          C4-C3-C2-C1=292.40            C4-C3-C2-H11=171.56           C4-C3-C2-H12= 54.56           
H13-C3-C2-C1=171.55           H13-C3-C2-H11= 50.71          H13-C3-C2-H12=293.71          H14-C3-C2-C1= 54.50           
H14-C3-C2-H11=293.66          H14-C3-C2-H12=176.66          C5-C4-C3-C2=184.39            C5-C4-C3-H13=305.12           
C5-C4-C3-H14= 62.42           H15-C4-C3-C2= 63.65           H15-C4-C3-H13=184.39          H15-C4-C3-H14=301.69          
H16-C4-C3-C2=305.22           H16-C4-C3-H13= 65.95          H16-C4-C3-H14=183.25          C6-C5-C4-C3=180.40            
C6-C5-C4-H15=301.92           C6-C5-C4-H16= 59.34           H17-C5-C4-C3= 59.77           H17-C5-C4-H15=181.29          
H17-C5-C4-H16=298.71          H18-C5-C4-C3=300.95           H18-C5-C4-H15= 62.48          H18-C5-C4-H16=179.90          
C7-C6-C5-C4=  0.34            C7-C6-C5-H17=121.56           C7-C6-C5-H18=239.27           H19-C7-C6-C5=181.15           
           -------------------------------------------------
          |                Final Singlepoint                |
           -------------------------------------------------

          ...................................................
          :                      SETUP                      :
          :.................................................:
          :  # basis functions                  40          :
          :  # atomic orbitals                  40          :
          :  # shells                           26          :
          :  # electrons                        40          :
          :  max. iterations                   250          :
          :  Hamiltonian                  GFN2-xTB          :
          :  restarted?                      false          :
          :  GBSA solvation                   true          :
          :  PC potential                    false          :
          :  electronic temp.          300.0000000     K    :
          :  accuracy                    1.0000000          :
          :  -> integral cutoff          0.2500000E+02      :
          :  -> integral neglect         0.1000000E-07      :
          :  -> SCF convergence          0.1000000E-05 Eh   :
          :  -> wf. convergence          0.1000000E-03 e    :
          :  Broyden damping             0.4000000          :
          :  net charge                          0          :
          :  unpaired electrons                  0          :
          ...................................................

 iter      E             dE          RMSdq      gap      omega  full diag
   1    -21.4379947 -0.214380E+02  0.165E-05    6.86       0.0  T
   2    -21.4379947 -0.149214E-12  0.989E-06    6.86    2320.2  T
   3    -21.4379947  0.852651E-13  0.297E-06    6.86    7733.5  T

   *** convergence criteria satisfied after 3 iterations ***

         #    Occupation            Energy/Eh            Energy/eV
      -------------------------------------------------------------
         1        2.0000           -0.6239794             -16.9793
       ...           ...                  ...                  ...
        14        2.0000           -0.4533705             -12.3368
        15        2.0000           -0.4414131             -12.0115
        16        2.0000           -0.4304789             -11.7139
        17        2.0000           -0.4226287             -11.5003
        18        2.0000           -0.4196866             -11.4203
        19        2.0000           -0.3992427             -10.8639
        20        2.0000           -0.3971649             -10.8074 (HOMO)
        21                         -0.1448935              -3.9428 (LUMO)
        22                         -0.1400670              -3.8114
        23                          0.0582297               1.5845
        24                          0.1014515               2.7606
        25                          0.1141022               3.1049
       ...                                ...                  ...
        40                          1.4417041              39.2308
      -------------------------------------------------------------
                  HL-Gap            0.2522715 Eh            6.8647 eV
             Fermi-level           -0.2710292 Eh           -7.3751 eV

 SCC (total)                   0 d,  0 h,  0 min,  0.008 sec
 SCC setup                      ...        0 min,  0.001 sec ( 14.049%)
 Dispersion                     ...        0 min,  0.000 sec (  0.760%)
 classical contributions        ...        0 min,  0.000 sec (  0.226%)
 integral evaluation            ...        0 min,  0.001 sec ( 16.317%)
 iterations                     ...        0 min,  0.001 sec ( 17.348%)
 molecular gradient             ...        0 min,  0.004 sec ( 49.522%)
 printout                       ...        0 min,  0.000 sec (  1.606%)

         :::::::::::::::::::::::::::::::::::::::::::::::::::::
         ::                     SUMMARY                     ::
         :::::::::::::::::::::::::::::::::::::::::::::::::::::
         :: total energy             -21.040708043545 Eh    ::
         :: total w/o Gsasa/hb       -21.039393510425 Eh    ::
         :: gradient norm              0.000022702567 Eh/a0 ::
         :: HOMO-LUMO gap              6.864656407505 eV    ::
         ::.................................................::
         :: SCC energy               -21.437995557881 Eh    ::
         :: -> isotropic ES            0.005868605526 Eh    ::
         :: -> anisotropic ES          0.004010606862 Eh    ::
         :: -> anisotropic XC          0.018455994602 Eh    ::
         :: -> dispersion             -0.010840348819 Eh    ::
         :: -> Gsolv                  -0.002012353080 Eh    ::
         ::    -> Gelec               -0.000697819959 Eh    ::
         ::    -> Gsasa               -0.001530434385 Eh    ::
         ::    -> Ghb                 -0.000864858433 Eh    ::
         ::    -> Gshift               0.001080759698 Eh    ::
         :: repulsion energy           0.397287514336 Eh    ::
         :: add. restraining           0.000000000000 Eh    ::
         :: total charge              -0.000000000000 e     ::
         :::::::::::::::::::::::::::::::::::::::::::::::::::::

           ------------------------------------------------- 
          |                Numerical Hessian                |
           ------------------------------------------------- 
step length          :   0.00500
SCC accuracy         :   0.30000
Hessian scale factor :   1.00000
frozen atoms in %    :   0.00000    0
RMS gradient         :   0.00002
estimated CPU  time      0.02 min
estimated wall time      0.02 min

writing file <hessian>.

 projected vibrational frequencies (cm⁻¹)
eigval :       -0.00    -0.00    -0.00     0.00     0.00     0.00
eigval :       54.85    80.48   101.14   128.08   221.09   276.76
eigval :      303.19   310.68   435.32   472.04   636.75   660.69
eigval :      770.26   805.07   858.87   927.03   985.78  1001.91
eigval :     1014.87  1079.26  1099.09  1120.84  1136.30  1185.38
eigval :     1241.76  1250.37  1273.35  1284.12  1329.40  1350.70
eigval :     1369.66  1412.66  1446.83  1486.38  1490.22  1492.83
eigval :     1503.42  1507.38  2291.76  2942.99  2951.98  2956.99
eigval :     2959.86  2968.16  2972.81  2976.83  2991.44  3025.78
eigval :     3030.76  3043.91  3399.79
           -------------------------------------------------
          |                Property Printout                |
           -------------------------------------------------

    * Orbital Energies and Occupations

         #    Occupation            Energy/Eh            Energy/eV
      -------------------------------------------------------------
         1        2.0000           -0.6239794             -16.9793
       ...           ...                  ...                  ...
         8        2.0000           -0.5141399             -13.9905
         9        2.0000           -0.5040990             -13.7172
        10        2.0000           -0.4922882             -13.3958
        11        2.0000           -0.4799956             -13.0613
        12        2.0000           -0.4707936             -12.8109
        13        2.0000           -0.4623325             -12.5807
        14        2.0000           -0.4533706             -12.3368
        15        2.0000           -0.4414131             -12.0115
        16        2.0000           -0.4304790             -11.7139
        17        2.0000           -0.4226287             -11.5003
        18        2.0000           -0.4196866             -11.4203
        19        2.0000           -0.3992427             -10.8639
        20        2.0000           -0.3971650             -10.8074 (HOMO)
        21                         -0.1448935              -3.9428 (LUMO)
        22                         -0.1400670              -3.8114
        23                          0.0582297               1.5845
        24                          0.1014515               2.7606
        25                          0.1141022               3.1049
        26                          0.1243228               3.3830
        27                          0.1404231               3.8211
        28                          0.1476914               4.0189
        29                          0.1505771               4.0974
        30                          0.1826717               4.9708
        31                          0.1950073               5.3064
       ...                                ...                  ...
        40                          1.4417041              39.2308
      -------------------------------------------------------------
                  HL-Gap            0.2522715 Eh            6.8647 eV
             Fermi-level           -0.2710292 Eh           -7.3751 eV

     #   Z          covCN         q      C6AA      α(0)
     1   6 C        3.751    -0.110    22.667     6.790
     2   6 C        3.800    -0.058    21.622     6.620
     3   6 C        3.802    -0.062    21.687     6.630
     4   6 C        3.807    -0.054    21.543     6.607
     5   6 C        3.805    -0.048    21.437     6.591
     6   6 C        1.967    -0.033    31.939     9.127
     7   6 C        1.909    -0.138    34.994     9.554
     8   1 H        0.925     0.035     2.516     2.481
     9   1 H        0.925     0.036     2.498     2.472
    10   1 H        0.925     0.037     2.487     2.466
    11   1 H        0.924     0.032     2.563     2.504
    12   1 H        0.924     0.031     2.573     2.509
    13   1 H        0.924     0.032     2.565     2.505
    14   1 H        0.924     0.034     2.530     2.488
    15   1 H        0.924     0.036     2.500     2.472
    16   1 H        0.924     0.033     2.545     2.495
    17   1 H        0.924     0.057     2.236     2.338
    18   1 H        0.924     0.058     2.223     2.332
    19   1 H        0.928     0.083     1.952     2.185

 Mol. C6AA /au·bohr⁶  :       2864.764017
 Mol. C8AA /au·bohr⁸  :      63678.386857
 Mol. α(0) /au        :         81.164164


Wiberg/Mayer (AO) data.
largest (>0.10) Wiberg bond orders for each atom

 ---------------------------------------------------------------------------
     #   Z sym  total        # sym  WBO       # sym  WBO       # sym  WBO
 ---------------------------------------------------------------------------
     1   6 C    3.997 --     2 C    1.020    10 H    0.987     8 H    0.987
                             9 H    0.986
     2   6 C    3.997 --     1 C    1.020     3 C    1.007    11 H    0.978
                            12 H    0.978
     3   6 C    3.997 --     4 C    1.008     2 C    1.007    13 H    0.977
                            14 H    0.977
     4   6 C    3.996 --     3 C    1.008     5 C    0.985    16 H    0.978
                            15 H    0.977
     5   6 C    3.997 --     6 C    1.055     4 C    0.985    17 H    0.954
                            18 H    0.954
     6   6 C    3.977 --     7 C    2.892     5 C    1.055
     7   6 C    3.970 --     6 C    2.892    19 H    0.970
     8   1 H    0.999 --     1 C    0.987
     9   1 H    0.999 --     1 C    0.986
    10   1 H    0.999 --     1 C    0.987
    11   1 H    0.998 --     2 C    0.978
    12   1 H    0.999 --     2 C    0.978
    13   1 H    0.999 --     3 C    0.977
    14   1 H    0.999 --     3 C    0.977
    15   1 H    0.999 --     4 C    0.977
    16   1 H    0.999 --     4 C    0.978
    17   1 H    0.997 --     5 C    0.954
    18   1 H    0.997 --     5 C    0.954
    19   1 H    0.993 --     7 C    0.970
 ---------------------------------------------------------------------------

Topologies differ in total number of bonds
Writing topology from bond orders to xtbtopo.mol

molecular dipole:
                 x           y           z       tot (Debye)
 q only:       -0.274       0.197      -0.087
   full:       -0.266       0.188      -0.078       0.852
molecular quadrupole (traceless):
                xx          xy          yy          xz          yz          zz
 q only:       -1.267       0.386       1.005      -0.052      -0.365       0.262
  q+dip:       -1.142      -2.382       1.276       1.195      -1.022      -0.133
   full:       -1.317      -0.730       1.087       0.466      -0.608       0.230

           -------------------------------------------------
          |                Geometry Summary                 |
           -------------------------------------------------

      molecular mass/u    :       96.1704403
   center of mass at/Å    :       -0.0002147       0.0001713      -0.0002906
  moments of inertia/u·Å² :        0.6882067E+02   0.5146785E+03   0.5540011E+03
rotational constants/cm⁻¹ :        0.2449501E+00   0.3275372E-01   0.3042888E-01

 * 17 selected distances

     #   Z          #   Z                                           value/Å
     1   6 C        2   6 C                                       1.5247844
     2   6 C        3   6 C                                       1.5293003
     3   6 C        4   6 C                                       1.5269750
     4   6 C        5   6 C                                       1.5328630 (max)
     6   6 C        7   6 C                                       1.1970643
     1   6 C        8   1 H                                       1.0874367
     1   6 C        9   1 H                                       1.0867522
     1   6 C       10   1 H                                       1.0878298
     2   6 C       11   1 H                                       1.0925687
     2   6 C       12   1 H                                       1.0924148
     3   6 C       13   1 H                                       1.0931747
     3   6 C       14   1 H                                       1.0927794
     4   6 C       15   1 H                                       1.0911684
     4   6 C       16   1 H                                       1.0926696
     5   6 C       17   1 H                                       1.0935936
     5   6 C       18   1 H                                       1.0935189
     7   6 C       19   1 H                                       1.0486119 (min)

 * 2 distinct bonds (by element types)

   Z      Z             #   av. dist./Å        max./Å        min./Å
   1 H    6 C          12     1.0877099     1.0935936     1.0486119
   6 C    6 C           5     1.4621974     1.5328630     1.1970643

           -------------------------------------------------
          |               Frequency Printout                |
           -------------------------------------------------
 projected vibrational frequencies (cm⁻¹)
eigval :       -0.00    -0.00    -0.00     0.00     0.00     0.00
eigval :       54.85    80.48   101.14   128.08   221.09   276.76
eigval :      303.19   310.68   435.32   472.04   636.75   660.69
eigval :      770.26   805.07   858.87   927.03   985.78  1001.91
eigval :     1014.87  1079.26  1099.09  1120.84  1136.30  1185.38
eigval :     1241.76  1250.37  1273.35  1284.12  1329.40  1350.70
eigval :     1369.66  1412.66  1446.83  1486.38  1490.22  1492.83
eigval :     1503.42  1507.38  2291.76  2942.99  2951.98  2956.99
eigval :     2959.86  2968.16  2972.81  2976.83  2991.44  3025.78
eigval :     3030.76  3043.91  3399.79
 reduced masses (amu)
   1: 10.52   2: 10.00   3:  8.96   4: 10.59   5: 10.17   6:  9.81   7:  7.87   8:  7.56
   9:  9.37  10:  6.05  11:  5.56  12:  7.30  13: 10.05  14:  8.60  15:  9.68  16:  9.11
  17:  2.33  18:  2.79  19:  2.17  20:  2.80  21:  3.74  22:  7.58  23:  5.51  24:  8.16
  25:  6.63  26:  8.48  27:  3.88  28:  7.85  29:  7.30  30:  5.77  31:  3.69  32:  3.13
  33:  2.67  34:  2.07  35:  4.36  36:  4.57  37:  5.23  38:  3.25  39:  1.95  40:  1.92
  41:  1.79  42:  1.97  43:  1.64  44:  1.56  45: 11.02  46:  1.96  47:  1.93  48:  1.90
  49:  1.49  50:  1.80  51:  1.67  52:  1.49  53:  1.58  54:  1.91  55:  1.84  56:  1.38
  57:  2.54
 IR intensities (km·mol⁻¹)
   1:  0.01   2:  0.04   3:  0.01   4:  0.02   5:  0.03   6:  0.13   7:  0.15   8:  0.03
   9:  0.04  10:  0.06  11:  0.05  12:  0.16  13:  0.04  14:  0.06  15:  0.74  16:  0.80
  17: 29.26  18: 25.68  19: 10.44  20:  7.71  21:  0.93  22:  2.38  23:  1.97  24:  1.92
  25:  6.50  26:  2.52  27:  0.83  28:  0.56  29:  0.91  30:  1.63  31:  0.85  32:  0.76
  33:  0.12  34:  0.49  35:  1.69  36:  6.71  37:  0.04  38:  1.69  39:  0.25  40:  0.93
  41:  0.75  42:  1.10  43:  0.71  44:  0.92  45: 34.23  46: 35.36  47: 31.93  48: 58.59
  49: 26.84  50: 53.16  51:200.97  52: 99.64  53: 79.16  54: 88.89  55: 81.93  56: 51.32
  57:  5.70
 Raman intensities (Ä⁴*amu⁻¹)
   1:  0.00   2:  0.00   3:  0.00   4:  0.00   5:  0.00   6:  0.00   7:  0.00   8:  0.00
   9:  0.00  10:  0.00  11:  0.00  12:  0.00  13:  0.00  14:  0.00  15:  0.00  16:  0.00
  17:  0.00  18:  0.00  19:  0.00  20:  0.00  21:  0.00  22:  0.00  23:  0.00  24:  0.00
  25:  0.00  26:  0.00  27:  0.00  28:  0.00  29:  0.00  30:  0.00  31:  0.00  32:  0.00
  33:  0.00  34:  0.00  35:  0.00  36:  0.00  37:  0.00  38:  0.00  39:  0.00  40:  0.00
  41:  0.00  42:  0.00  43:  0.00  44:  0.00  45:  0.00  46:  0.00  47:  0.00  48:  0.00
  49:  0.00  50:  0.00  51:  0.00  52:  0.00  53:  0.00  54:  0.00  55:  0.00  56:  0.00
  57:  0.00
 output can be read by thermo (or use thermo option).
 writing <g98.out> molden fake output.
 recommended (thermochemical) frequency scaling factor: 1.0
           -------------------------------------------------
          |             Thermodynamic Functions             |
           -------------------------------------------------

Molecule has no symmetry elements
It seems to be the C1 point group
c1  symmetry found (for desy threshold:  0.10E+00) used in thermo

          ...................................................
          :                      SETUP                      :
          :.................................................:
          :  # frequencies                          51      :
          :  # imaginary freq.                       0      :
          :  linear?                             false      :
          :  only rotor calc.                    false      :
          :  symmetry                               c1      :
          :  rotational number                       1      :
          :  scaling factor                  1.0000000      :
          :  rotor cutoff                    0.0000000 cm⁻¹ :
          :  imag. cutoff                 -100.0000000 cm⁻¹ :
          :.................................................:

    mode    ω/cm⁻¹     T·S(HO)/kcal·mol⁻¹    T·S(FR)/kcal·mol⁻¹   T·S(vib)
   ------------------------------------------------------------------------
       1     54.85    -1.38175 (100.00%)    -1.02889 (  0.00%)    -1.38175
       2     80.48    -1.15653 (100.00%)    -0.91536 (  0.00%)    -1.15653
       3    101.14    -1.02335 (100.00%)    -0.84774 (  0.00%)    -1.02335
       4    128.08    -0.88689 (100.00%)    -0.77779 (  0.00%)    -0.88689
       5    221.09    -0.58143 (100.00%)    -0.61611 (  0.00%)    -0.58143
       6    276.76    -0.46322 (100.00%)    -0.54960 (  0.00%)    -0.46322
   ------------------------------------------------------------------------

   temp. (K)  partition function   enthalpy   heat capacity  entropy
                                   cal/mol     cal/K/mol   cal/K/mol   J/K/mol
 298.15  VIB   415.                 3906.453     25.653     25.081
         ROT  0.338E+06              888.752      2.981     28.283
         INT  0.140E+09             4795.206     28.633     53.364
         TR   0.912E+27             1481.254      4.968     39.584
         TOT                        6276.4594    33.6015    92.9473   388.8915

       T/K    H(0)-H(T)+PV         H(T)/Eh          T*S/Eh         G(T)/Eh
   ------------------------------------------------------------------------
    298.15    0.100022E-01    0.177716E+00    0.441623E-01    0.133554E+00
   ------------------------------------------------------------------------

         :::::::::::::::::::::::::::::::::::::::::::::::::::::
         ::                  THERMODYNAMIC                  ::
         :::::::::::::::::::::::::::::::::::::::::::::::::::::
         :: total free energy         -20.907154371905 Eh   ::
         ::.................................................::
         :: total energy              -21.040708043549 Eh   ::
         :: zero point energy           0.167713757559 Eh   ::
         :: G(RRHO) w/o ZPVE           -0.034160085915 Eh   ::
         :: G(RRHO) contrib.            0.133553671644 Eh   ::
         :::::::::::::::::::::::::::::::::::::::::::::::::::::

optimized geometry written to: xtbopt.coord


           -------------------------------------------------
          | TOTAL ENERGY              -21.040708043549 Eh   |
          | TOTAL ENTHALPY            -20.862992111227 Eh   |
          | TOTAL FREE ENERGY         -20.907154371905 Eh   |
          | GRADIENT NORM               0.000022722212 Eh/α |
          | HOMO-LUMO GAP               6.864656072678 eV   |
           -------------------------------------------------

------------------------------------------------------------------------
 * finished run on 2025/04/11 at 16:27:37.428     
------------------------------------------------------------------------
 total:
 * wall-time:     0 d,  0 h,  0 min,  1.246 sec
 *  cpu-time:     0 d,  0 h,  0 min,  1.154 sec
 * ratio c/w:     0.927 speedup
 SCF:
 * wall-time:     0 d,  0 h,  0 min,  0.015 sec
 *  cpu-time:     0 d,  0 h,  0 min,  0.013 sec
 * ratio c/w:     0.887 speedup
 ANC optimizer:
 * wall-time:     0 d,  0 h,  0 min,  0.168 sec
 *  cpu-time:     0 d,  0 h,  0 min,  0.153 sec
 * ratio c/w:     0.911 speedup
 analytical hessian:
 * wall-time:     0 d,  0 h,  0 min,  0.989 sec
 *  cpu-time:     0 d,  0 h,  0 min,  0.976 sec
 * ratio c/w:     0.987 speedup

