! r2scan-3c def2/J RI DEFGRID2 scfconv6 printgap
%output
    printlevel normal
end
* xyz 0 1
C -2.7275353207 0.1474654561 -0.0517686611
C -1.2993208629 0.2054738841 0.4733305012
C -0.3032002892 -0.1482760942 -0.6421989263
N 1.0402357499 -0.0859715285 -0.0895301559
O 1.6172768995 0.9826217135 -0.1096255666
O 1.5016039516 -1.0941582046 0.4064155138
H -2.9642094742 -0.8505340781 -0.4099069064
H -3.4214627401 0.4012627729 0.744048768
H -2.8654449757 0.852168486 -0.8670000843
H -1.1771526877 -0.5001279159 1.2971803508
H -1.0787363405 1.2085210613 0.8430384531
H -0.4824437532 -1.1644265366 -0.99429498
H -0.3757077271 0.5794954959 -1.4508394953
*
