      -----------------------------------------------------------      
     |                   =====================                   |     
     |                           x T B                           |     
     |                   =====================                   |     
     |                         S. Grimme                         |     
     |          Mulliken Center for Theoretical Chemistry        |     
     |                    University of Bonn                     |     
      -----------------------------------------------------------      

   * xtb version 6.7.1 (edcfbbe) compiled by 'albert@albert-system' on 2024-07-22

   xtb is free software: you can redistribute it and/or modify it under
   the terms of the GNU Lesser General Public License as published by
   the Free Software Foundation, either version 3 of the License, or
   (at your option) any later version.
   
   xtb is distributed in the hope that it will be useful,
   but WITHOUT ANY WARRANTY; without even the implied warranty of
   MERCHANTABILITY or FITNESS FOR A PARTICULAR PURPOSE.  See the
   GNU Lesser General Public License for more details.
   
   Cite this work as:
   * C. Bannwarth, E. Caldeweyher, S. Ehlert, A. Hansen, P. Pracht,
     J. Seibert, S. Spicher, S. Grimme, WIREs Comput. Mol. Sci., 2020, 11,
     e01493. DOI: 10.1002/wcms.1493
   
   for GFN2-xTB:
   * C. Bannwarth, S. Ehlert and S. Grimme., J. Chem. Theory Comput., 2019,
     15, 1652-1671. DOI: 10.1021/acs.jctc.8b01176
   for GFN1-xTB:
   * S. Grimme, C. Bannwarth, P. Shushkov, J. Chem. Theory Comput., 2017,
     13, 1989-2009. DOI: 10.1021/acs.jctc.7b00118
   for GFN0-xTB:
   * P. Pracht, E. Caldeweyher, S. Ehlert, S. Grimme, ChemRxiv, 2019, preprint.
     DOI: 10.26434/chemrxiv.8326202.v1
   for GFN-FF:
   * S. Spicher and S. Grimme, Angew. Chem. Int. Ed., 2020, 59, 15665-15673.
     DOI: 10.1002/anie.202004239
   
   for ALPB and GBSA implicit solvation:
   * S. Ehlert, M. Stahn, S. Spicher, S. Grimme, J. Chem. Theory Comput.,
     2021, 17, 4250-4261. DOI: 10.1021/acs.jctc.1c00471
   
   for ddCOSMO and CPCM-X implicit solvation:
   * M. Stahn, S. Ehlert, S. Grimme, J. Phys. Chem. A,
     2023, XX, XXXX-XXXX. DOI: 10.1021/acs.jpca.3c04382
   
   for DFT-D4:
   * E. Caldeweyher, C. Bannwarth and S. Grimme, J. Chem. Phys., 2017,
     147, 034112. DOI: 10.1063/1.4993215
   * E. Caldeweyher, S. Ehlert, A. Hansen, H. Neugebauer, S. Spicher,
     C. Bannwarth and S. Grimme, J. Chem. Phys., 2019, 150, 154122.
     DOI: 10.1063/1.5090222
   * E. Caldeweyher, J.-M. Mewes, S. Ehlert and S. Grimme, Phys. Chem. Chem. Phys.
     2020, 22, 8499-8512. DOI: 10.1039/D0CP00502A
   
   for sTDA-xTB:
   * S. Grimme and C. Bannwarth, J. Chem. Phys., 2016, 145, 054103.
     DOI: 10.1063/1.4959605
   
   in the mass-spec context:
   * V. Asgeirsson, C. Bauer and S. Grimme, Chem. Sci., 2017, 8, 4879.
     DOI: 10.1039/c7sc00601b
   * J. Koopman and S. Grimme, ACS Omega 2019, 4, 12, 15120-15133.
     DOI: 10.1021/acsomega.9b02011
   
   for metadynamics refer to:
   * S. Grimme, J. Chem. Theory Comput., 2019, 155, 2847-2862
     DOI: 10.1021/acs.jctc.9b00143
   
   for SPH calculations refer to:
   * S. Spicher and S. Grimme, J. Chem. Theory Comput., 2021, 17, 1701-1714
     DOI: 10.1021/acs.jctc.0c01306
   
   for ONIOM refer to:
   * C. Plett, A. Katbashev, S. Ehlert, S. Grimme, M. Bursch,
     Phys. Chem. Chem. Phys., 2023, 25, 17860-17868. DOI: 10.1039/D3CP02178E
   
   for DIPRO refer to:
   * J. Kohn, N. Gildemeister, S. Grimme, D. Fazzi, A. Hansen,
     J. Chem. Phys., 2023, just accepted.
   
   for PTB refer to:
   * S. Grimme, M. Mueller, A. Hansen, J. Chem. Phys., 2023, 158, 124111.
     DOI: 10.1063/5.0137838
   
   with help from (in alphabetical order)
   P. Atkinson, C. Bannwarth, F. Bohle, G. Brandenburg, E. Caldeweyher
   M. Checinski, S. Dohm, S. Ehlert, S. Ehrlich, I. Gerasimov, C. Hölzer
   A. Katbashev, J. Kohn, J. Koopman, C. Lavigne, S. Lehtola, F. März, M. Müller,
   F. Musil, H. Neugebauer, J. Pisarek, C. Plett, P. Pracht, F. Pultar,
   J. Seibert, P. Shushkov, S. Spicher, M. Stahn, M. Steiner, T. Strunk,
   J. Stückrath, T. Rose, and J. Unsleber
   
 * started run on 2025/04/11 at 16:01:10.619     
   ID    Z sym.   atoms
    1    6 C      1-4, 6, 8
    2    8 O      5, 7
    3    1 H      9-20

           -------------------------------------------------
          |                Calculation Setup                |
           -------------------------------------------------

          program call               : /srv/scratch/z5358697/.xtb/bin/xtb gas.coord --gfn2 --sp --chrg 0 --norestart --parallel 1
          hostname                   : k124
          coordinate file            : gas.coord
          omp threads                :                     1


           -------------------------------------------------
          |                 G F N 2 - x T B                 |
           -------------------------------------------------

        Reference                      10.1021/acs.jctc.8b01176
      * Hamiltonian:
        H0-scaling (s, p, d)           1.850000    2.230000    2.230000
        zeta-weighting                 0.500000
      * Dispersion:
        s8                             2.700000
        a1                             0.520000
        a2                             5.000000
        s9                             5.000000
      * Repulsion:
        kExp                           1.500000    1.000000
        rExp                           1.000000
      * Coulomb:
        alpha                          2.000000
        third order                    shell-resolved
        anisotropic                    true
        a3                             3.000000
        a5                             4.000000
        cn-shift                       1.200000
        cn-exp                         4.000000
        max-rad                        5.000000


          ...................................................
          :                      SETUP                      :
          :.................................................:
          :  # basis functions                  44          :
          :  # atomic orbitals                  44          :
          :  # shells                           28          :
          :  # electrons                        48          :
          :  max. iterations                   250          :
          :  Hamiltonian                  GFN2-xTB          :
          :  restarted?                      false          :
          :  GBSA solvation                  false          :
          :  PC potential                    false          :
          :  electronic temp.          300.0000000     K    :
          :  accuracy                    1.0000000          :
          :  -> integral cutoff          0.2500000E+02      :
          :  -> integral neglect         0.1000000E-07      :
          :  -> SCF convergence          0.1000000E-05 Eh   :
          :  -> wf. convergence          0.1000000E-03 e    :
          :  Broyden damping             0.4000000          :
          :  net charge                          0          :
          :  unpaired electrons                  0          :
          ...................................................

 iter      E             dE          RMSdq      gap      omega  full diag
   1    -27.3560692 -0.273561E+02  0.373E+00    6.19       0.0  T
   2    -27.4262976 -0.702284E-01  0.193E+00    4.83       1.0  T
   3    -27.4300327 -0.373511E-02  0.110E+00    5.36       1.0  T
   4    -27.4322826 -0.224994E-02  0.166E-01    5.07       1.0  T
   5    -27.4325155 -0.232813E-03  0.685E-02    5.14       1.0  T
   6    -27.4325192 -0.369499E-05  0.178E-02    5.13       1.3  T
   7    -27.4325198 -0.640152E-06  0.624E-03    5.13       3.6  T
   8    -27.4325199 -0.975968E-07  0.175E-03    5.13      12.8  T
   9    -27.4325199 -0.757550E-08  0.868E-04    5.13      25.8  T
  10    -27.4325199 -0.218437E-08  0.189E-04    5.13     118.6  T

   *** convergence criteria satisfied after 10 iterations ***

         #    Occupation            Energy/Eh            Energy/eV
      -------------------------------------------------------------
         1        2.0000           -0.7413335             -20.1727
       ...           ...                  ...                  ...
        18        2.0000           -0.4722499             -12.8506
        19        2.0000           -0.4672911             -12.7156
        20        2.0000           -0.4465759             -12.1520
        21        2.0000           -0.4389944             -11.9456
        22        2.0000           -0.4339142             -11.8074
        23        2.0000           -0.4281064             -11.6494
        24        2.0000           -0.4148236             -11.2879 (HOMO)
        25                         -0.2262455              -6.1565 (LUMO)
        26                         -0.0009816              -0.0267
        27                          0.0782912               2.1304
        28                          0.1005911               2.7372
        29                          0.1257880               3.4229
       ...                                ...                  ...
        44                          0.6272633              17.0687
      -------------------------------------------------------------
                  HL-Gap            0.1885781 Eh            5.1315 eV
             Fermi-level           -0.3205345 Eh           -8.7222 eV

 SCC (total)                   0 d,  0 h,  0 min,  0.026 sec
 SCC setup                      ...        0 min,  0.000 sec (  0.702%)
 Dispersion                     ...        0 min,  0.000 sec (  0.475%)
 classical contributions        ...        0 min,  0.000 sec (  0.148%)
 integral evaluation            ...        0 min,  0.002 sec (  6.011%)
 iterations                     ...        0 min,  0.020 sec ( 74.084%)
 molecular gradient             ...        0 min,  0.005 sec ( 17.926%)
 printout                       ...        0 min,  0.000 sec (  0.593%)

         :::::::::::::::::::::::::::::::::::::::::::::::::::::
         ::                     SUMMARY                     ::
         :::::::::::::::::::::::::::::::::::::::::::::::::::::
         :: total energy             -27.116185839720 Eh    ::
         :: gradient norm              0.027125855125 Eh/a0 ::
         :: HOMO-LUMO gap              5.131472569649 eV    ::
         ::.................................................::
         :: SCC energy               -27.432449415424 Eh    ::
         :: -> isotropic ES            0.048176554324 Eh    ::
         :: -> anisotropic ES          0.002364515968 Eh    ::
         :: -> anisotropic XC          0.007653594266 Eh    ::
         :: -> dispersion             -0.012497318258 Eh    ::
         :: repulsion energy           0.316263575705 Eh    ::
         :: add. restraining           0.000000000000 Eh    ::
         :: total charge              -0.000000000000 e     ::
         :::::::::::::::::::::::::::::::::::::::::::::::::::::

           -------------------------------------------------
          |                Property Printout                |
           -------------------------------------------------

    * Orbital Energies and Occupations

         #    Occupation            Energy/Eh            Energy/eV
      -------------------------------------------------------------
         1        2.0000           -0.7413335             -20.1727
       ...           ...                  ...                  ...
        12        2.0000           -0.5236989             -14.2506
        13        2.0000           -0.5142799             -13.9943
        14        2.0000           -0.4953637             -13.4795
        15        2.0000           -0.4927791             -13.4092
        16        2.0000           -0.4866189             -13.2416
        17        2.0000           -0.4806368             -13.0788
        18        2.0000           -0.4722499             -12.8506
        19        2.0000           -0.4672911             -12.7156
        20        2.0000           -0.4465759             -12.1520
        21        2.0000           -0.4389944             -11.9456
        22        2.0000           -0.4339142             -11.8074
        23        2.0000           -0.4281064             -11.6494
        24        2.0000           -0.4148236             -11.2879 (HOMO)
        25                         -0.2262455              -6.1565 (LUMO)
        26                         -0.0009816              -0.0267
        27                          0.0782912               2.1304
        28                          0.1005911               2.7372
        29                          0.1257880               3.4229
        30                          0.1359381               3.6991
        31                          0.1479150               4.0250
        32                          0.1486941               4.0462
        33                          0.1599219               4.3517
        34                          0.1619339               4.4064
        35                          0.1851300               5.0376
       ...                                ...                  ...
        44                          0.6272633              17.0687
      -------------------------------------------------------------
                  HL-Gap            0.1885781 Eh            5.1315 eV
             Fermi-level           -0.3205345 Eh           -8.7222 eV

     #   Z          covCN         q      C6AA      α(0)
     1   6 C        3.751    -0.108    22.632     6.784
     2   6 C        3.800    -0.049    21.447     6.594
     3   6 C        3.800    -0.065    21.745     6.639
     4   6 C        3.692     0.071    19.564     6.329
     5   8 O        1.704    -0.263    18.360     5.785
     6   6 C        2.707     0.363    20.840     7.472
     7   8 O        0.856    -0.426    22.200     6.317
     8   6 C        3.754    -0.145    23.359     6.892
     9   1 H        0.925     0.035     2.515     2.480
    10   1 H        0.925     0.054     2.272     2.357
    11   1 H        0.925     0.033     2.543     2.494
    12   1 H        0.924     0.032     2.555     2.499
    13   1 H        0.924     0.032     2.554     2.499
    14   1 H        0.924     0.046     2.367     2.406
    15   1 H        0.924     0.045     2.389     2.417
    16   1 H        0.924     0.050     2.325     2.385
    17   1 H        0.924     0.068     2.107     2.270
    18   1 H        0.925     0.077     2.015     2.220
    19   1 H        0.925     0.076     2.019     2.222
    20   1 H        0.925     0.074     2.044     2.236

 Mol. C6AA /au·bohr⁶  :       3019.056364
 Mol. C8AA /au·bohr⁸  :      64042.648875
 Mol. α(0) /au        :         81.298179


Wiberg/Mayer (AO) data.
largest (>0.10) Wiberg bond orders for each atom

 ---------------------------------------------------------------------------
     #   Z sym  total        # sym  WBO       # sym  WBO       # sym  WBO
 ---------------------------------------------------------------------------
     1   6 C    3.995 --     2 C    1.020    11 H    0.988     9 H    0.987
                            10 H    0.982
     2   6 C    3.997 --     1 C    1.020     3 C    1.008    12 H    0.978
                            13 H    0.978
     3   6 C    3.994 --     2 C    1.008     4 C    1.000    14 H    0.976
                            15 H    0.973
     4   6 C    3.923 --     3 C    1.000    16 H    0.970    17 H    0.965
                             5 O    0.933
     5   8 O    2.318 --     6 C    1.151     4 C    0.933     7 O    0.175
     6   6 C    3.919 --     7 O    1.731     5 O    1.151     8 C    0.989
     7   8 O    2.021 --     6 C    1.731     5 O    0.175
     8   6 C    3.992 --     6 C    0.989    19 H    0.982    20 H    0.970
                            18 H    0.959
     9   1 H    0.999 --     1 C    0.987
    10   1 H    0.997 --     1 C    0.982
    11   1 H    0.999 --     1 C    0.988
    12   1 H    0.999 --     2 C    0.978
    13   1 H    0.999 --     2 C    0.978
    14   1 H    0.998 --     3 C    0.976
    15   1 H    0.997 --     3 C    0.973
    16   1 H    0.998 --     4 C    0.970
    17   1 H    0.995 --     4 C    0.965
    18   1 H    0.994 --     8 C    0.959
    19   1 H    0.994 --     8 C    0.982
    20   1 H    0.994 --     8 C    0.970
 ---------------------------------------------------------------------------

Topologies differ in total number of bonds
Writing topology from bond orders to xtbtopo.mol

molecular dipole:
                 x           y           z       tot (Debye)
 q only:       -0.118       0.742      -0.370
   full:       -0.056       0.862      -0.407       2.427
molecular quadrupole (traceless):
                xx          xy          yy          xz          yz          zz
 q only:        4.098       0.113      -4.152      -3.815       3.055       0.054
  q+dip:        4.176       0.538      -4.993      -3.289       3.700       0.817
   full:        4.415       0.589      -5.349      -3.099       4.000       0.934


           -------------------------------------------------
          | TOTAL ENERGY              -27.116185839720 Eh   |
          | GRADIENT NORM               0.027125855125 Eh/α |
          | HOMO-LUMO GAP               5.131472569649 eV   |
           -------------------------------------------------

------------------------------------------------------------------------
 * finished run on 2025/04/11 at 16:01:10.680     
------------------------------------------------------------------------
 total:
 * wall-time:     0 d,  0 h,  0 min,  0.061 sec
 *  cpu-time:     0 d,  0 h,  0 min,  0.021 sec
 * ratio c/w:     0.343 speedup
 SCF:
 * wall-time:     0 d,  0 h,  0 min,  0.027 sec
 *  cpu-time:     0 d,  0 h,  0 min,  0.013 sec
 * ratio c/w:     0.487 speedup

