      -----------------------------------------------------------      
     |                   =====================                   |     
     |                           x T B                           |     
     |                   =====================                   |     
     |                         S. Grimme                         |     
     |          Mulliken Center for Theoretical Chemistry        |     
     |                    University of Bonn                     |     
      -----------------------------------------------------------      

   * xtb version 6.7.1 (edcfbbe) compiled by 'albert@albert-system' on 2024-07-22

   xtb is free software: you can redistribute it and/or modify it under
   the terms of the GNU Lesser General Public License as published by
   the Free Software Foundation, either version 3 of the License, or
   (at your option) any later version.
   
   xtb is distributed in the hope that it will be useful,
   but WITHOUT ANY WARRANTY; without even the implied warranty of
   MERCHANTABILITY or FITNESS FOR A PARTICULAR PURPOSE.  See the
   GNU Lesser General Public License for more details.
   
   Cite this work as:
   * C. Bannwarth, E. Caldeweyher, S. Ehlert, A. Hansen, P. Pracht,
     J. Seibert, S. Spicher, S. Grimme, WIREs Comput. Mol. Sci., 2020, 11,
     e01493. DOI: 10.1002/wcms.1493
   
   for GFN2-xTB:
   * C. Bannwarth, S. Ehlert and S. Grimme., J. Chem. Theory Comput., 2019,
     15, 1652-1671. DOI: 10.1021/acs.jctc.8b01176
   for GFN1-xTB:
   * S. Grimme, C. Bannwarth, P. Shushkov, J. Chem. Theory Comput., 2017,
     13, 1989-2009. DOI: 10.1021/acs.jctc.7b00118
   for GFN0-xTB:
   * P. Pracht, E. Caldeweyher, S. Ehlert, S. Grimme, ChemRxiv, 2019, preprint.
     DOI: 10.26434/chemrxiv.8326202.v1
   for GFN-FF:
   * S. Spicher and S. Grimme, Angew. Chem. Int. Ed., 2020, 59, 15665-15673.
     DOI: 10.1002/anie.202004239
   
   for ALPB and GBSA implicit solvation:
   * S. Ehlert, M. Stahn, S. Spicher, S. Grimme, J. Chem. Theory Comput.,
     2021, 17, 4250-4261. DOI: 10.1021/acs.jctc.1c00471
   
   for ddCOSMO and CPCM-X implicit solvation:
   * M. Stahn, S. Ehlert, S. Grimme, J. Phys. Chem. A,
     2023, XX, XXXX-XXXX. DOI: 10.1021/acs.jpca.3c04382
   
   for DFT-D4:
   * E. Caldeweyher, C. Bannwarth and S. Grimme, J. Chem. Phys., 2017,
     147, 034112. DOI: 10.1063/1.4993215
   * E. Caldeweyher, S. Ehlert, A. Hansen, H. Neugebauer, S. Spicher,
     C. Bannwarth and S. Grimme, J. Chem. Phys., 2019, 150, 154122.
     DOI: 10.1063/1.5090222
   * E. Caldeweyher, J.-M. Mewes, S. Ehlert and S. Grimme, Phys. Chem. Chem. Phys.
     2020, 22, 8499-8512. DOI: 10.1039/D0CP00502A
   
   for sTDA-xTB:
   * S. Grimme and C. Bannwarth, J. Chem. Phys., 2016, 145, 054103.
     DOI: 10.1063/1.4959605
   
   in the mass-spec context:
   * V. Asgeirsson, C. Bauer and S. Grimme, Chem. Sci., 2017, 8, 4879.
     DOI: 10.1039/c7sc00601b
   * J. Koopman and S. Grimme, ACS Omega 2019, 4, 12, 15120-15133.
     DOI: 10.1021/acsomega.9b02011
   
   for metadynamics refer to:
   * S. Grimme, J. Chem. Theory Comput., 2019, 155, 2847-2862
     DOI: 10.1021/acs.jctc.9b00143
   
   for SPH calculations refer to:
   * S. Spicher and S. Grimme, J. Chem. Theory Comput., 2021, 17, 1701-1714
     DOI: 10.1021/acs.jctc.0c01306
   
   for ONIOM refer to:
   * C. Plett, A. Katbashev, S. Ehlert, S. Grimme, M. Bursch,
     Phys. Chem. Chem. Phys., 2023, 25, 17860-17868. DOI: 10.1039/D3CP02178E
   
   for DIPRO refer to:
   * J. Kohn, N. Gildemeister, S. Grimme, D. Fazzi, A. Hansen,
     J. Chem. Phys., 2023, just accepted.
   
   for PTB refer to:
   * S. Grimme, M. Mueller, A. Hansen, J. Chem. Phys., 2023, 158, 124111.
     DOI: 10.1063/5.0137838
   
   with help from (in alphabetical order)
   P. Atkinson, C. Bannwarth, F. Bohle, G. Brandenburg, E. Caldeweyher
   M. Checinski, S. Dohm, S. Ehlert, S. Ehrlich, I. Gerasimov, C. Hölzer
   A. Katbashev, J. Kohn, J. Koopman, C. Lavigne, S. Lehtola, F. März, M. Müller,
   F. Musil, H. Neugebauer, J. Pisarek, C. Plett, P. Pracht, F. Pultar,
   J. Seibert, P. Shushkov, S. Spicher, M. Stahn, M. Steiner, T. Strunk,
   J. Stückrath, T. Rose, and J. Unsleber
   
 * started run on 2025/04/11 at 16:19:09.660     
   ID    Z sym.   atoms
    1    6 C      1, 3-8, 11, 13
    2    8 O      2, 9, 10, 14
    3   17 Cl     12
    4    1 H      15-23

           -------------------------------------------------
          |                Calculation Setup                |
           -------------------------------------------------

          program call               : /srv/scratch/z5358697/.xtb/bin/xtb xtb_rrho.coord --gfn2 --bhess vtight --chrg 0 --enso --norestart -I rrho-xcontrol-inp --parallel 1 --alpb water
          hostname                   : k071
          coordinate file            : xtb_rrho.coord
          omp threads                :                     1


           -------------------------------------------------
          |                 G F N 2 - x T B                 |
           -------------------------------------------------

        Reference                      10.1021/acs.jctc.8b01176
      * Hamiltonian:
        H0-scaling (s, p, d)           1.850000    2.230000    2.230000
        zeta-weighting                 0.500000
      * Dispersion:
        s8                             2.700000
        a1                             0.520000
        a2                             5.000000
        s9                             5.000000
      * Repulsion:
        kExp                           1.500000    1.000000
        rExp                           1.000000
      * Coulomb:
        alpha                          2.000000
        third order                    shell-resolved
        anisotropic                    true
        a3                             3.000000
        a5                             4.000000
        cn-shift                       1.200000
        cn-exp                         4.000000
        max-rad                        5.000000

      * Solvation model:               ALPB
        Solvent                        water
        Parameter file                 internal GFN2-xTB/ALPB
        Dielectric constant                8.0200E+01
        Reference state                gsolv [1 M gas/solution]
        Free energy shift                  1.0808E-03 Eh       6.7819E-01 kcal/mol
        Temperature                        2.9815E+02 K
        Density                            1.0000E+00 kg/L
        Solvent mass                       1.8000E+01 g/mol
        Interaction kernel             P16
        Born radius scaling (c1)           1.4744E+00
        Born radii integrator          GBOBC
        Born offset                        0.0000E+00 a0       0.0000E+00 AA
        H-bond correction              true
        Ion screening                  false
        Surface tension                    1.0000E-05 Eh       1.5569E+01 dyn/cm
        Grid points                               974 per atom

          ...................................................
          :                      SETUP                      :
          :.................................................:
          :  # basis functions                  71          :
          :  # atomic orbitals                  70          :
          :  # shells                           38          :
          :  # electrons                        76          :
          :  max. iterations                   250          :
          :  Hamiltonian                  GFN2-xTB          :
          :  restarted?                      false          :
          :  GBSA solvation                   true          :
          :  PC potential                    false          :
          :  electronic temp.          300.0000000     K    :
          :  accuracy                    1.0000000          :
          :  -> integral cutoff          0.2500000E+02      :
          :  -> integral neglect         0.1000000E-07      :
          :  -> SCF convergence          0.1000000E-05 Eh   :
          :  -> wf. convergence          0.1000000E-03 e    :
          :  Broyden damping             0.4000000          :
          :  net charge                          0          :
          :  unpaired electrons                  0          :
          ...................................................

 iter      E             dE          RMSdq      gap      omega  full diag
   1    -45.0312307 -0.450312E+02  0.552E+00    2.60       0.0  T
   2    -45.0899062 -0.586754E-01  0.274E+00    2.31       1.0  T
   3    -45.0896768  0.229411E-03  0.118E+00    2.53       1.0  T
   4    -45.0934364 -0.375964E-02  0.248E-01    2.38       1.0  T
   5    -45.0938858 -0.449384E-03  0.138E-01    2.41       1.0  T
   6    -45.0939380 -0.522439E-04  0.958E-02    2.41       1.0  T
   7    -45.0940055 -0.674189E-04  0.568E-02    2.40       1.0  T
   8    -45.0940292 -0.237817E-04  0.331E-02    2.40       1.0  T
   9    -45.0940386 -0.935884E-05  0.186E-02    2.40       1.1  T
  10    -45.0940428 -0.419749E-05  0.700E-03    2.40       3.0  T
  11    -45.0940430 -0.255189E-06  0.397E-03    2.40       5.3  T
  12    -45.0940431 -0.838455E-07  0.247E-03    2.40       8.4  T
  13    -45.0940432 -0.468942E-07  0.162E-03    2.40      12.8  T
  14    -45.0940432 -0.211427E-07  0.848E-04    2.40      24.6  T
  15    -45.0940432 -0.568014E-08  0.288E-04    2.40      72.5  T

   *** convergence criteria satisfied after 15 iterations ***

         #    Occupation            Energy/Eh            Energy/eV
      -------------------------------------------------------------
         1        2.0000           -1.0692502             -29.0958
       ...           ...                  ...                  ...
        32        2.0000           -0.4607860             -12.5386
        33        2.0000           -0.4422126             -12.0332
        34        2.0000           -0.4373030             -11.8996
        35        2.0000           -0.4289549             -11.6725
        36        2.0000           -0.4139656             -11.2646
        37        2.0000           -0.4088333             -11.1249
        38        2.0000           -0.3929035             -10.6914 (HOMO)
        39                         -0.3048601              -8.2957 (LUMO)
        40                         -0.2487424              -6.7686
        41                         -0.2114704              -5.7544
        42                         -0.1570463              -4.2734
        43                         -0.1176611              -3.2017
       ...                                ...                  ...
        70                          0.6375413              17.3484
      -------------------------------------------------------------
                  HL-Gap            0.0880433 Eh            2.3958 eV
             Fermi-level           -0.3488818 Eh           -9.4936 eV

 SCC (total)                   0 d,  0 h,  0 min,  0.034 sec
 SCC setup                      ...        0 min,  0.001 sec (  4.349%)
 Dispersion                     ...        0 min,  0.000 sec (  0.534%)
 classical contributions        ...        0 min,  0.000 sec (  0.089%)
 integral evaluation            ...        0 min,  0.004 sec ( 12.853%)
 iterations                     ...        0 min,  0.017 sec ( 51.334%)
 molecular gradient             ...        0 min,  0.010 sec ( 30.222%)
 printout                       ...        0 min,  0.000 sec (  0.564%)

         :::::::::::::::::::::::::::::::::::::::::::::::::::::
         ::                     SUMMARY                     ::
         :::::::::::::::::::::::::::::::::::::::::::::::::::::
         :: total energy             -44.657300346898 Eh    ::
         :: total w/o Gsasa/hb       -44.655048573481 Eh    ::
         :: gradient norm              0.037555329786 Eh/a0 ::
         :: HOMO-LUMO gap              2.395781170891 eV    ::
         ::.................................................::
         :: SCC energy               -45.093953073431 Eh    ::
         :: -> isotropic ES            0.096173285196 Eh    ::
         :: -> anisotropic ES          0.001834766832 Eh    ::
         :: -> anisotropic XC          0.002696787604 Eh    ::
         :: -> dispersion             -0.022407819551 Eh    ::
         :: -> Gsolv                  -0.021351324497 Eh    ::
         ::    -> Gelec               -0.019099551080 Eh    ::
         ::    -> Gsasa                0.003267835717 Eh    ::
         ::    -> Ghb                 -0.006600368831 Eh    ::
         ::    -> Gshift               0.001080759698 Eh    ::
         :: repulsion energy           0.436652726533 Eh    ::
         :: add. restraining           0.000000000000 Eh    ::
         :: total charge               0.000000000000 e     ::
         :::::::::::::::::::::::::::::::::::::::::::::::::::::

metadynamics with 1 initial structures loaded
           -------------------------------------------------
          |           Optimal kpush determination           |
           -------------------------------------------------
      ----------------------------------------------------------- 
     |                   =====================                   |
     |                        A N C O P T                        |
     |                   =====================                   |
     |               Approximate Normal Coordinate               |
     |                Rational Function Optimizer                |
      ----------------------------------------------------------- 
target rmsd / Å         0.100000
unbiased initial rmsd   0.154154
 
iter. min.        max.        rmsd       kpush
      ----------------------------------------------------------- 
     |                   =====================                   |
     |                        A N C O P T                        |
     |                   =====================                   |
     |               Approximate Normal Coordinate               |
     |                Rational Function Optimizer                |
      ----------------------------------------------------------- 
 1    0.000000    1.045455    0.013718   -0.522727
      ----------------------------------------------------------- 
     |                   =====================                   |
     |                        A N C O P T                        |
     |                   =====================                   |
     |               Approximate Normal Coordinate               |
     |                Rational Function Optimizer                |
      ----------------------------------------------------------- 
 2    0.000000    0.522727    0.019481   -0.261364
      ----------------------------------------------------------- 
     |                   =====================                   |
     |                        A N C O P T                        |
     |                   =====================                   |
     |               Approximate Normal Coordinate               |
     |                Rational Function Optimizer                |
      ----------------------------------------------------------- 
 3    0.000000    0.261364    0.027764   -0.130682
      ----------------------------------------------------------- 
     |                   =====================                   |
     |                        A N C O P T                        |
     |                   =====================                   |
     |               Approximate Normal Coordinate               |
     |                Rational Function Optimizer                |
      ----------------------------------------------------------- 
 4    0.000000    0.130682    0.039545   -0.065341
      ----------------------------------------------------------- 
     |                   =====================                   |
     |                        A N C O P T                        |
     |                   =====================                   |
     |               Approximate Normal Coordinate               |
     |                Rational Function Optimizer                |
      ----------------------------------------------------------- 
 5    0.000000    0.065341    0.055900   -0.032670
      ----------------------------------------------------------- 
     |                   =====================                   |
     |                        A N C O P T                        |
     |                   =====================                   |
     |               Approximate Normal Coordinate               |
     |                Rational Function Optimizer                |
      ----------------------------------------------------------- 
 6    0.000000    0.032670    0.075537   -0.016335
      ----------------------------------------------------------- 
     |                   =====================                   |
     |                        A N C O P T                        |
     |                   =====================                   |
     |               Approximate Normal Coordinate               |
     |                Rational Function Optimizer                |
      ----------------------------------------------------------- 
 7    0.000000    0.016335    0.094985   -0.008168
      ----------------------------------------------------------- 
     |                   =====================                   |
     |                        A N C O P T                        |
     |                   =====================                   |
     |               Approximate Normal Coordinate               |
     |                Rational Function Optimizer                |
      ----------------------------------------------------------- 
 8    0.000000    0.008168    0.111325   -0.004084
      ----------------------------------------------------------- 
     |                   =====================                   |
     |                        A N C O P T                        |
     |                   =====================                   |
     |               Approximate Normal Coordinate               |
     |                Rational Function Optimizer                |
      ----------------------------------------------------------- 
 9    0.004084    0.008168    0.102156   -0.006126
      ----------------------------------------------------------- 
     |                   =====================                   |
     |                        A N C O P T                        |
     |                   =====================                   |
     |               Approximate Normal Coordinate               |
     |                Rational Function Optimizer                |
      ----------------------------------------------------------- 
10    0.006126    0.008168    0.098482   -0.007147
final kpush: -0.007147
           -------------------------------------------------
          |            Biased Numerical Hessian             |
           -------------------------------------------------
kpush                :  -0.00715
alpha                :   1.00000
step length          :   0.00500
SCC accuracy         :   0.30000
Hessian scale factor :   1.00000
frozen atoms in %    :   0.00000    0
RMS gradient         :   0.00005
estimated CPU  time      0.04 min
estimated wall time      0.04 min

writing file <hessian>.

 projected vibrational frequencies (cm⁻¹)
eigval :       -0.00    -0.00    -0.00    -0.00     0.00     0.00
eigval :       60.43    73.33    88.99    98.65   139.98   168.26
eigval :      150.33   171.40   201.58   212.21   225.97   257.51
eigval :      271.79   328.32   350.11   358.59   391.64   421.94
eigval :      514.66   535.43   548.77   580.66   616.78   632.07
eigval :      679.76   728.61   819.03   861.03   911.23   930.58
eigval :      998.75  1046.79  1066.15  1108.04  1117.20  1138.16
eigval :     1143.19  1147.61  1151.85  1220.35  1316.02  1344.42
eigval :     1377.91  1385.26  1388.78  1417.35  1444.14  1446.25
eigval :     1450.18  1459.79  1466.46  1526.77  1548.25  1664.80
eigval :     2780.57  2955.70  2959.26  2967.46  2998.74  3044.18
eigval :     3044.46  3118.91  3304.02
           -------------------------------------------------
          |                Property Printout                |
           -------------------------------------------------

    * Orbital Energies and Occupations

         #    Occupation            Energy/Eh            Energy/eV
      -------------------------------------------------------------
         1        2.0000           -1.0700000             -29.1162
       ...           ...                  ...                  ...
        26        2.0000           -0.5015537             -13.6480
        27        2.0000           -0.4976714             -13.5423
        28        2.0000           -0.4923767             -13.3983
        29        2.0000           -0.4786898             -13.0258
        30        2.0000           -0.4746205             -12.9151
        31        2.0000           -0.4652295             -12.6595
        32        2.0000           -0.4592719             -12.4974
        33        2.0000           -0.4424293             -12.0391
        34        2.0000           -0.4403173             -11.9816
        35        2.0000           -0.4297976             -11.6954
        36        2.0000           -0.4098982             -11.1539
        37        2.0000           -0.4035049             -10.9799
        38        2.0000           -0.3905630             -10.6278 (HOMO)
        39                         -0.3024011              -8.2288 (LUMO)
        40                         -0.2456896              -6.6856
        41                         -0.2079852              -5.6596
        42                         -0.1512093              -4.1146
        43                         -0.1139863              -3.1017
        44                         -0.0084477              -0.2299
        45                          0.0004597               0.0125
        46                          0.0058315               0.1587
        47                          0.0066287               0.1804
        48                          0.0171527               0.4667
        49                          0.0306530               0.8341
       ...                                ...                  ...
        70                          0.6528088              17.7638
      -------------------------------------------------------------
                  HL-Gap            0.0881619 Eh            2.3990 eV
             Fermi-level           -0.3464821 Eh           -9.4283 eV

     #   Z          covCN         q      C6AA      α(0)
     1   6 C        3.644     0.003    20.879     6.568
     2   8 O        1.705    -0.257    18.251     5.768
     3   6 C        2.857     0.130    25.155     8.221
     4   6 C        2.925    -0.078    29.936     8.973
     5   6 C        2.992    -0.035    28.866     8.813
     6   6 C        2.880     0.078    26.254     8.400
     7   6 C        2.898     0.096    25.866     8.339
     8   6 C        2.846     0.129    25.179     8.224
     9   8 O        1.659    -0.381    20.477     6.109
    10   8 O        1.702    -0.307    19.123     5.904
    11   6 C        3.645     0.012    20.716     6.541
    12  17 Cl       0.958    -0.153   103.927    15.596
    13   6 C        2.769     0.215    23.451     7.931
    14   8 O        0.857    -0.419    22.069     6.298
    15   1 H        0.924     0.068     2.104     2.268
    16   1 H        0.925     0.099     1.796     2.096
    17   1 H        0.924     0.068     2.112     2.273
    18   1 H        0.926     0.093     1.853     2.128
    19   1 H        0.803     0.397     0.490     1.100
    20   1 H        0.925     0.057     2.234     2.338
    21   1 H        0.925     0.092     1.856     2.130
    22   1 H        0.924     0.058     2.225     2.333
    23   1 H        0.922     0.035     2.515     2.480

 Mol. C6AA /au·bohr⁶  :       7246.043697
 Mol. C8AA /au·bohr⁸  :     184808.410630
 Mol. α(0) /au        :        130.830897


Wiberg/Mayer (AO) data.
largest (>0.10) Wiberg bond orders for each atom

 ---------------------------------------------------------------------------
     #   Z sym  total        # sym  WBO       # sym  WBO       # sym  WBO
 ---------------------------------------------------------------------------
     1   6 C    3.915 --    17 H    0.975    15 H    0.975    16 H    0.975
                             2 O    0.960
     2   8 O    2.252 --     3 C    1.098     1 C    0.960
     3   6 C    3.951 --     4 C    1.425     8 C    1.239     2 O    1.098
     4   6 C    3.981 --     3 C    1.425     5 C    1.314    18 H    0.954
     5   6 C    3.983 --     6 C    1.323     4 C    1.314    13 C    1.112
     6   6 C    3.916 --     7 C    1.367     5 C    1.323    12 Cl   0.989
     7   6 C    3.948 --     6 C    1.367     8 C    1.319    10 O    1.026
     8   6 C    3.957 --     7 C    1.319     3 C    1.239     9 O    1.151
     9   8 O    2.151 --     8 C    1.151    19 H    0.812
    10   8 O    2.120 --     7 C    1.026    11 C    0.945
    11   6 C    3.920 --    22 H    0.981    20 H    0.978    21 H    0.976
                            10 O    0.945
    12  17 Cl   1.150 --     6 C    0.989
    13   6 C    3.913 --    14 O    1.787     5 C    1.112    23 H    0.931
    14   8 O    2.011 --    13 C    1.787
    15   1 H    0.995 --     1 C    0.975
    16   1 H    0.990 --     1 C    0.975
    17   1 H    0.995 --     1 C    0.975
    18   1 H    0.991 --     4 C    0.954
    19   1 H    0.842 --     9 O    0.812
    20   1 H    0.997 --    11 C    0.978
    21   1 H    0.991 --    11 C    0.976
    22   1 H    0.997 --    11 C    0.981
    23   1 H    0.998 --    13 C    0.931
 ---------------------------------------------------------------------------

Topologies differ in total number of bonds
Writing topology from bond orders to xtbtopo.mol

molecular dipole:
                 x           y           z       tot (Debye)
 q only:       -2.212       1.672      -0.537
   full:       -1.846       1.220      -0.535       5.786
molecular quadrupole (traceless):
                xx          xy          yy          xz          yz          zz
 q only:        4.017      22.922      -3.107      -1.997      -2.182      -0.910
  q+dip:        2.888      23.341      -2.312      -0.815      -2.389      -0.576
   full:        2.645      23.769      -4.146      -1.298      -2.897       1.501

           -------------------------------------------------
          |                Geometry Summary                 |
           -------------------------------------------------

      molecular mass/u    :      216.6186471
   center of mass at/Å    :        0.0140275      -0.0088807       0.0149358
  moments of inertia/u·Å² :        0.6405299E+03   0.9586900E+03   0.1557857E+04
rotational constants/cm⁻¹ :        0.2631826E-01   0.1758403E-01   0.1082104E-01

 * 21 selected distances

     #   Z          #   Z                                           value/Å
     1   6 C        2   8 O                                       1.4185675
     2   8 O        3   6 C                                       1.3505915
     3   6 C        4   6 C                                       1.3793809
     4   6 C        5   6 C                                       1.4044189
     5   6 C        6   6 C                                       1.4010827
     6   6 C        7   6 C                                       1.3919213
     3   6 C        8   6 C                                       1.4132592
     7   6 C        8   6 C                                       1.4009999
     8   6 C        9   8 O                                       1.3362293
     7   6 C       10   8 O                                       1.3777380
    10   8 O       11   6 C                                       1.4289160
     6   6 C       12  17 Cl                                      1.7280507 (max)
    13   6 C       14   8 O                                       1.2161124
     1   6 C       15   1 H                                       1.0920943
     1   6 C       16   1 H                                       1.0870126
     1   6 C       17   1 H                                       1.0920847
     4   6 C       18   1 H                                       1.0772143
     9   8 O       19   1 H                                       0.9778039 (min)
    11   6 C       20   1 H                                       1.0897731
    11   6 C       21   1 H                                       1.0865857
    11   6 C       22   1 H                                       1.0927033

 * 5 distinct bonds (by element types)

   Z      Z             #   av. dist./Å        max./Å        min./Å
   1 H    6 C           7     1.0882097     1.0927033     1.0772143
   6 C    6 C           6     1.3985105     1.4132592     1.3793809
   1 H    8 O           1     0.9778039     0.9778039     0.9778039
   6 C    8 O           6     1.3546925     1.4289160     1.2161124
   6 C   17 Cl          1     1.7280507     1.7280507     1.7280507

           -------------------------------------------------
          |               Frequency Printout                |
           -------------------------------------------------
 projected vibrational frequencies (cm⁻¹)
eigval :       -0.00    -0.00    -0.00    -0.00     0.00     0.00
eigval :       60.43    73.33    88.99    98.65   139.98   168.26
eigval :      150.33   171.40   201.58   212.21   225.97   257.51
eigval :      271.79   328.32   350.11   358.59   391.64   421.94
eigval :      514.66   535.43   548.77   580.66   616.78   632.07
eigval :      679.76   728.61   819.03   861.03   911.23   930.58
eigval :      998.75  1046.79  1066.15  1108.04  1117.20  1138.16
eigval :     1143.19  1147.61  1151.85  1220.35  1316.02  1344.42
eigval :     1377.91  1385.26  1388.78  1417.35  1444.14  1446.25
eigval :     1450.18  1459.79  1466.46  1526.77  1548.25  1664.80
eigval :     2780.57  2955.70  2959.26  2967.46  2998.74  3044.18
eigval :     3044.46  3118.91  3304.02
 reduced masses (amu)
   1: 12.98   2: 19.18   3: 14.96   4: 17.03   5: 17.66   6: 15.69   7: 21.93   8: 10.32
   9: 11.25  10: 13.43  11: 12.94  12: 12.26  13:  6.00  14:  9.67  15: 26.11  16: 11.93
  17:  8.10  18:  8.29  19: 15.12  20: 19.37  21: 11.00  22: 12.94  23: 11.84  24: 15.23
  25: 13.58  26: 10.17  27:  5.07  28: 11.66  29: 12.29  30: 13.44  31: 11.92  32: 11.67
  33:  3.58  34: 12.20  35:  6.28  36: 11.43  37: 12.22  38: 12.52  39: 11.31  40:  3.65
  41:  3.50  42:  7.06  43:  5.64  44:  6.40  45:  9.47  46:  6.62  47: 10.69  48: 10.33
  49:  6.32  50:  2.84  51:  4.43  52:  8.10  53: 10.15  54:  2.87  55:  1.54  56:  1.76
  57:  1.58  58: 11.76  59: 11.57  60: 13.40  61:  1.68  62:  1.76  63:  1.97  64:  1.43
  65:  1.62  66:  1.72  67:  1.74  68:  1.83  69:  1.86
 IR intensities (km·mol⁻¹)
   1:  0.26   2:  0.13   3:  0.67   4:  0.46   5:  0.48   6:  0.51   7:  2.58   8:  2.96
   9:  2.57  10:  9.51  11: 12.39  12:  5.27  13:  0.98  14:  4.48  15:  1.78  16:  6.75
  17:  2.15  18:  5.04  19: 11.52  20:  5.99  21:  0.80  22:  6.36  23:  1.42  24:  0.66
  25:  7.32  26: 67.48  27:177.78  28: 17.19  29: 13.55  30:  4.00  31:  2.19  32:153.07
  33: 23.64  34: 75.57  35:  0.24  36: 13.98  37: 36.33  38:103.77  39:323.53  40:  1.87
  41:  8.50  42:494.16  43: 31.14  44:145.15  45:228.33  46: 47.61  47:472.84  48:747.75
  49:120.86  50: 28.97  51: 86.93  52:152.70  53:711.37  54:158.46  55: 12.23  56: 11.29
  57:  8.32  58: 48.27  59:177.69  60:683.21  61:214.62  62: 38.52  63: 31.79  64: 34.53
  65: 32.45  66:  4.95  67:  7.61  68:  2.86  69:322.50
 Raman intensities (Ä⁴*amu⁻¹)
   1:  0.00   2:  0.00   3:  0.00   4:  0.00   5:  0.00   6:  0.00   7:  0.00   8:  0.00
   9:  0.00  10:  0.00  11:  0.00  12:  0.00  13:  0.00  14:  0.00  15:  0.00  16:  0.00
  17:  0.00  18:  0.00  19:  0.00  20:  0.00  21:  0.00  22:  0.00  23:  0.00  24:  0.00
  25:  0.00  26:  0.00  27:  0.00  28:  0.00  29:  0.00  30:  0.00  31:  0.00  32:  0.00
  33:  0.00  34:  0.00  35:  0.00  36:  0.00  37:  0.00  38:  0.00  39:  0.00  40:  0.00
  41:  0.00  42:  0.00  43:  0.00  44:  0.00  45:  0.00  46:  0.00  47:  0.00  48:  0.00
  49:  0.00  50:  0.00  51:  0.00  52:  0.00  53:  0.00  54:  0.00  55:  0.00  56:  0.00
  57:  0.00  58:  0.00  59:  0.00  60:  0.00  61:  0.00  62:  0.00  63:  0.00  64:  0.00
  65:  0.00  66:  0.00  67:  0.00  68:  0.00  69:  0.00
 output can be read by thermo (or use thermo option).
 writing <g98.out> molden fake output.
 recommended (thermochemical) frequency scaling factor: 1.0
           -------------------------------------------------
          |             Thermodynamic Functions             |
           -------------------------------------------------

Molecule has no symmetry elements
It seems to be the C1 point group
c1  symmetry found (for desy threshold:  0.10E+00) used in thermo

          ...................................................
          :                      SETUP                      :
          :.................................................:
          :  # frequencies                          63      :
          :  # imaginary freq.                       0      :
          :  linear?                             false      :
          :  only rotor calc.                    false      :
          :  symmetry                               c1      :
          :  rotational number                       1      :
          :  scaling factor                  1.0000000      :
          :  rotor cutoff                    0.0000000 cm⁻¹ :
          :  imag. cutoff                 -100.0000000 cm⁻¹ :
          :.................................................:

    mode    ω/cm⁻¹     T·S(HO)/kcal·mol⁻¹    T·S(FR)/kcal·mol⁻¹   T·S(vib)
   ------------------------------------------------------------------------
       1     60.43    -1.32475 (100.00%)    -1.00037 (  0.00%)    -1.32475
       2     73.33    -1.21109 (100.00%)    -0.94306 (  0.00%)    -1.21109
       3     88.99    -1.09781 (100.00%)    -0.88570 (  0.00%)    -1.09781
       4     98.65    -1.03781 (100.00%)    -0.85519 (  0.00%)    -1.03781
       5    139.98    -0.83606 (100.00%)    -0.75155 (  0.00%)    -0.83606
       6    168.26    -0.73191 (100.00%)    -0.69704 (  0.00%)    -0.73191
       7    150.33    -0.79549 (100.00%)    -0.73042 (  0.00%)    -0.79549
       8    171.40    -0.72156 (100.00%)    -0.69157 (  0.00%)    -0.72156
       9    201.58    -0.63166 (100.00%)    -0.64351 (  0.00%)    -0.63166
      10    212.21    -0.60364 (100.00%)    -0.62830 (  0.00%)    -0.60364
      11    225.97    -0.56968 (100.00%)    -0.60968 (  0.00%)    -0.56968
      12    257.51    -0.50048 (100.00%)    -0.57098 (  0.00%)    -0.50048
      13    271.79    -0.47251 (100.00%)    -0.55499 (  0.00%)    -0.47251
   ------------------------------------------------------------------------

   temp. (K)  partition function   enthalpy   heat capacity  entropy
                                   cal/mol     cal/K/mol   cal/K/mol   J/K/mol
 298.15  VIB  0.423E+05             7364.258     46.392     45.868
         ROT  0.236E+07              888.752      2.981     32.145
         INT  0.999E+11             8253.010     49.373     78.013
         TR   0.308E+28             1481.254      4.968     42.003
         TOT                        9734.2644    54.3414   120.0156   502.1451

       T/K    H(0)-H(T)+PV         H(T)/Eh          T*S/Eh         G(T)/Eh
   ------------------------------------------------------------------------
    298.15    0.155125E-01    0.176983E+00    0.570233E-01    0.119960E+00
   ------------------------------------------------------------------------

         :::::::::::::::::::::::::::::::::::::::::::::::::::::
         ::                  THERMODYNAMIC                  ::
         :::::::::::::::::::::::::::::::::::::::::::::::::::::
         :: total free energy         -44.547449406291 Eh   ::
         ::.................................................::
         :: total energy              -44.667409255575 Eh   ::
         :: zero point energy           0.161470575872 Eh   ::
         :: G(RRHO) w/o ZPVE           -0.041510726588 Eh   ::
         :: G(RRHO) contrib.            0.119959849284 Eh   ::
         :::::::::::::::::::::::::::::::::::::::::::::::::::::

optimized geometry written to: xtbopt.coord


           -------------------------------------------------
          | TOTAL ENERGY              -44.667409255575 Eh   |
          | TOTAL ENTHALPY            -44.490426141962 Eh   |
          | TOTAL FREE ENERGY         -44.547449406291 Eh   |
          | GRADIENT NORM               0.000052729389 Eh/α |
          | HOMO-LUMO GAP               2.399008136993 eV   |
           -------------------------------------------------

------------------------------------------------------------------------
 * finished run on 2025/04/11 at 16:19:16.927     
------------------------------------------------------------------------
 total:
 * wall-time:     0 d,  0 h,  0 min,  7.267 sec
 *  cpu-time:     0 d,  0 h,  0 min,  7.077 sec
 * ratio c/w:     0.974 speedup
 SCF:
 * wall-time:     0 d,  0 h,  0 min,  0.034 sec
 *  cpu-time:     0 d,  0 h,  0 min,  0.034 sec
 * ratio c/w:     0.989 speedup
 analytical hessian:
 * wall-time:     0 d,  0 h,  0 min,  2.616 sec
 *  cpu-time:     0 d,  0 h,  0 min,  2.600 sec
 * ratio c/w:     0.994 speedup

