      -----------------------------------------------------------      
     |                   =====================                   |     
     |                           x T B                           |     
     |                   =====================                   |     
     |                         S. Grimme                         |     
     |          Mulliken Center for Theoretical Chemistry        |     
     |                    University of Bonn                     |     
      -----------------------------------------------------------      

   * xtb version 6.7.1 (edcfbbe) compiled by 'albert@albert-system' on 2024-07-22

   xtb is free software: you can redistribute it and/or modify it under
   the terms of the GNU Lesser General Public License as published by
   the Free Software Foundation, either version 3 of the License, or
   (at your option) any later version.
   
   xtb is distributed in the hope that it will be useful,
   but WITHOUT ANY WARRANTY; without even the implied warranty of
   MERCHANTABILITY or FITNESS FOR A PARTICULAR PURPOSE.  See the
   GNU Lesser General Public License for more details.
   
   Cite this work as:
   * C. Bannwarth, E. Caldeweyher, S. Ehlert, A. Hansen, P. Pracht,
     J. Seibert, S. Spicher, S. Grimme, WIREs Comput. Mol. Sci., 2020, 11,
     e01493. DOI: 10.1002/wcms.1493
   
   for GFN2-xTB:
   * C. Bannwarth, S. Ehlert and S. Grimme., J. Chem. Theory Comput., 2019,
     15, 1652-1671. DOI: 10.1021/acs.jctc.8b01176
   for GFN1-xTB:
   * S. Grimme, C. Bannwarth, P. Shushkov, J. Chem. Theory Comput., 2017,
     13, 1989-2009. DOI: 10.1021/acs.jctc.7b00118
   for GFN0-xTB:
   * P. Pracht, E. Caldeweyher, S. Ehlert, S. Grimme, ChemRxiv, 2019, preprint.
     DOI: 10.26434/chemrxiv.8326202.v1
   for GFN-FF:
   * S. Spicher and S. Grimme, Angew. Chem. Int. Ed., 2020, 59, 15665-15673.
     DOI: 10.1002/anie.202004239
   
   for ALPB and GBSA implicit solvation:
   * S. Ehlert, M. Stahn, S. Spicher, S. Grimme, J. Chem. Theory Comput.,
     2021, 17, 4250-4261. DOI: 10.1021/acs.jctc.1c00471
   
   for ddCOSMO and CPCM-X implicit solvation:
   * M. Stahn, S. Ehlert, S. Grimme, J. Phys. Chem. A,
     2023, XX, XXXX-XXXX. DOI: 10.1021/acs.jpca.3c04382
   
   for DFT-D4:
   * E. Caldeweyher, C. Bannwarth and S. Grimme, J. Chem. Phys., 2017,
     147, 034112. DOI: 10.1063/1.4993215
   * E. Caldeweyher, S. Ehlert, A. Hansen, H. Neugebauer, S. Spicher,
     C. Bannwarth and S. Grimme, J. Chem. Phys., 2019, 150, 154122.
     DOI: 10.1063/1.5090222
   * E. Caldeweyher, J.-M. Mewes, S. Ehlert and S. Grimme, Phys. Chem. Chem. Phys.
     2020, 22, 8499-8512. DOI: 10.1039/D0CP00502A
   
   for sTDA-xTB:
   * S. Grimme and C. Bannwarth, J. Chem. Phys., 2016, 145, 054103.
     DOI: 10.1063/1.4959605
   
   in the mass-spec context:
   * V. Asgeirsson, C. Bauer and S. Grimme, Chem. Sci., 2017, 8, 4879.
     DOI: 10.1039/c7sc00601b
   * J. Koopman and S. Grimme, ACS Omega 2019, 4, 12, 15120-15133.
     DOI: 10.1021/acsomega.9b02011
   
   for metadynamics refer to:
   * S. Grimme, J. Chem. Theory Comput., 2019, 155, 2847-2862
     DOI: 10.1021/acs.jctc.9b00143
   
   for SPH calculations refer to:
   * S. Spicher and S. Grimme, J. Chem. Theory Comput., 2021, 17, 1701-1714
     DOI: 10.1021/acs.jctc.0c01306
   
   for ONIOM refer to:
   * C. Plett, A. Katbashev, S. Ehlert, S. Grimme, M. Bursch,
     Phys. Chem. Chem. Phys., 2023, 25, 17860-17868. DOI: 10.1039/D3CP02178E
   
   for DIPRO refer to:
   * J. Kohn, N. Gildemeister, S. Grimme, D. Fazzi, A. Hansen,
     J. Chem. Phys., 2023, just accepted.
   
   for PTB refer to:
   * S. Grimme, M. Mueller, A. Hansen, J. Chem. Phys., 2023, 158, 124111.
     DOI: 10.1063/5.0137838
   
   with help from (in alphabetical order)
   P. Atkinson, C. Bannwarth, F. Bohle, G. Brandenburg, E. Caldeweyher
   M. Checinski, S. Dohm, S. Ehlert, S. Ehrlich, I. Gerasimov, C. Hölzer
   A. Katbashev, J. Kohn, J. Koopman, C. Lavigne, S. Lehtola, F. März, M. Müller,
   F. Musil, H. Neugebauer, J. Pisarek, C. Plett, P. Pracht, F. Pultar,
   J. Seibert, P. Shushkov, S. Spicher, M. Stahn, M. Steiner, T. Strunk,
   J. Stückrath, T. Rose, and J. Unsleber
   
 * started run on 2025/04/11 at 14:23:05.085     
   ID    Z sym.   atoms
    1    6 C      1-5, 7, 9
    2    8 O      6, 8
    3    1 H      10-23

           -------------------------------------------------
          |                Calculation Setup                |
           -------------------------------------------------

          program call               : /software/projects/pawsey0265/mwang1/xtb/bin/xtb gas.coord --gfn2 --sp --chrg 0 --norestart --parallel 1
          hostname                   : nid001577
          coordinate file            : gas.coord
          omp threads                :                     1


           -------------------------------------------------
          |                 G F N 2 - x T B                 |
           -------------------------------------------------

        Reference                      10.1021/acs.jctc.8b01176
      * Hamiltonian:
        H0-scaling (s, p, d)           1.850000    2.230000    2.230000
        zeta-weighting                 0.500000
      * Dispersion:
        s8                             2.700000
        a1                             0.520000
        a2                             5.000000
        s9                             5.000000
      * Repulsion:
        kExp                           1.500000    1.000000
        rExp                           1.000000
      * Coulomb:
        alpha                          2.000000
        third order                    shell-resolved
        anisotropic                    true
        a3                             3.000000
        a5                             4.000000
        cn-shift                       1.200000
        cn-exp                         4.000000
        max-rad                        5.000000


          ...................................................
          :                      SETUP                      :
          :.................................................:
          :  # basis functions                  50          :
          :  # atomic orbitals                  50          :
          :  # shells                           32          :
          :  # electrons                        54          :
          :  max. iterations                   250          :
          :  Hamiltonian                  GFN2-xTB          :
          :  restarted?                      false          :
          :  GBSA solvation                  false          :
          :  PC potential                    false          :
          :  electronic temp.          300.0000000     K    :
          :  accuracy                    1.0000000          :
          :  -> integral cutoff          0.2500000E+02      :
          :  -> integral neglect         0.1000000E-07      :
          :  -> SCF convergence          0.1000000E-05 Eh   :
          :  -> wf. convergence          0.1000000E-03 e    :
          :  Broyden damping             0.4000000          :
          :  net charge                          0          :
          :  unpaired electrons                  0          :
          ...................................................

 iter      E             dE          RMSdq      gap      omega  full diag
   1    -30.5628454 -0.305628E+02  0.355E+00    6.15       0.0  T
   2    -30.6397664 -0.769210E-01  0.185E+00    4.78       1.0  T
   3    -30.6438857 -0.411932E-02  0.105E+00    5.33       1.0  T
   4    -30.6461890 -0.230328E-02  0.173E-01    5.04       1.0  T
   5    -30.6464598 -0.270779E-03  0.682E-02    5.12       1.0  T
   6    -30.6464639 -0.411322E-05  0.227E-02    5.11       1.0  T
   7    -30.6464657 -0.183263E-05  0.684E-03    5.11       3.0  T
   8    -30.6464659 -0.141248E-06  0.215E-03    5.11       9.7  T
   9    -30.6464659 -0.134830E-07  0.947E-04    5.11      22.0  T
  10    -30.6464659 -0.282155E-08  0.260E-04    5.11      80.1  T

   *** convergence criteria satisfied after 10 iterations ***

         #    Occupation            Energy/Eh            Energy/eV
      -------------------------------------------------------------
         1        2.0000           -0.7412577             -20.1706
       ...           ...                  ...                  ...
        21        2.0000           -0.4649200             -12.6511
        22        2.0000           -0.4566771             -12.4268
        23        2.0000           -0.4493879             -12.2285
        24        2.0000           -0.4356366             -11.8543
        25        2.0000           -0.4289149             -11.6714
        26        2.0000           -0.4259333             -11.5902
        27        2.0000           -0.4133100             -11.2467 (HOMO)
        28                         -0.2255894              -6.1386 (LUMO)
        29                          0.0015181               0.0413
        30                          0.0629194               1.7121
        31                          0.0870477               2.3687
        32                          0.1034969               2.8163
       ...                                ...                  ...
        50                          0.6274616              17.0741
      -------------------------------------------------------------
                  HL-Gap            0.1877205 Eh            5.1081 eV
             Fermi-level           -0.3194497 Eh           -8.6927 eV

 SCC (total)                   0 d,  0 h,  0 min,  0.045 sec
 SCC setup                      ...        0 min,  0.000 sec (  0.672%)
 Dispersion                     ...        0 min,  0.000 sec (  0.389%)
 classical contributions        ...        0 min,  0.000 sec (  0.113%)
 integral evaluation            ...        0 min,  0.002 sec (  4.730%)
 iterations                     ...        0 min,  0.034 sec ( 74.322%)
 molecular gradient             ...        0 min,  0.009 sec ( 19.238%)
 printout                       ...        0 min,  0.000 sec (  0.460%)

         :::::::::::::::::::::::::::::::::::::::::::::::::::::
         ::                     SUMMARY                     ::
         :::::::::::::::::::::::::::::::::::::::::::::::::::::
         :: total energy             -30.282547564723 Eh    ::
         :: gradient norm              0.027786183971 Eh/a0 ::
         :: HOMO-LUMO gap              5.108135544276 eV    ::
         ::.................................................::
         :: SCC energy               -30.646375037630 Eh    ::
         :: -> isotropic ES            0.048905353405 Eh    ::
         :: -> anisotropic ES          0.003794376621 Eh    ::
         :: -> anisotropic XC          0.009466877931 Eh    ::
         :: -> dispersion             -0.015098717670 Eh    ::
         :: repulsion energy           0.363827472907 Eh    ::
         :: add. restraining           0.000000000000 Eh    ::
         :: total charge              -0.000000000000 e     ::
         :::::::::::::::::::::::::::::::::::::::::::::::::::::

           -------------------------------------------------
          |                Property Printout                |
           -------------------------------------------------

    * Orbital Energies and Occupations

         #    Occupation            Energy/Eh            Energy/eV
      -------------------------------------------------------------
         1        2.0000           -0.7412577             -20.1706
       ...           ...                  ...                  ...
        15        2.0000           -0.5089050             -13.8480
        16        2.0000           -0.4920002             -13.3880
        17        2.0000           -0.4852937             -13.2055
        18        2.0000           -0.4839537             -13.1691
        19        2.0000           -0.4770003             -12.9798
        20        2.0000           -0.4688989             -12.7594
        21        2.0000           -0.4649200             -12.6511
        22        2.0000           -0.4566771             -12.4268
        23        2.0000           -0.4493879             -12.2285
        24        2.0000           -0.4356366             -11.8543
        25        2.0000           -0.4289149             -11.6714
        26        2.0000           -0.4259333             -11.5902
        27        2.0000           -0.4133100             -11.2467 (HOMO)
        28                         -0.2255894              -6.1386 (LUMO)
        29                          0.0015181               0.0413
        30                          0.0629194               1.7121
        31                          0.0870477               2.3687
        32                          0.1034969               2.8163
        33                          0.1235824               3.3628
        34                          0.1403302               3.8186
        35                          0.1501115               4.0847
        36                          0.1566687               4.2632
        37                          0.1641150               4.4658
        38                          0.1755700               4.7775
       ...                                ...                  ...
        50                          0.6274616              17.0741
      -------------------------------------------------------------
                  HL-Gap            0.1877205 Eh            5.1081 eV
             Fermi-level           -0.3194497 Eh           -8.6927 eV

     #   Z          covCN         q      C6AA      α(0)
     1   6 C        3.755    -0.108    22.613     6.780
     2   6 C        3.849    -0.010    20.714     6.474
     3   6 C        3.757    -0.109    22.639     6.784
     4   6 C        3.804    -0.069    21.824     6.651
     5   6 C        3.695     0.074    19.504     6.318
     6   8 O        1.704    -0.263    18.351     5.784
     7   6 C        2.710     0.361    20.869     7.478
     8   8 O        0.856    -0.424    22.167     6.312
     9   6 C        3.754    -0.146    23.368     6.893
    10   1 H        0.925     0.046     2.373     2.409
    11   1 H        0.925     0.034     2.529     2.487
    12   1 H        0.925     0.033     2.541     2.493
    13   1 H        0.924     0.029     2.599     2.521
    14   1 H        0.925     0.039     2.467     2.456
    15   1 H        0.925     0.033     2.538     2.491
    16   1 H        0.925     0.038     2.471     2.458
    17   1 H        0.924     0.056     2.251     2.346
    18   1 H        0.924     0.044     2.394     2.420
    19   1 H        0.924     0.055     2.253     2.347
    20   1 H        0.924     0.057     2.233     2.337
    21   1 H        0.925     0.077     2.011     2.218
    22   1 H        0.925     0.071     2.075     2.253
    23   1 H        0.925     0.079     1.988     2.205

 Mol. C6AA /au·bohr⁶  :       3941.173400
 Mol. C8AA /au·bohr⁸  :      83630.257605
 Mol. α(0) /au        :         92.913323


Wiberg/Mayer (AO) data.
largest (>0.10) Wiberg bond orders for each atom

 ---------------------------------------------------------------------------
     #   Z sym  total        # sym  WBO       # sym  WBO       # sym  WBO
 ---------------------------------------------------------------------------
     1   6 C    3.996 --     2 C    1.010    12 H    0.987    11 H    0.986
                            10 H    0.983
     2   6 C    3.996 --     1 C    1.010     3 C    1.008     4 C    0.997
                            13 H    0.969
     3   6 C    3.996 --     2 C    1.008    16 H    0.987    15 H    0.987
                            14 H    0.986
     4   6 C    3.992 --     5 C    0.999     2 C    0.997    17 H    0.973
                            18 H    0.972
     5   6 C    3.926 --     4 C    0.999    19 H    0.971    20 H    0.969
                             6 O    0.934
     6   8 O    2.318 --     7 C    1.147     5 C    0.934     8 O    0.173
     7   6 C    3.919 --     8 O    1.736     6 O    1.147     9 C    0.990
     8   8 O    2.019 --     7 C    1.736     6 O    0.173
     9   6 C    3.992 --     7 C    0.990    21 H    0.978    22 H    0.977
                            23 H    0.956
    10   1 H    0.998 --     1 C    0.983
    11   1 H    0.999 --     1 C    0.986
    12   1 H    0.999 --     1 C    0.987
    13   1 H    0.999 --     2 C    0.969
    14   1 H    0.998 --     3 C    0.986
    15   1 H    0.999 --     3 C    0.987
    16   1 H    0.999 --     3 C    0.987
    17   1 H    0.997 --     4 C    0.973
    18   1 H    0.998 --     4 C    0.972
    19   1 H    0.997 --     5 C    0.971
    20   1 H    0.997 --     5 C    0.969
    21   1 H    0.994 --     9 C    0.978
    22   1 H    0.995 --     9 C    0.977
    23   1 H    0.994 --     9 C    0.956
 ---------------------------------------------------------------------------

Topologies differ in total number of bonds
Writing topology from bond orders to xtbtopo.mol

molecular dipole:
                 x           y           z       tot (Debye)
 q only:        0.455      -0.212      -0.738
   full:        0.431      -0.253      -0.815       2.429
molecular quadrupole (traceless):
                xx          xy          yy          xz          yz          zz
 q only:        1.447      -0.901       1.309       7.139      -3.119      -2.756
  q+dip:        0.625      -0.438       2.913       6.978      -3.101      -3.538
   full:        1.132      -0.022       2.762       7.412      -3.541      -3.894


           -------------------------------------------------
          | TOTAL ENERGY              -30.282547564723 Eh   |
          | GRADIENT NORM               0.027786183971 Eh/α |
          | HOMO-LUMO GAP               5.108135544276 eV   |
           -------------------------------------------------

------------------------------------------------------------------------
 * finished run on 2025/04/11 at 14:23:05.175     
------------------------------------------------------------------------
 total:
 * wall-time:     0 d,  0 h,  0 min,  0.084 sec
 *  cpu-time:     0 d,  0 h,  0 min,  0.044 sec
 * ratio c/w:     0.521 speedup
 SCF:
 * wall-time:     0 d,  0 h,  0 min,  0.045 sec
 *  cpu-time:     0 d,  0 h,  0 min,  0.029 sec
 * ratio c/w:     0.636 speedup

