! r2scan-3c def2/J RI DEFGRID2 scfconv6 printgap
%output
    printlevel normal
end
%cpcm
    smd true
    smdsolvent "water"
end
* xyz 0 1
C -3.6271320127 -0.7265685672 0.2710758172
C -2.3208609405 -0.3517972211 -0.4163370316
C -1.2187817007 -0.0500528343 0.6024047138
C 0.0286623917 0.4539856426 -0.0741494028
O 0.0537824579 1.2790154608 -0.9648301786
O 1.1193951398 -0.1135612262 0.4209562734
C 2.3939531626 0.2731574497 -0.122840907
C 3.4236715105 -0.756297489 0.3012436789
H -3.9808752849 0.0928356452 0.89154363
H -4.3893351615 -0.9516235413 -0.4696018348
H -3.4880432438 -1.6018466016 0.9003783942
H -2.464476573 0.5293089937 -1.0446402569
H -1.9972371393 -1.1698425624 -1.0628638029
H -0.9663894315 -0.9310253513 1.1913723408
H -1.5619758747 0.7371635767 1.2779431033
H 2.3005449238 0.3362566733 -1.2119355187
H 2.6391622897 1.2691828218 0.2593877826
H 3.474309705 -0.8052515767 1.3847324347
H 3.1523161385 -1.7358080186 -0.0813625318
H 4.3950453664 -0.4751333173 -0.0915879597
*
