! pbe def2-sv(p) def2/J RI DEFGRID1 loosescf d4 GCP(DFT/SV(P)) printgap
%output
    printlevel normal
end
* xyz 0 1
C 3.3565437527 -0.7471806119 -0.169469752
C 2.3470967685 0.2651687086 0.3586029687
C 0.9714391087 0.0741975685 -0.2759105937
C -0.0436001299 1.0872389176 0.2497497041
C -1.4154477581 0.9247215765 -0.3787233111
Cl -2.170075836 -0.6394099306 0.0985009208
H 4.3273926727 -0.5982462148 0.2964599347
H 3.4721218096 -0.6442346758 -1.2460015346
H 3.0252647048 -1.7612593582 0.0430573172
H 2.2622058233 0.1604798145 1.4423587147
H 2.7038139875 1.2759323976 0.1494771525
H 0.6142912372 -0.9361060937 -0.0652905414
H 1.0566176464 0.1768303758 -1.3599892232
H 0.3015535904 2.0982710676 0.0231927937
H -0.1263402271 0.9935660937 1.3339799656
H -2.1034683489 1.6990329112 -0.0451896263
H -1.3594858715 0.9106724172 -1.4657627365
*
