! r2scan-3c def2/J RI DEFGRID2 scfconv6 printgap
%output
    printlevel normal
end
%cpcm
    smd true
    smdsolvent "water"
end
* xyz 0 1
C -3.3265638459 0.1323244762 0.8348822227
C -2.6519183001 -0.6661135871 -0.2751179054
C -1.1335157992 -0.7540057346 -0.1156543234
C -0.4509571938 0.6002941807 -0.2960839629
C 1.0523545014 0.5417734687 -0.2566651639
O 1.777325355 1.4212341385 -0.6798612603
O 1.5181904272 -0.5660921431 0.3046014137
C 2.9367266587 -0.7076154801 0.4074480266
H -3.0318839626 1.1777200379 0.8019711241
H -4.4072633027 0.0842780636 0.7270349287
H -3.0613199163 -0.2723576056 1.8088081438
H -3.0549462099 -1.6805669589 -0.2740220229
H -2.8888110574 -0.2171937451 -1.2417633335
H -0.7379602812 -1.4495802952 -0.8579813223
H -0.8923642601 -1.1519684743 0.8707675774
H -0.7520276347 1.2866450654 0.4989618063
H -0.7357908199 1.0614599669 -1.2438490038
H 3.101725166 -1.6914081463 0.8353079013
H 3.3439765072 0.0734671654 1.0506654095
H 3.3930078237 -0.6258527063 -0.5798909228
*
