      -----------------------------------------------------------      
     |                   =====================                   |     
     |                           x T B                           |     
     |                   =====================                   |     
     |                         S. Grimme                         |     
     |          Mulliken Center for Theoretical Chemistry        |     
     |                    University of Bonn                     |     
      -----------------------------------------------------------      

   * xtb version 6.7.1 (edcfbbe) compiled by 'albert@albert-system' on 2024-07-22

   xtb is free software: you can redistribute it and/or modify it under
   the terms of the GNU Lesser General Public License as published by
   the Free Software Foundation, either version 3 of the License, or
   (at your option) any later version.
   
   xtb is distributed in the hope that it will be useful,
   but WITHOUT ANY WARRANTY; without even the implied warranty of
   MERCHANTABILITY or FITNESS FOR A PARTICULAR PURPOSE.  See the
   GNU Lesser General Public License for more details.
   
   Cite this work as:
   * C. Bannwarth, E. Caldeweyher, S. Ehlert, A. Hansen, P. Pracht,
     J. Seibert, S. Spicher, S. Grimme, WIREs Comput. Mol. Sci., 2020, 11,
     e01493. DOI: 10.1002/wcms.1493
   
   for GFN2-xTB:
   * C. Bannwarth, S. Ehlert and S. Grimme., J. Chem. Theory Comput., 2019,
     15, 1652-1671. DOI: 10.1021/acs.jctc.8b01176
   for GFN1-xTB:
   * S. Grimme, C. Bannwarth, P. Shushkov, J. Chem. Theory Comput., 2017,
     13, 1989-2009. DOI: 10.1021/acs.jctc.7b00118
   for GFN0-xTB:
   * P. Pracht, E. Caldeweyher, S. Ehlert, S. Grimme, ChemRxiv, 2019, preprint.
     DOI: 10.26434/chemrxiv.8326202.v1
   for GFN-FF:
   * S. Spicher and S. Grimme, Angew. Chem. Int. Ed., 2020, 59, 15665-15673.
     DOI: 10.1002/anie.202004239
   
   for ALPB and GBSA implicit solvation:
   * S. Ehlert, M. Stahn, S. Spicher, S. Grimme, J. Chem. Theory Comput.,
     2021, 17, 4250-4261. DOI: 10.1021/acs.jctc.1c00471
   
   for ddCOSMO and CPCM-X implicit solvation:
   * M. Stahn, S. Ehlert, S. Grimme, J. Phys. Chem. A,
     2023, XX, XXXX-XXXX. DOI: 10.1021/acs.jpca.3c04382
   
   for DFT-D4:
   * E. Caldeweyher, C. Bannwarth and S. Grimme, J. Chem. Phys., 2017,
     147, 034112. DOI: 10.1063/1.4993215
   * E. Caldeweyher, S. Ehlert, A. Hansen, H. Neugebauer, S. Spicher,
     C. Bannwarth and S. Grimme, J. Chem. Phys., 2019, 150, 154122.
     DOI: 10.1063/1.5090222
   * E. Caldeweyher, J.-M. Mewes, S. Ehlert and S. Grimme, Phys. Chem. Chem. Phys.
     2020, 22, 8499-8512. DOI: 10.1039/D0CP00502A
   
   for sTDA-xTB:
   * S. Grimme and C. Bannwarth, J. Chem. Phys., 2016, 145, 054103.
     DOI: 10.1063/1.4959605
   
   in the mass-spec context:
   * V. Asgeirsson, C. Bauer and S. Grimme, Chem. Sci., 2017, 8, 4879.
     DOI: 10.1039/c7sc00601b
   * J. Koopman and S. Grimme, ACS Omega 2019, 4, 12, 15120-15133.
     DOI: 10.1021/acsomega.9b02011
   
   for metadynamics refer to:
   * S. Grimme, J. Chem. Theory Comput., 2019, 155, 2847-2862
     DOI: 10.1021/acs.jctc.9b00143
   
   for SPH calculations refer to:
   * S. Spicher and S. Grimme, J. Chem. Theory Comput., 2021, 17, 1701-1714
     DOI: 10.1021/acs.jctc.0c01306
   
   for ONIOM refer to:
   * C. Plett, A. Katbashev, S. Ehlert, S. Grimme, M. Bursch,
     Phys. Chem. Chem. Phys., 2023, 25, 17860-17868. DOI: 10.1039/D3CP02178E
   
   for DIPRO refer to:
   * J. Kohn, N. Gildemeister, S. Grimme, D. Fazzi, A. Hansen,
     J. Chem. Phys., 2023, just accepted.
   
   for PTB refer to:
   * S. Grimme, M. Mueller, A. Hansen, J. Chem. Phys., 2023, 158, 124111.
     DOI: 10.1063/5.0137838
   
   with help from (in alphabetical order)
   P. Atkinson, C. Bannwarth, F. Bohle, G. Brandenburg, E. Caldeweyher
   M. Checinski, S. Dohm, S. Ehlert, S. Ehrlich, I. Gerasimov, C. Hölzer
   A. Katbashev, J. Kohn, J. Koopman, C. Lavigne, S. Lehtola, F. März, M. Müller,
   F. Musil, H. Neugebauer, J. Pisarek, C. Plett, P. Pracht, F. Pultar,
   J. Seibert, P. Shushkov, S. Spicher, M. Stahn, M. Steiner, T. Strunk,
   J. Stückrath, T. Rose, and J. Unsleber
   
 * started run on 2025/04/11 at 14:48:45.697     
   ID    Z sym.   atoms
    1    6 C      1-6
    2    1 H      7-18

           -------------------------------------------------
          |                Calculation Setup                |
           -------------------------------------------------

          program call               : /software/projects/pawsey0265/mwang1/xtb/bin/xtb xtb_rrho.coord --gfn2 --ohess vtight --chrg 0 --enso --norestart -I rrho-xcontrol-inp --parallel 1 --alpb water
          hostname                   : nid002549
          coordinate file            : xtb_rrho.coord
          omp threads                :                     1


           -------------------------------------------------
          |                 G F N 2 - x T B                 |
           -------------------------------------------------

        Reference                      10.1021/acs.jctc.8b01176
      * Hamiltonian:
        H0-scaling (s, p, d)           1.850000    2.230000    2.230000
        zeta-weighting                 0.500000
      * Dispersion:
        s8                             2.700000
        a1                             0.520000
        a2                             5.000000
        s9                             5.000000
      * Repulsion:
        kExp                           1.500000    1.000000
        rExp                           1.000000
      * Coulomb:
        alpha                          2.000000
        third order                    shell-resolved
        anisotropic                    true
        a3                             3.000000
        a5                             4.000000
        cn-shift                       1.200000
        cn-exp                         4.000000
        max-rad                        5.000000

      * Solvation model:               ALPB
        Solvent                        water
        Parameter file                 internal GFN2-xTB/ALPB
        Dielectric constant                8.0200E+01
        Reference state                gsolv [1 M gas/solution]
        Free energy shift                  1.0808E-03 Eh       6.7819E-01 kcal/mol
        Temperature                        2.9815E+02 K
        Density                            1.0000E+00 kg/L
        Solvent mass                       1.8000E+01 g/mol
        Interaction kernel             P16
        Born radius scaling (c1)           1.4744E+00
        Born radii integrator          GBOBC
        Born offset                        0.0000E+00 a0       0.0000E+00 AA
        H-bond correction              true
        Ion screening                  false
        Surface tension                    1.0000E-05 Eh       1.5569E+01 dyn/cm
        Grid points                               974 per atom

          ...................................................
          :                      SETUP                      :
          :.................................................:
          :  # basis functions                  36          :
          :  # atomic orbitals                  36          :
          :  # shells                           24          :
          :  # electrons                        36          :
          :  max. iterations                   250          :
          :  Hamiltonian                  GFN2-xTB          :
          :  restarted?                      false          :
          :  GBSA solvation                   true          :
          :  PC potential                    false          :
          :  electronic temp.          300.0000000     K    :
          :  accuracy                    1.0000000          :
          :  -> integral cutoff          0.2500000E+02      :
          :  -> integral neglect         0.1000000E-07      :
          :  -> SCF convergence          0.1000000E-05 Eh   :
          :  -> wf. convergence          0.1000000E-03 e    :
          :  Broyden damping             0.4000000          :
          :  net charge                          0          :
          :  unpaired electrons                  0          :
          ...................................................

 iter      E             dE          RMSdq      gap      omega  full diag
   1    -19.2053559 -0.192054E+02  0.314E+00    5.34       0.0  T
   2    -19.2318108 -0.264549E-01  0.183E+00    5.28       1.0  T
   3    -19.2309503  0.860466E-03  0.795E-01    5.26       1.0  T
   4    -19.2323522 -0.140185E-02  0.421E-01    5.22       1.0  T
   5    -19.2340403 -0.168815E-02  0.641E-02    5.23       1.0  T
   6    -19.2340464 -0.603183E-05  0.295E-02    5.24       1.0  T
   7    -19.2340470 -0.606448E-06  0.554E-03    5.24       4.3  T
   8    -19.2340470 -0.546631E-07  0.173E-03    5.24      13.7  T
   9    -19.2340470 -0.308502E-08  0.811E-04    5.24      29.1  T
  10    -19.2340470 -0.166018E-08  0.197E-04    5.24     119.4  T

   *** convergence criteria satisfied after 10 iterations ***

         #    Occupation            Energy/Eh            Energy/eV
      -------------------------------------------------------------
         1        2.0000           -0.6215899             -16.9143
       ...           ...                  ...                  ...
        12        2.0000           -0.4577242             -12.4553
        13        2.0000           -0.4499629             -12.2441
        14        2.0000           -0.4364317             -11.8759
        15        2.0000           -0.4242756             -11.5451
        16        2.0000           -0.4215943             -11.4722
        17        2.0000           -0.4197508             -11.4220
        18        2.0000           -0.3941750             -10.7260 (HOMO)
        19                         -0.2017534              -5.4900 (LUMO)
        20                          0.0815271               2.2185
        21                          0.0971390               2.6433
        22                          0.1176176               3.2005
        23                          0.1258854               3.4255
       ...                                ...                  ...
        36                          0.5910649              16.0837
      -------------------------------------------------------------
                  HL-Gap            0.1924216 Eh            5.2361 eV
             Fermi-level           -0.2979642 Eh           -8.1080 eV

 SCC (total)                   0 d,  0 h,  0 min,  0.045 sec
 SCC setup                      ...        0 min,  0.001 sec (  2.531%)
 Dispersion                     ...        0 min,  0.000 sec (  0.252%)
 classical contributions        ...        0 min,  0.000 sec (  0.079%)
 integral evaluation            ...        0 min,  0.001 sec (  2.500%)
 iterations                     ...        0 min,  0.038 sec ( 83.512%)
 molecular gradient             ...        0 min,  0.005 sec ( 10.799%)
 printout                       ...        0 min,  0.000 sec (  0.280%)

         :::::::::::::::::::::::::::::::::::::::::::::::::::::
         ::                     SUMMARY                     ::
         :::::::::::::::::::::::::::::::::::::::::::::::::::::
         :: total energy             -18.933933993747 Eh    ::
         :: total w/o Gsasa/hb       -18.933436481005 Eh    ::
         :: gradient norm              0.024274231830 Eh/a0 ::
         :: HOMO-LUMO gap              5.236059315400 eV    ::
         ::.................................................::
         :: SCC energy               -19.234034793578 Eh    ::
         :: -> isotropic ES            0.003972146613 Eh    ::
         :: -> anisotropic ES          0.005899175384 Eh    ::
         :: -> anisotropic XC          0.014439068800 Eh    ::
         :: -> dispersion             -0.009846160943 Eh    ::
         :: -> Gsolv                  -0.000739574699 Eh    ::
         ::    -> Gelec               -0.000242061957 Eh    ::
         ::    -> Gsasa               -0.001108194808 Eh    ::
         ::    -> Ghb                 -0.000470077633 Eh    ::
         ::    -> Gshift               0.001080759698 Eh    ::
         :: repulsion energy           0.300100799831 Eh    ::
         :: add. restraining           0.000000000000 Eh    ::
         :: total charge               0.000000000000 e     ::
         :::::::::::::::::::::::::::::::::::::::::::::::::::::

      ----------------------------------------------------------- 
     |                   =====================                   |
     |                        A N C O P T                        |
     |                   =====================                   |
     |               Approximate Normal Coordinate               |
     |                Rational Function Optimizer                |
      ----------------------------------------------------------- 
      ----------------------------------------------------------- 
     |                   =====================                   |
     |                        A N C O P T                        |
     |                   =====================                   |
     |               Approximate Normal Coordinate               |
     |                Rational Function Optimizer                |
      ----------------------------------------------------------- 

          ...................................................
          :                      SETUP                      :
          :.................................................:
          :   optimization level         verytight          :
          :   max. optcycles                   360          :
          :   ANC micro-cycles                  20          :
          :   degrees of freedom                48          :
          :.................................................:
          :   RF solver                   davidson          :
          :   write xtbopt.log                true          :
          :   linear?                        false          :
          :   energy convergence         0.1000000E-06 Eh   :
          :   grad. convergence          0.2000000E-03 Eh/α :
          :   maxmium RF displ.          1.0000000          :
          :   Hlow (freq-cutoff)         0.1000000E-01      :
          :   Hmax (freq-cutoff)         5.0000000          :
          :   S6 in model hess.         20.0000000          :
          ...................................................

generating ANC from exact Hessian ...
Using Lindh-Hessian (1995)
 Shifting diagonal of input Hessian by   8.184598106722805E-003
 Lowest  eigenvalues of input Hessian
    0.000000    0.000000    0.000000    0.000000    0.000000    0.000000
    0.010000    0.011039    0.011601    0.014572    0.016661    0.020203
    0.024753    0.027762    0.034244    0.048023    0.048204    0.054008
 Highest eigenvalues
    1.154798    1.174325    1.221846    1.261715    1.469495    1.888843
 

........................................................................
.............................. CYCLE    1 ..............................
........................................................................

 iter      E             dE          RMSdq      gap      omega  full diag
   1    -19.2340470 -0.192340E+02  0.669E-05    5.24       0.0  T
   2    -19.2340470 -0.127045E-10  0.454E-05    5.24     519.7  T
   3    -19.2340470 -0.222329E-10  0.223E-05    5.24    1056.9  T
     SCC iter.                  ...        0 min,  0.001 sec
     gradient                   ...        0 min,  0.005 sec
 * total energy  :   -18.9339340 Eh     change       -0.4843415E-10 Eh
   gradient norm :     0.0242742 Eh/α   predicted     0.0000000E+00 (-100.00%)
   displ. norm   :     0.1053490 α      lambda       -0.1306163E-02
   maximum displ.:     0.0423217 α      in ANC's #18, #13, #32, ...

........................................................................
.............................. CYCLE    2 ..............................
........................................................................

 iter      E             dE          RMSdq      gap      omega  full diag
   1    -19.2472282 -0.192472E+02  0.101E-01    5.36       0.0  T
   2    -19.2472317 -0.346740E-05  0.582E-02    5.35       1.0  T
   3    -19.2472282  0.351659E-05  0.200E-02    5.36       1.2  T
   4    -19.2472324 -0.426106E-05  0.345E-03    5.36       6.8  T
   5    -19.2472325 -0.775206E-07  0.150E-03    5.36      15.8  T
   6    -19.2472325 -0.256472E-08  0.567E-04    5.36      41.6  T
   7    -19.2472325 -0.401258E-09  0.969E-05    5.36     243.2  T
     SCC iter.                  ...        0 min,  0.003 sec
     gradient                   ...        0 min,  0.005 sec
 * total energy  :   -18.9347091 Eh     change       -0.7750689E-03 Eh
   gradient norm :     0.0066705 Eh/α   predicted    -0.6603293E-03 ( -14.80%)
   displ. norm   :     0.0514075 α      lambda       -0.1269434E-03
   maximum displ.:     0.0241743 α      in ANC's #5, #1, #2, ...

........................................................................
.............................. CYCLE    3 ..............................
........................................................................

 iter      E             dE          RMSdq      gap      omega  full diag
   1    -19.2510817 -0.192511E+02  0.448E-02    5.38       0.0  T
   2    -19.2510824 -0.641632E-06  0.261E-02    5.38       1.0  T
   3    -19.2510823  0.382573E-07  0.398E-03    5.38       5.9  T
   4    -19.2510824 -0.693961E-07  0.162E-03    5.38      14.6  T
   5    -19.2510824 -0.332777E-07  0.623E-04    5.38      37.9  T
   6    -19.2510824 -0.991101E-09  0.260E-04    5.38      90.8  T
     SCC iter.                  ...        0 min,  0.002 sec
     gradient                   ...        0 min,  0.006 sec
 * total energy  :   -18.9347680 Eh     change       -0.5888869E-04 Eh
   gradient norm :     0.0020391 Eh/α   predicted    -0.6363976E-04 (   8.07%)
   displ. norm   :     0.0364995 α      lambda       -0.3380853E-04
   maximum displ.:     0.0225093 α      in ANC's #2, #1, #10, ...

........................................................................
.............................. CYCLE    4 ..............................
........................................................................

 iter      E             dE          RMSdq      gap      omega  full diag
   1    -19.2515144 -0.192515E+02  0.265E-02    5.38       0.0  T
   2    -19.2515145 -0.803094E-07  0.157E-02    5.38       1.5  T
   3    -19.2515145  0.740229E-08  0.155E-03    5.38      15.2  T
   4    -19.2515145 -0.174583E-07  0.672E-04    5.38      35.1  T
   5    -19.2515145 -0.478384E-08  0.234E-04    5.38     100.7  T
     SCC iter.                  ...        0 min,  0.002 sec
     gradient                   ...        0 min,  0.005 sec
 * total energy  :   -18.9347833 Eh     change       -0.1537126E-04 Eh
   gradient norm :     0.0013014 Eh/α   predicted    -0.1692736E-04 (  10.12%)
   displ. norm   :     0.0431304 α      lambda       -0.1241928E-04
   maximum displ.:     0.0302761 α      in ANC's #2, #1, #4, ...

........................................................................
.............................. CYCLE    5 ..............................
........................................................................

 iter      E             dE          RMSdq      gap      omega  full diag
   1    -19.2505201 -0.192505E+02  0.223E-02    5.37       0.0  T
   2    -19.2505201 -0.288347E-07  0.133E-02    5.37       1.8  T
   3    -19.2505200  0.173588E-06  0.389E-03    5.37       6.1  T
   4    -19.2505202 -0.199535E-06  0.336E-04    5.37      70.2  T
   5    -19.2505202 -0.133525E-09  0.168E-04    5.37     140.3  T
     SCC iter.                  ...        0 min,  0.002 sec
     gradient                   ...        0 min,  0.005 sec
 * total energy  :   -18.9347963 Eh     change       -0.1293479E-04 Eh
   gradient norm :     0.0008925 Eh/α   predicted    -0.6214784E-05 ( -51.95%)
   displ. norm   :     0.0609702 α      lambda       -0.9113975E-05
   maximum displ.:     0.0439564 α      in ANC's #2, #1, #4, ...

........................................................................
.............................. CYCLE    6 ..............................
........................................................................

 iter      E             dE          RMSdq      gap      omega  full diag
   1    -19.2502808 -0.192503E+02  0.280E-02    5.38       0.0  T
   2    -19.2502808 -0.260607E-07  0.166E-02    5.38       1.4  T
   3    -19.2502807  0.717311E-07  0.252E-03    5.38       9.4  T
   4    -19.2502808 -0.862128E-07  0.361E-04    5.38      65.2  T
   5    -19.2502808 -0.379824E-09  0.167E-04    5.38     141.3  T
     SCC iter.                  ...        0 min,  0.002 sec
     gradient                   ...        0 min,  0.005 sec
 * total energy  :   -18.9348074 Eh     change       -0.1113214E-04 Eh
   gradient norm :     0.0008600 Eh/α   predicted    -0.4565349E-05 ( -58.99%)
   displ. norm   :     0.0774820 α      lambda       -0.9647098E-05
   maximum displ.:     0.0540357 α      in ANC's #2, #1, #4, ...

........................................................................
.............................. CYCLE    7 ..............................
........................................................................

 iter      E             dE          RMSdq      gap      omega  full diag
   1    -19.2502726 -0.192503E+02  0.309E-02    5.38       0.0  T
   2    -19.2502726 -0.199756E-07  0.183E-02    5.38       1.3  T
   3    -19.2502726 -0.602087E-08  0.605E-04    5.38      39.0  T
   4    -19.2502726 -0.179272E-08  0.396E-04    5.38      59.5  T
     SCC iter.                  ...        0 min,  0.001 sec
     gradient                   ...        0 min,  0.005 sec
 * total energy  :   -18.9348196 Eh     change       -0.1216468E-04 Eh
   gradient norm :     0.0007264 Eh/α   predicted    -0.4837898E-05 ( -60.23%)
   displ. norm   :     0.0974460 α      lambda       -0.1051508E-04
   maximum displ.:     0.0679326 α      in ANC's #2, #1, #4, ...

........................................................................
.............................. CYCLE    8 ..............................
........................................................................

 iter      E             dE          RMSdq      gap      omega  full diag
   1    -19.2503916 -0.192504E+02  0.418E-02    5.38       0.0  T
   2    -19.2503916 -0.293747E-07  0.247E-02    5.38       1.0  T
   3    -19.2503917 -0.148077E-07  0.579E-04    5.38      40.7  T
   4    -19.2503917 -0.189999E-10  0.222E-04    5.38     106.3  T
     SCC iter.                  ...        0 min,  0.001 sec
     gradient                   ...        0 min,  0.005 sec
 * total energy  :   -18.9348324 Eh     change       -0.1279849E-04 Eh
   gradient norm :     0.0006515 Eh/α   predicted    -0.5279390E-05 ( -58.75%)
   displ. norm   :     0.1172453 α      lambda       -0.9624239E-05
   maximum displ.:     0.0802951 α      in ANC's #2, #1, #4, ...

........................................................................
.............................. CYCLE    9 ..............................
........................................................................

 iter      E             dE          RMSdq      gap      omega  full diag
   1    -19.2505569 -0.192506E+02  0.516E-02    5.38       0.0  T
   2    -19.2505569 -0.440940E-07  0.305E-02    5.38       1.0  T
   3    -19.2505569 -0.211319E-07  0.699E-04    5.38      33.7  T
   4    -19.2505569  0.117808E-10  0.415E-04    5.38      56.8  T
     SCC iter.                  ...        0 min,  0.001 sec
     gradient                   ...        0 min,  0.005 sec
 * total energy  :   -18.9348433 Eh     change       -0.1091268E-04 Eh
   gradient norm :     0.0004060 Eh/α   predicted    -0.4840770E-05 ( -55.64%)
   displ. norm   :     0.1036522 α      lambda       -0.6030842E-05
   maximum displ.:     0.0720008 α      in ANC's #1, #2, #4, ...

........................................................................
.............................. CYCLE   10 ..............................
........................................................................

 iter      E             dE          RMSdq      gap      omega  full diag
   1    -19.2505177 -0.192505E+02  0.507E-02    5.38       0.0  T
   2    -19.2505178 -0.403748E-07  0.300E-02    5.38       1.0  T
   3    -19.2505178 -0.450829E-08  0.127E-03    5.38      18.5  T
   4    -19.2505178 -0.167588E-07  0.489E-04    5.38      48.2  T
   5    -19.2505178 -0.336986E-09  0.127E-04    5.38     185.2  T
     SCC iter.                  ...        0 min,  0.002 sec
     gradient                   ...        0 min,  0.005 sec
 * total energy  :   -18.9348496 Eh     change       -0.6362191E-05 Eh
   gradient norm :     0.0004368 Eh/α   predicted    -0.3030573E-05 ( -52.37%)
   displ. norm   :     0.0772365 α      lambda       -0.3363882E-05
   maximum displ.:     0.0552014 α      in ANC's #1, #2, #7, ...

........................................................................
.............................. CYCLE   11 ..............................
........................................................................

 iter      E             dE          RMSdq      gap      omega  full diag
   1    -19.2506359 -0.192506E+02  0.397E-02    5.38       0.0  T
   2    -19.2506359 -0.243164E-07  0.235E-02    5.38       1.0  T
   3    -19.2506359 -0.111684E-07  0.552E-04    5.38      42.7  T
   4    -19.2506359 -0.479229E-09  0.331E-04    5.38      71.3  T
     SCC iter.                  ...        0 min,  0.001 sec
     gradient                   ...        0 min,  0.005 sec
 * total energy  :   -18.9348531 Eh     change       -0.3432552E-05 Eh
   gradient norm :     0.0002902 Eh/α   predicted    -0.1685831E-05 ( -50.89%)
   displ. norm   :     0.0507381 α      lambda       -0.1862070E-05
   maximum displ.:     0.0371311 α      in ANC's #1, #2, #3, ...

........................................................................
.............................. CYCLE   12 ..............................
........................................................................

 iter      E             dE          RMSdq      gap      omega  full diag
   1    -19.2507650 -0.192508E+02  0.287E-02    5.38       0.0  T
   2    -19.2507650 -0.125046E-07  0.170E-02    5.38       1.4  T
   3    -19.2507650 -0.577593E-08  0.341E-04    5.38      69.2  T
   4    -19.2507650 -0.146752E-09  0.215E-04    5.38     109.8  T
     SCC iter.                  ...        0 min,  0.001 sec
     gradient                   ...        0 min,  0.005 sec
 * total energy  :   -18.9348551 Eh     change       -0.2050395E-05 Eh
   gradient norm :     0.0002173 Eh/α   predicted    -0.9333382E-06 ( -54.48%)
   displ. norm   :     0.0433880 α      lambda       -0.1411559E-05
   maximum displ.:     0.0302852 α      in ANC's #1, #2, #3, ...

........................................................................
.............................. CYCLE   13 ..............................
........................................................................

 iter      E             dE          RMSdq      gap      omega  full diag
   1    -19.2507459 -0.192507E+02  0.256E-02    5.38       0.0  T
   2    -19.2507459 -0.971844E-08  0.151E-02    5.38       1.6  T
   3    -19.2507459 -0.327194E-08  0.460E-04    5.38      51.2  T
   4    -19.2507459 -0.177475E-08  0.212E-04    5.38     111.1  T
     SCC iter.                  ...        0 min,  0.001 sec
     gradient                   ...        0 min,  0.005 sec
 * total energy  :   -18.9348567 Eh     change       -0.1568682E-05 Eh
   gradient norm :     0.0001588 Eh/α   predicted    -0.7065869E-06 ( -54.96%)
   displ. norm   :     0.0336939 α      lambda       -0.9203551E-06
   maximum displ.:     0.0212210 α      in ANC's #1, #3, #4, ...

........................................................................
.............................. CYCLE   14 ..............................
........................................................................

 iter      E             dE          RMSdq      gap      omega  full diag
   1    -19.2507737 -0.192508E+02  0.205E-02    5.38       0.0  T
   2    -19.2507738 -0.653698E-08  0.121E-02    5.38       2.0  T
   3    -19.2507738 -0.251613E-08  0.295E-04    5.38      79.8  T
   4    -19.2507738 -0.491951E-09  0.158E-04    5.38     149.0  T
     SCC iter.                  ...        0 min,  0.002 sec
     gradient                   ...        0 min,  0.005 sec
 * total energy  :   -18.9348576 Eh     change       -0.9367392E-06 Eh
   gradient norm :     0.0001589 Eh/α   predicted    -0.4617517E-06 ( -50.71%)
   displ. norm   :     0.0200580 α      lambda       -0.4201203E-06
   maximum displ.:     0.0120802 α      in ANC's #3, #4, #1, ...

........................................................................
.............................. CYCLE   15 ..............................
........................................................................

 iter      E             dE          RMSdq      gap      omega  full diag
   1    -19.2507544 -0.192508E+02  0.121E-02    5.38       0.0  T
   2    -19.2507544 -0.242434E-08  0.714E-03    5.38       3.3  T
   3    -19.2507544 -0.113261E-08  0.141E-04    5.38     167.5  T
   4    -19.2507544 -0.251603E-10  0.892E-05    5.38     264.3  T
     SCC iter.                  ...        0 min,  0.001 sec
     gradient                   ...        0 min,  0.005 sec
 * total energy  :   -18.9348580 Eh     change       -0.4337031E-06 Eh
   gradient norm :     0.0001030 Eh/α   predicted    -0.2112700E-06 ( -51.29%)
   displ. norm   :     0.0138051 α      lambda       -0.2703109E-06
   maximum displ.:     0.0102306 α      in ANC's #4, #3, #5, ...

........................................................................
.............................. CYCLE   16 ..............................
........................................................................

 iter      E             dE          RMSdq      gap      omega  full diag
   1    -19.2507331 -0.192507E+02  0.720E-03    5.38       0.0  T
   2    -19.2507331 -0.100975E-08  0.423E-03    5.38       5.6  T
   3    -19.2507331 -0.288971E-09  0.128E-04    5.38     183.8  T
   4    -19.2507331 -0.107150E-09  0.669E-05    5.38     352.3  T
     SCC iter.                  ...        0 min,  0.001 sec
     gradient                   ...        0 min,  0.005 sec
 * total energy  :   -18.9348583 Eh     change       -0.2901748E-06 Eh
   gradient norm :     0.0000709 Eh/α   predicted    -0.1353833E-06 ( -53.34%)
   displ. norm   :     0.0106191 α      lambda       -0.1779358E-06
   maximum displ.:     0.0070508 α      in ANC's #4, #1, #6, ...

........................................................................
.............................. CYCLE   17 ..............................
........................................................................

 iter      E             dE          RMSdq      gap      omega  full diag
   1    -19.2507355 -0.192507E+02  0.302E-03    5.38       0.0  T
   2    -19.2507355 -0.206064E-09  0.180E-03    5.38      13.1  T
   3    -19.2507355 -0.758469E-10  0.653E-05    5.38     361.0  T
   4    -19.2507355 -0.141860E-10  0.427E-05    5.38     552.4  T
     SCC iter.                  ...        0 min,  0.001 sec
     gradient                   ...        0 min,  0.004 sec
 * total energy  :   -18.9348585 Eh     change       -0.1914600E-06 Eh
   gradient norm :     0.0000624 Eh/α   predicted    -0.8821429E-07 ( -53.93%)
   displ. norm   :     0.0076663 α      lambda       -0.9165787E-07
   maximum displ.:     0.0045086 α      in ANC's #4, #1, #6, ...

........................................................................
.............................. CYCLE   18 ..............................
........................................................................

 iter      E             dE          RMSdq      gap      omega  full diag
   1    -19.2507179 -0.192507E+02  0.183E-03    5.38       0.0  T
   2    -19.2507179 -0.185135E-09  0.110E-03    5.38      21.5  T
   3    -19.2507179  0.321538E-09  0.174E-04    5.38     135.8  T
   4    -19.2507179 -0.396106E-09  0.355E-05    5.38     663.2  T
     SCC iter.                  ...        0 min,  0.001 sec
     gradient                   ...        0 min,  0.004 sec
 * total energy  :   -18.9348586 Eh     change       -0.9070571E-07 Eh
   gradient norm :     0.0000382 Eh/α   predicted    -0.4662844E-07 ( -48.59%)
   displ. norm   :     0.0035405 α      lambda       -0.3404195E-07
   maximum displ.:     0.0024444 α      in ANC's #4, #3, #1, ...

   *** GEOMETRY OPTIMIZATION CONVERGED AFTER 18 ITERATIONS ***

------------------------------------------------------------------------
 total energy gain   :        -0.0009246 Eh       -0.5802 kcal/mol
 total RMSD          :         0.1783249 a0        0.0944 Å
 total power (kW/mol):        -0.1348673 (step)  -13.1059 (real)
------------------------------------------------------------------------

 ANCopt (total)                0 d,  0 h,  0 min,  0.185 sec
 optimizer setup                ...        0 min,  0.001 sec (  0.313%)
 model hessian                  ...        0 min,  0.007 sec (  3.776%)
 ANC generation                 ...        0 min,  0.001 sec (  0.287%)
 coordinate transformation      ...        0 min,  0.000 sec (  0.074%)
 single point calculation       ...        0 min,  0.171 sec ( 92.151%)
 optimization log               ...        0 min,  0.003 sec (  1.444%)
 hessian update                 ...        0 min,  0.000 sec (  0.073%)
 rational function              ...        0 min,  0.003 sec (  1.397%)

================
 final structure:
================
$coord
        4.68060576995370       -0.39670764254699       -1.48675889967525      C
        3.65846957988659        0.28909160001262        1.11833205741273      C
        0.89976155749332       -0.48098130797043        1.49901426507704      C
       -0.94113108873091        1.00678180899446       -0.16957943155317      C
       -3.62030969715812        0.35851715166726        0.44946087384672      C
       -5.24526226777856       -0.64221084934769       -1.15654611454898      C
        4.43294690620904       -2.40525356425643       -1.84750671516315      H
        6.68522615216865        0.04062291397689       -1.60129701512052      H
        3.71217603955302        0.65515109027930       -2.96068983887106      H
        4.80320400564800       -0.65770538775756        2.55216153278877      H
        3.84463860109334        2.32360235558077        1.41434641125650      H
        0.68893876537994       -2.49631839610240        1.10419777758085      H
        0.39298152170910       -0.17552670246937        3.47756279915436      H
       -0.64357212228635        3.02661621872222        0.15458482658691      H
       -0.57868274929865        0.60717098088609       -2.15783758421907      H
       -4.18792353512853        0.74368362375817        2.37741565738163      H
       -7.15773668790265       -1.08871761455171       -0.62463305295690      H
       -4.72891038470347       -1.04968499653083       -3.08431299912613      H
$end
 
 Bond Distances (Angstroems)
 ---------------------------
C1-C2=1.5247         C1-H7=1.0878         C1-H8=1.0874         C1-H9=1.0866         C2-C1=1.5247         C2-C3=1.5290         
C2-H10=1.0926        C2-H11=1.0924        C3-C2=1.5290         C3-C4=1.5325         C3-H12=1.0925        C3-H13=1.0928        
C4-C3=1.5325         C4-C5=1.4950         C4-H14=1.0939        C4-H15=1.0902        C5-C4=1.4950         C5-C6=1.3199         
C5-H16=1.0829        C6-C5=1.3199         C6-H17=1.0767        C6-H18=1.0779        H7-C1=1.0878         H8-C1=1.0874         
H9-C1=1.0866         H10-C2=1.0926        H11-C2=1.0924        H12-C3=1.0925        H13-C3=1.0928        H14-C4=1.0939        
H15-C4=1.0902        H16-C5=1.0829        H17-C6=1.0767        H18-C6=1.0779        
 C  H  Rav=1.0878 sigma=0.0056  Rmin=1.0767  Rmax=1.0939    12
 C  C  Rav=1.4802 sigma=0.0813  Rmin=1.3199  Rmax=1.5325     5
 
 selected bond angles (degree)
 --------------------
H7-C1-C2=110.40                H8-C1-C2=110.23                H8-C1-H7=108.40                H9-C1-C2=111.08                
H9-C1-H7=108.52                H9-C1-H8=108.12                C3-C2-C1=113.23                H10-C2-C1=108.79               
H10-C2-C3=108.40               H11-C2-C1=109.40               H11-C2-C3=109.26               H11-C2-H10=107.60              
C4-C3-C2=113.21                H12-C3-C2=109.42               H12-C3-C4=109.05               H13-C3-C2=108.73               
H13-C3-C4=108.67               H13-C3-H12=107.61              C5-C4-C3=111.02                H14-C4-C3=108.67               
H14-C4-C5=109.05               H15-C4-C3=110.16               H15-C4-C5=109.50               H15-C4-H14=108.39              
C6-C5-C4=124.67                H16-C5-C4=115.23               H16-C5-C6=120.10               H17-C6-C5=122.15               
H18-C6-C5=121.63               H18-C6-H17=116.22              
 
 selected dihedral angles (degree)
 ---------------------------------
C3-C2-C1-H7=304.65            C3-C2-C1-H8=184.92            C3-C2-C1-H9= 65.09            H10-C2-C1-H7= 65.24           
H10-C2-C1-H8=305.51           H10-C2-C1-H9=185.68           H11-C2-C1-H7=182.53           H11-C2-C1-H8= 62.79           
H11-C2-C1-H9=302.97           C4-C3-C2-C1=292.90            C4-C3-C2-H10=172.09           C4-C3-C2-H11= 55.10           
H12-C3-C2-C1= 54.75           H12-C3-C2-H10=293.94          H12-C3-C2-H11=176.96          H13-C3-C2-C1=172.03           
H13-C3-C2-H10= 51.22          H13-C3-C2-H11=294.23          C5-C4-C3-C2=185.39            C5-C4-C3-H12= 63.33           
C5-C4-C3-H13=306.30           H14-C4-C3-C2=305.32           H14-C4-C3-H12=183.26          H14-C4-C3-H13= 66.22          
H15-C4-C3-C2= 63.92           H15-C4-C3-H12=301.86          H15-C4-C3-H13=184.83          C6-C5-C4-C3=240.76            
C6-C5-C4-H14=121.06           C6-C5-C4-H15=  2.61           H16-C5-C4-C3= 59.96           H16-C5-C4-H14=300.26          
H16-C5-C4-H15=181.81          H17-C6-C5-C4=179.65           H17-C6-C5-H16=  0.50          H18-C6-C5-C4=359.33           
H18-C6-C5-H16=180.17          
           -------------------------------------------------
          |                Final Singlepoint                |
           -------------------------------------------------

          ...................................................
          :                      SETUP                      :
          :.................................................:
          :  # basis functions                  36          :
          :  # atomic orbitals                  36          :
          :  # shells                           24          :
          :  # electrons                        36          :
          :  max. iterations                   250          :
          :  Hamiltonian                  GFN2-xTB          :
          :  restarted?                      false          :
          :  GBSA solvation                   true          :
          :  PC potential                    false          :
          :  electronic temp.          300.0000000     K    :
          :  accuracy                    1.0000000          :
          :  -> integral cutoff          0.2500000E+02      :
          :  -> integral neglect         0.1000000E-07      :
          :  -> SCF convergence          0.1000000E-05 Eh   :
          :  -> wf. convergence          0.1000000E-03 e    :
          :  Broyden damping             0.4000000          :
          :  net charge                          0          :
          :  unpaired electrons                  0          :
          ...................................................

 iter      E             dE          RMSdq      gap      omega  full diag
   1    -19.2507179 -0.192507E+02  0.158E-05    5.38       0.0  T
   2    -19.2507179 -0.124345E-12  0.921E-06    5.38    2560.4  T
   3    -19.2507179  0.248690E-13  0.162E-06    5.38   14540.3  T

   *** convergence criteria satisfied after 3 iterations ***

         #    Occupation            Energy/Eh            Energy/eV
      -------------------------------------------------------------
         1        2.0000           -0.6227803             -16.9467
       ...           ...                  ...                  ...
        12        2.0000           -0.4580184             -12.4633
        13        2.0000           -0.4506370             -12.2625
        14        2.0000           -0.4360284             -11.8649
        15        2.0000           -0.4258993             -11.5893
        16        2.0000           -0.4205913             -11.4449
        17        2.0000           -0.4188085             -11.3964
        18        2.0000           -0.3957052             -10.7677 (HOMO)
        19                         -0.1980251              -5.3885 (LUMO)
        20                          0.0877060               2.3866
        21                          0.1048593               2.8534
        22                          0.1280473               3.4843
        23                          0.1335985               3.6354
       ...                                ...                  ...
        36                          0.6278645              17.0851
      -------------------------------------------------------------
                  HL-Gap            0.1976801 Eh            5.3792 eV
             Fermi-level           -0.2968652 Eh           -8.0781 eV

 SCC (total)                   0 d,  0 h,  0 min,  0.009 sec
 SCC setup                      ...        0 min,  0.001 sec ( 14.911%)
 Dispersion                     ...        0 min,  0.000 sec (  0.697%)
 classical contributions        ...        0 min,  0.000 sec (  0.210%)
 integral evaluation            ...        0 min,  0.002 sec ( 18.553%)
 iterations                     ...        0 min,  0.001 sec ( 12.119%)
 molecular gradient             ...        0 min,  0.005 sec ( 51.783%)
 printout                       ...        0 min,  0.000 sec (  1.479%)

         :::::::::::::::::::::::::::::::::::::::::::::::::::::
         ::                     SUMMARY                     ::
         :::::::::::::::::::::::::::::::::::::::::::::::::::::
         :: total energy             -18.934858622085 Eh    ::
         :: total w/o Gsasa/hb       -18.934345749669 Eh    ::
         :: gradient norm              0.000038270700 Eh/a0 ::
         :: HOMO-LUMO gap              5.379150089440 eV    ::
         ::.................................................::
         :: SCC energy               -19.250704420989 Eh    ::
         :: -> isotropic ES            0.004160206547 Eh    ::
         :: -> anisotropic ES          0.005538409569 Eh    ::
         :: -> anisotropic XC          0.014036352289 Eh    ::
         :: -> dispersion             -0.009863686006 Eh    ::
         :: -> Gsolv                  -0.000750441689 Eh    ::
         ::    -> Gelec               -0.000237569273 Eh    ::
         ::    -> Gsasa               -0.001106362816 Eh    ::
         ::    -> Ghb                 -0.000487269298 Eh    ::
         ::    -> Gshift               0.001080759698 Eh    ::
         :: repulsion energy           0.315845798904 Eh    ::
         :: add. restraining           0.000000000000 Eh    ::
         :: total charge              -0.000000000000 e     ::
         :::::::::::::::::::::::::::::::::::::::::::::::::::::

           ------------------------------------------------- 
          |                Numerical Hessian                |
           ------------------------------------------------- 
step length          :   0.00500
SCC accuracy         :   0.30000
Hessian scale factor :   1.00000
frozen atoms in %    :   0.00000    0
RMS gradient         :   0.00004
estimated CPU  time      0.02 min
estimated wall time      0.02 min

writing file <hessian>.

 projected vibrational frequencies (cm⁻¹)
eigval :       -0.00    -0.00    -0.00    -0.00     0.00     0.00
eigval :       58.85    69.97   113.05   199.74   268.71   310.68
eigval :      413.22   462.02   630.38   784.79   822.37   893.07
eigval :      925.56   940.21   956.69  1021.98  1023.77  1055.08
eigval :     1115.33  1131.36  1166.77  1208.28  1249.85  1266.03
eigval :     1283.92  1304.09  1348.87  1357.69  1411.83  1412.68
eigval :     1473.11  1485.90  1491.85  1502.06  1506.45  1718.25
eigval :     2944.35  2956.80  2958.03  2975.03  2977.69  2997.84
eigval :     3026.35  3031.25  3042.32  3044.69  3094.35  3115.04
           -------------------------------------------------
          |                Property Printout                |
           -------------------------------------------------

    * Orbital Energies and Occupations

         #    Occupation            Energy/Eh            Energy/eV
      -------------------------------------------------------------
         1        2.0000           -0.6227802             -16.9467
       ...           ...                  ...                  ...
         6        2.0000           -0.5416578             -14.7393
         7        2.0000           -0.5139378             -13.9850
         8        2.0000           -0.5019877             -13.6598
         9        2.0000           -0.4925048             -13.4017
        10        2.0000           -0.4838422             -13.1660
        11        2.0000           -0.4691238             -12.7655
        12        2.0000           -0.4580183             -12.4633
        13        2.0000           -0.4506370             -12.2625
        14        2.0000           -0.4360284             -11.8649
        15        2.0000           -0.4258993             -11.5893
        16        2.0000           -0.4205913             -11.4449
        17        2.0000           -0.4188085             -11.3964
        18        2.0000           -0.3957052             -10.7677 (HOMO)
        19                         -0.1980251              -5.3885 (LUMO)
        20                          0.0877060               2.3866
        21                          0.1048593               2.8534
        22                          0.1280473               3.4843
        23                          0.1335985               3.6354
        24                          0.1462316               3.9792
        25                          0.1490079               4.0547
        26                          0.1725152               4.6944
        27                          0.1756706               4.7802
        28                          0.2042352               5.5575
        29                          0.2192933               5.9673
       ...                                ...                  ...
        36                          0.6278645              17.0851
      -------------------------------------------------------------
                  HL-Gap            0.1976801 Eh            5.3792 eV
             Fermi-level           -0.2968652 Eh           -8.0781 eV

     #   Z          covCN         q      C6AA      α(0)
     1   6 C        3.751    -0.110    22.673     6.790
     2   6 C        3.800    -0.058    21.617     6.620
     3   6 C        3.804    -0.058    21.620     6.620
     4   6 C        3.806    -0.064    21.720     6.635
     5   6 C        2.887    -0.033    28.808     8.800
     6   6 C        2.837    -0.106    30.656     9.073
     7   1 H        0.925     0.037     2.492     2.468
     8   1 H        0.925     0.036     2.505     2.475
     9   1 H        0.925     0.038     2.480     2.462
    10   1 H        0.924     0.032     2.560     2.502
    11   1 H        0.924     0.033     2.547     2.496
    12   1 H        0.924     0.032     2.555     2.499
    13   1 H        0.924     0.032     2.564     2.504
    14   1 H        0.924     0.044     2.397     2.421
    15   1 H        0.925     0.042     2.425     2.435
    16   1 H        0.925     0.031     2.569     2.507
    17   1 H        0.926     0.035     2.519     2.482
    18   1 H        0.926     0.038     2.477     2.461

 Mol. C6AA /au·bohr⁶  :       2357.277735
 Mol. C8AA /au·bohr⁸  :      50640.862457
 Mol. α(0) /au        :         74.251340


Wiberg/Mayer (AO) data.
largest (>0.10) Wiberg bond orders for each atom

 ---------------------------------------------------------------------------
     #   Z sym  total        # sym  WBO       # sym  WBO       # sym  WBO
 ---------------------------------------------------------------------------
     1   6 C    3.997 --     2 C    1.020     7 H    0.987     8 H    0.987
                             9 H    0.986
     2   6 C    3.997 --     1 C    1.020     3 C    1.006    11 H    0.978
                            10 H    0.978
     3   6 C    3.997 --     2 C    1.006     4 C    0.992    12 H    0.978
                            13 H    0.977
     4   6 C    3.997 --     5 C    1.027     3 C    0.992    15 H    0.974
                            14 H    0.961
     5   6 C    3.991 --     6 C    1.977     4 C    1.027    16 H    0.966
     6   6 C    3.990 --     5 C    1.977    17 H    0.977    18 H    0.975
     7   1 H    0.999 --     1 C    0.987
     8   1 H    0.999 --     1 C    0.987
     9   1 H    0.999 --     1 C    0.986
    10   1 H    0.998 --     2 C    0.978
    11   1 H    0.999 --     2 C    0.978
    12   1 H    0.999 --     3 C    0.978
    13   1 H    0.999 --     3 C    0.977
    14   1 H    0.998 --     4 C    0.961
    15   1 H    0.998 --     4 C    0.974
    16   1 H    0.999 --     5 C    0.966
    17   1 H    0.998 --     6 C    0.977
    18   1 H    0.999 --     6 C    0.975
 ---------------------------------------------------------------------------

Topologies differ in total number of bonds
Writing topology from bond orders to xtbtopo.mol

molecular dipole:
                 x           y           z       tot (Debye)
 q only:        0.196       0.058       0.019
   full:        0.188       0.056       0.037       0.508
molecular quadrupole (traceless):
                xx          xy          yy          xz          yz          zz
 q only:       -0.527       0.031      -0.036      -0.245       0.130       0.563
  q+dip:       -0.952       0.682      -0.353      -0.174       0.990       1.305
   full:       -0.831       0.243      -0.052      -0.305       0.477       0.883

           -------------------------------------------------
          |                Geometry Summary                 |
           -------------------------------------------------

      molecular mass/u    :       84.1597044
   center of mass at/Å    :        0.0031469       0.0071378       0.0115965
  moments of inertia/u·Å² :        0.5557858E+02   0.3348804E+03   0.3612075E+03
rotational constants/cm⁻¹ :        0.3033117E+00   0.5033927E-01   0.4667022E-01

 * 16 selected distances

     #   Z          #   Z                                           value/Å
     1   6 C        2   6 C                                       1.5246902
     2   6 C        3   6 C                                       1.5289836
     3   6 C        4   6 C                                       1.5324712 (max)
     5   6 C        6   6 C                                       1.3198901
     1   6 C        7   1 H                                       1.0878076
     1   6 C        8   1 H                                       1.0874406
     1   6 C        9   1 H                                       1.0866492
     2   6 C       10   1 H                                       1.0925567
     2   6 C       11   1 H                                       1.0924041
     3   6 C       12   1 H                                       1.0924544
     3   6 C       13   1 H                                       1.0928225
     4   6 C       14   1 H                                       1.0939202
     4   6 C       15   1 H                                       1.0901858
     5   6 C       16   1 H                                       1.0828819
     6   6 C       17   1 H                                       1.0766980 (min)
     6   6 C       18   1 H                                       1.0778783

 * 2 distinct bonds (by element types)

   Z      Z             #   av. dist./Å        max./Å        min./Å
   1 H    6 C          12     1.0878083     1.0939202     1.0766980
   6 C    6 C           4     1.4765088     1.5324712     1.3198901

           -------------------------------------------------
          |               Frequency Printout                |
           -------------------------------------------------
 projected vibrational frequencies (cm⁻¹)
eigval :       -0.00    -0.00    -0.00    -0.00     0.00     0.00
eigval :       58.85    69.97   113.05   199.74   268.71   310.68
eigval :      413.22   462.02   630.38   784.79   822.37   893.07
eigval :      925.56   940.21   956.69  1021.98  1023.77  1055.08
eigval :     1115.33  1131.36  1166.77  1208.28  1249.85  1266.03
eigval :     1283.92  1304.09  1348.87  1357.69  1411.83  1412.68
eigval :     1473.11  1485.90  1491.85  1502.06  1506.45  1718.25
eigval :     2944.35  2956.80  2958.03  2975.03  2977.69  2997.84
eigval :     3026.35  3031.25  3042.32  3044.69  3094.35  3115.04
 reduced masses (amu)
   1:  9.22   2:  9.73   3: 10.14   4: 10.04   5: 10.12   6:  8.67   7:  7.70   8:  7.73
   9:  6.69  10:  4.31  11:  5.05  12:  8.06  13:  7.46  14:  7.41  15:  5.50  16:  2.81
  17:  2.97  18:  3.99  19:  6.93  20:  4.47  21:  5.74  22:  3.52  23:  3.74  24:  5.45
  25:  7.11  26:  7.49  27:  7.67  28:  5.18  29:  3.44  30:  2.47  31:  2.51  32:  3.10
  33:  4.39  34:  4.89  35:  3.13  36:  2.51  37:  2.04  38:  1.89  39:  1.89  40:  1.63
  41:  1.56  42: 11.21  43:  1.77  44:  1.95  45:  1.90  46:  1.58  47:  1.48  48:  1.69
  49:  1.92  50:  1.82  51:  1.81  52:  1.40  53:  1.56  54:  2.06
 IR intensities (km·mol⁻¹)
   1:  0.03   2:  0.02   3:  0.01   4:  0.01   5:  0.02   6:  0.01   7:  0.04   8:  0.05
   9:  0.06  10:  0.05  11:  0.09  12:  0.06  13:  0.04  14:  2.90  15:  1.86  16:  9.26
  17:  7.23  18: 16.65  19:  0.21  20:  3.04  21:  4.23  22:  8.32  23:  8.14  24:  4.08
  25:  0.39  26:  0.73  27:  4.85  28:  0.47  29:  0.24  30:  0.11  31:  5.24  32:  3.19
  33:  8.02  34:  1.55  35:  5.98  36:  9.36  37:  0.11  38:  0.44  39:  1.43  40:  0.54
  41:  0.93  42: 21.41  43: 44.00  44: 44.02  45: 93.60  46:127.56  47: 80.14  48: 63.15
  49: 87.48  50: 79.17  51:107.70  52: 46.91  53: 49.01  54:106.85
 Raman intensities (Ä⁴*amu⁻¹)
   1:  0.00   2:  0.00   3:  0.00   4:  0.00   5:  0.00   6:  0.00   7:  0.00   8:  0.00
   9:  0.00  10:  0.00  11:  0.00  12:  0.00  13:  0.00  14:  0.00  15:  0.00  16:  0.00
  17:  0.00  18:  0.00  19:  0.00  20:  0.00  21:  0.00  22:  0.00  23:  0.00  24:  0.00
  25:  0.00  26:  0.00  27:  0.00  28:  0.00  29:  0.00  30:  0.00  31:  0.00  32:  0.00
  33:  0.00  34:  0.00  35:  0.00  36:  0.00  37:  0.00  38:  0.00  39:  0.00  40:  0.00
  41:  0.00  42:  0.00  43:  0.00  44:  0.00  45:  0.00  46:  0.00  47:  0.00  48:  0.00
  49:  0.00  50:  0.00  51:  0.00  52:  0.00  53:  0.00  54:  0.00
 output can be read by thermo (or use thermo option).
 writing <g98.out> molden fake output.
 recommended (thermochemical) frequency scaling factor: 1.0
           -------------------------------------------------
          |             Thermodynamic Functions             |
           -------------------------------------------------

Molecule has no symmetry elements
It seems to be the C1 point group
c1  symmetry found (for desy threshold:  0.10E+00) used in thermo

          ...................................................
          :                      SETUP                      :
          :.................................................:
          :  # frequencies                          48      :
          :  # imaginary freq.                       0      :
          :  linear?                             false      :
          :  only rotor calc.                    false      :
          :  symmetry                               c1      :
          :  rotational number                       1      :
          :  scaling factor                  1.0000000      :
          :  rotor cutoff                    0.0000000 cm⁻¹ :
          :  imag. cutoff                 -100.0000000 cm⁻¹ :
          :.................................................:

    mode    ω/cm⁻¹     T·S(HO)/kcal·mol⁻¹    T·S(FR)/kcal·mol⁻¹   T·S(vib)
   ------------------------------------------------------------------------
       1     58.85    -1.34027 (100.00%)    -1.00792 (  0.00%)    -1.34027
       2     69.97    -1.23861 (100.00%)    -0.95673 (  0.00%)    -1.23861
       3    113.05    -0.95880 (100.00%)    -0.81470 (  0.00%)    -0.95880
       4    199.74    -0.63669 (100.00%)    -0.64616 (  0.00%)    -0.63669
       5    268.71    -0.47837 (100.00%)    -0.55831 (  0.00%)    -0.47837
   ------------------------------------------------------------------------

   temp. (K)  partition function   enthalpy   heat capacity  entropy
                                   cal/mol     cal/K/mol   cal/K/mol   J/K/mol
 298.15  VIB   151.                 3187.848     21.481     20.661
         ROT  0.198E+06              888.752      2.981     27.218
         INT  0.299E+08             4076.600     24.462     47.880
         TR   0.747E+27             1481.254      4.968     39.186
         TOT                        5557.8541    29.4299    87.0657   364.2830

       T/K    H(0)-H(T)+PV         H(T)/Eh          T*S/Eh         G(T)/Eh
   ------------------------------------------------------------------------
    298.15    0.885700E-02    0.171856E+00    0.413677E-01    0.130488E+00
   ------------------------------------------------------------------------

         :::::::::::::::::::::::::::::::::::::::::::::::::::::
         ::                  THERMODYNAMIC                  ::
         :::::::::::::::::::::::::::::::::::::::::::::::::::::
         :: total free energy         -18.804370474774 Eh   ::
         ::.................................................::
         :: total energy              -18.934858622073 Eh   ::
         :: zero point energy           0.162998880104 Eh   ::
         :: G(RRHO) w/o ZPVE           -0.032510732805 Eh   ::
         :: G(RRHO) contrib.            0.130488147300 Eh   ::
         :::::::::::::::::::::::::::::::::::::::::::::::::::::

optimized geometry written to: xtbopt.coord


           -------------------------------------------------
          | TOTAL ENERGY              -18.934858622073 Eh   |
          | TOTAL ENTHALPY            -18.763002737657 Eh   |
          | TOTAL FREE ENERGY         -18.804370474774 Eh   |
          | GRADIENT NORM               0.000038272075 Eh/α |
          | HOMO-LUMO GAP               5.379150168991 eV   |
           -------------------------------------------------

------------------------------------------------------------------------
 * finished run on 2025/04/11 at 14:48:47.015     
------------------------------------------------------------------------
 total:
 * wall-time:     0 d,  0 h,  0 min,  1.317 sec
 *  cpu-time:     0 d,  0 h,  0 min,  1.251 sec
 * ratio c/w:     0.950 speedup
 SCF:
 * wall-time:     0 d,  0 h,  0 min,  0.046 sec
 *  cpu-time:     0 d,  0 h,  0 min,  0.020 sec
 * ratio c/w:     0.443 speedup
 ANC optimizer:
 * wall-time:     0 d,  0 h,  0 min,  0.200 sec
 *  cpu-time:     0 d,  0 h,  0 min,  0.195 sec
 * ratio c/w:     0.977 speedup
 analytical hessian:
 * wall-time:     0 d,  0 h,  0 min,  1.025 sec
 *  cpu-time:     0 d,  0 h,  0 min,  1.023 sec
 * ratio c/w:     0.998 speedup

