! r2scan-3c def2/J RI DEFGRID2 scfconv6 printgap
%output
    printlevel normal
end
* xyz 0 1
C -2.2857065606 -1.4708024063 -0.2052387979
C -2.474796187 0.0367334296 -0.0867109898
C -1.34905254 0.6829315675 0.7233910803
C -0.0337283587 0.6220649074 -0.0109344529
O 0.1136264501 0.8386857591 -1.1954213902
O 0.9656963968 0.3248011661 0.8120449683
C 2.2961925724 0.2380732601 0.2749079616
C 2.5863995956 -1.1634503679 -0.2400058367
H -1.3554222136 -1.6954279404 -0.7234782746
H -2.2523865437 -1.9311680038 0.7793186122
H -3.1043576835 -1.9125375542 -0.766897272
H -3.4275085413 0.2499633856 0.3985265026
H -2.487277535 0.4827802147 -1.0829120902
H -1.2276392134 0.1997567647 1.6923212291
H -1.5735101939 1.7395635375 0.8840365282
H 2.3965731324 0.973125245 -0.5295370863
H 2.9483161642 0.4971335306 1.1095476992
H 2.4244354928 -1.8926589132 0.5490307536
H 1.9318206076 -1.3956614115 -1.0772131683
H 3.617270435 -1.2183299618 -0.5740712936
*
