! pbe def2-sv(p) def2/J RI DEFGRID1 loosescf d4 GCP(DFT/SV(P)) printgap
%output
    printlevel normal
end
* xyz 0 1
C -3.4667636222 1.9168520392 0.5608985979
C -3.1458375554 0.6824548071 -0.2759989135
H -3.6038170758 0.7567606049 -1.2652307636
C -1.6619198947 0.4180752594 -0.4516116197
C -1.2211813562 -0.1927554069 -1.6443967536
C 0.0982990074 -0.477671692 -1.8434484384
C 1.0609639003 -0.1707103498 -0.8566537912
C 2.4260383198 -0.4488468697 -1.0279511857
C 3.3426135923 -0.143272038 -0.0453043272
C 2.9062724396 0.4597161823 1.1513045234
C 1.5801646138 0.7377410078 1.3361171683
C 0.6215731838 0.4349166781 0.3499369564
C -0.7496648119 0.7102622633 0.5276126715
O 4.643723849 -0.458150801 -0.3144934942
C 5.6337352939 -0.1746678938 0.6560817575
C -3.6650559387 -0.580677355 0.380669054
O -3.7206029183 -0.7704387643 1.5759679666
O -4.010560626 -1.4985952199 -0.5080984575
H -4.5163073036 2.1769800528 0.4500445098
H -3.2789713363 1.7169699717 1.6128487235
H -2.8576004137 2.7560629621 0.2383876556
H -1.9493602622 -0.4379364009 -2.4033973202
H 0.4262878873 -0.9435601326 -2.7605511263
H 2.7737423178 -0.9100300208 -1.9394279038
H 3.6133317441 0.7054157922 1.9270050295
H 1.2514119582 1.1992625853 2.2554828922
H -1.0641143543 1.155673661 1.4585452804
H 5.6967646712 0.8980384769 0.8565176128
H 6.5676964227 -0.5187304647 0.2173524945
H 5.4445138598 -0.7172609231 1.5859367046
H -4.2918656502 -2.3396452846 -0.0980067167
*
