20
 xtb: 6.7.1 (edcfbbe)
C           -3.64473219269705       -0.99473302885816        0.46034632637744
C           -2.69163265784780        0.12514128881826        0.05458166098325
C           -1.22767066391666       -0.30868610343116        0.11436650925805
C           -0.29368367358229        0.82126412784005       -0.31045566628509
C            1.17373746200735        0.50636007252368       -0.37214182695392
O            1.99335046918138        1.19464336960524       -0.96157753708387
O            1.50986419544066       -0.60258540186354        0.31015185533099
C            2.92136119642611       -0.94100073915601        0.31077893426760
H           -4.68820835152514       -0.66825542371541        0.41040630052871
H           -3.53270219086294       -1.86184069569347       -0.19991591443812
H           -3.44602672035847       -1.32746787412257        1.48510634514561
H           -2.92723852585608        0.46042300388049       -0.96357944427228
H           -2.83766975695937        0.99298335832709        0.71065986940009
H           -1.07681814608284       -1.17574274739759       -0.54038416201659
H           -0.98541698551217       -0.63196029490061        1.13291306174354
H           -0.38705395763118        1.67140578627840        0.38014957643611
H           -0.56897289387545        1.20587786508725       -1.29864205381887
H            3.26619438549488       -1.11820491461628       -0.71066759343746
H            2.99842512221852       -1.85246400888968        0.90259911324823
H            3.50194336051743       -0.13725240335366        0.76988543875637
