      -----------------------------------------------------------      
     |                   =====================                   |     
     |                           x T B                           |     
     |                   =====================                   |     
     |                         S. Grimme                         |     
     |          Mulliken Center for Theoretical Chemistry        |     
     |                    University of Bonn                     |     
      -----------------------------------------------------------      

   * xtb version 6.7.1 (edcfbbe) compiled by 'albert@albert-system' on 2024-07-22

   xtb is free software: you can redistribute it and/or modify it under
   the terms of the GNU Lesser General Public License as published by
   the Free Software Foundation, either version 3 of the License, or
   (at your option) any later version.
   
   xtb is distributed in the hope that it will be useful,
   but WITHOUT ANY WARRANTY; without even the implied warranty of
   MERCHANTABILITY or FITNESS FOR A PARTICULAR PURPOSE.  See the
   GNU Lesser General Public License for more details.
   
   Cite this work as:
   * C. Bannwarth, E. Caldeweyher, S. Ehlert, A. Hansen, P. Pracht,
     J. Seibert, S. Spicher, S. Grimme, WIREs Comput. Mol. Sci., 2020, 11,
     e01493. DOI: 10.1002/wcms.1493
   
   for GFN2-xTB:
   * C. Bannwarth, S. Ehlert and S. Grimme., J. Chem. Theory Comput., 2019,
     15, 1652-1671. DOI: 10.1021/acs.jctc.8b01176
   for GFN1-xTB:
   * S. Grimme, C. Bannwarth, P. Shushkov, J. Chem. Theory Comput., 2017,
     13, 1989-2009. DOI: 10.1021/acs.jctc.7b00118
   for GFN0-xTB:
   * P. Pracht, E. Caldeweyher, S. Ehlert, S. Grimme, ChemRxiv, 2019, preprint.
     DOI: 10.26434/chemrxiv.8326202.v1
   for GFN-FF:
   * S. Spicher and S. Grimme, Angew. Chem. Int. Ed., 2020, 59, 15665-15673.
     DOI: 10.1002/anie.202004239
   
   for ALPB and GBSA implicit solvation:
   * S. Ehlert, M. Stahn, S. Spicher, S. Grimme, J. Chem. Theory Comput.,
     2021, 17, 4250-4261. DOI: 10.1021/acs.jctc.1c00471
   
   for ddCOSMO and CPCM-X implicit solvation:
   * M. Stahn, S. Ehlert, S. Grimme, J. Phys. Chem. A,
     2023, XX, XXXX-XXXX. DOI: 10.1021/acs.jpca.3c04382
   
   for DFT-D4:
   * E. Caldeweyher, C. Bannwarth and S. Grimme, J. Chem. Phys., 2017,
     147, 034112. DOI: 10.1063/1.4993215
   * E. Caldeweyher, S. Ehlert, A. Hansen, H. Neugebauer, S. Spicher,
     C. Bannwarth and S. Grimme, J. Chem. Phys., 2019, 150, 154122.
     DOI: 10.1063/1.5090222
   * E. Caldeweyher, J.-M. Mewes, S. Ehlert and S. Grimme, Phys. Chem. Chem. Phys.
     2020, 22, 8499-8512. DOI: 10.1039/D0CP00502A
   
   for sTDA-xTB:
   * S. Grimme and C. Bannwarth, J. Chem. Phys., 2016, 145, 054103.
     DOI: 10.1063/1.4959605
   
   in the mass-spec context:
   * V. Asgeirsson, C. Bauer and S. Grimme, Chem. Sci., 2017, 8, 4879.
     DOI: 10.1039/c7sc00601b
   * J. Koopman and S. Grimme, ACS Omega 2019, 4, 12, 15120-15133.
     DOI: 10.1021/acsomega.9b02011
   
   for metadynamics refer to:
   * S. Grimme, J. Chem. Theory Comput., 2019, 155, 2847-2862
     DOI: 10.1021/acs.jctc.9b00143
   
   for SPH calculations refer to:
   * S. Spicher and S. Grimme, J. Chem. Theory Comput., 2021, 17, 1701-1714
     DOI: 10.1021/acs.jctc.0c01306
   
   for ONIOM refer to:
   * C. Plett, A. Katbashev, S. Ehlert, S. Grimme, M. Bursch,
     Phys. Chem. Chem. Phys., 2023, 25, 17860-17868. DOI: 10.1039/D3CP02178E
   
   for DIPRO refer to:
   * J. Kohn, N. Gildemeister, S. Grimme, D. Fazzi, A. Hansen,
     J. Chem. Phys., 2023, just accepted.
   
   for PTB refer to:
   * S. Grimme, M. Mueller, A. Hansen, J. Chem. Phys., 2023, 158, 124111.
     DOI: 10.1063/5.0137838
   
   with help from (in alphabetical order)
   P. Atkinson, C. Bannwarth, F. Bohle, G. Brandenburg, E. Caldeweyher
   M. Checinski, S. Dohm, S. Ehlert, S. Ehrlich, I. Gerasimov, C. Hölzer
   A. Katbashev, J. Kohn, J. Koopman, C. Lavigne, S. Lehtola, F. März, M. Müller,
   F. Musil, H. Neugebauer, J. Pisarek, C. Plett, P. Pracht, F. Pultar,
   J. Seibert, P. Shushkov, S. Spicher, M. Stahn, M. Steiner, T. Strunk,
   J. Stückrath, T. Rose, and J. Unsleber
   
 * started run on 2025/04/11 at 14:08:43.328     
   ID    Z sym.   atoms
    1    6 C      1, 3, 4, 6
    2    8 O      2, 5
    3    1 H      7-16

           -------------------------------------------------
          |                Calculation Setup                |
           -------------------------------------------------

          program call               : /software/projects/pawsey0265/mwang1/xtb/bin/xtb solv.coord --gfn2 --sp --chrg 0 --norestart --parallel 1 --alpb water reference -I xtb_sp-xcontrol-inp
          hostname                   : nid001912
          coordinate file            : solv.coord
          omp threads                :                     1


           -------------------------------------------------
          |                 G F N 2 - x T B                 |
           -------------------------------------------------

        Reference                      10.1021/acs.jctc.8b01176
      * Hamiltonian:
        H0-scaling (s, p, d)           1.850000    2.230000    2.230000
        zeta-weighting                 0.500000
      * Dispersion:
        s8                             2.700000
        a1                             0.520000
        a2                             5.000000
        s9                             5.000000
      * Repulsion:
        kExp                           1.500000    1.000000
        rExp                           1.000000
      * Coulomb:
        alpha                          2.000000
        third order                    shell-resolved
        anisotropic                    true
        a3                             3.000000
        a5                             4.000000
        cn-shift                       1.200000
        cn-exp                         4.000000
        max-rad                        5.000000

      * Solvation model:               ALPB
        Solvent                        water
        Parameter file                 internal GFN2-xTB/ALPB
        Dielectric constant                8.0200E+01
        Reference state                gsolv=reference [X=1]
        Free energy shift                  2.8945E-03 Eh       1.8164E+00 kcal/mol
        Temperature                        2.9815E+02 K
        Density                            1.0000E+00 kg/L
        Solvent mass                       1.8000E+01 g/mol
        Interaction kernel             P16
        Born radius scaling (c1)           1.4744E+00
        Born radii integrator          GBOBC
        Born offset                        0.0000E+00 a0       0.0000E+00 AA
        H-bond correction              true
        Ion screening                  false
        Surface tension                    1.0000E-05 Eh       1.5569E+01 dyn/cm
        Grid points                               974 per atom

          ...................................................
          :                      SETUP                      :
          :.................................................:
          :  # basis functions                  34          :
          :  # atomic orbitals                  34          :
          :  # shells                           22          :
          :  # electrons                        38          :
          :  max. iterations                   250          :
          :  Hamiltonian                  GFN2-xTB          :
          :  restarted?                      false          :
          :  GBSA solvation                   true          :
          :  PC potential                    false          :
          :  electronic temp.          300.0000000     K    :
          :  accuracy                    1.0000000          :
          :  -> integral cutoff          0.2500000E+02      :
          :  -> integral neglect         0.1000000E-07      :
          :  -> SCF convergence          0.1000000E-05 Eh   :
          :  -> wf. convergence          0.1000000E-03 e    :
          :  Broyden damping             0.4000000          :
          :  net charge                          0          :
          :  unpaired electrons                  0          :
          ...................................................

 iter      E             dE          RMSdq      gap      omega  full diag
   1    -21.9357828 -0.219358E+02  0.466E+00   10.74       0.0  T
   2    -21.9782809 -0.424981E-01  0.235E+00   10.45       1.0  T
   3    -21.9790226 -0.741681E-03  0.783E-01   10.50       1.0  T
   4    -21.9791458 -0.123248E-03  0.126E-01   10.54       1.0  T
   5    -21.9791535 -0.769412E-05  0.218E-02   10.56       1.1  T
   6    -21.9791543 -0.779330E-06  0.858E-03   10.56       2.9  T
   7    -21.9791545 -0.157304E-06  0.222E-03   10.56      11.3  T
   8    -21.9791545 -0.190496E-08  0.590E-04   10.56      42.4  T
   9    -21.9791545 -0.183814E-09  0.985E-05   10.56     253.9  T

   *** convergence criteria satisfied after 9 iterations ***

         #    Occupation            Energy/Eh            Energy/eV
      -------------------------------------------------------------
         1        2.0000           -0.7078607             -19.2619
       ...           ...                  ...                  ...
        13        2.0000           -0.4868385             -13.2475
        14        2.0000           -0.4861821             -13.2297
        15        2.0000           -0.4650508             -12.6547
        16        2.0000           -0.4619068             -12.5691
        17        2.0000           -0.4403857             -11.9835
        18        2.0000           -0.4244886             -11.5509
        19        2.0000           -0.3954003             -10.7594 (HOMO)
        20                         -0.0073385              -0.1997 (LUMO)
        21                          0.0502207               1.3666
        22                          0.0802784               2.1845
        23                          0.0968561               2.6356
        24                          0.1198553               3.2614
       ...                                ...                  ...
        34                          0.2997396               8.1563
      -------------------------------------------------------------
                  HL-Gap            0.3880618 Eh           10.5597 eV
             Fermi-level           -0.2013694 Eh           -5.4795 eV

 SCC (total)                   0 d,  0 h,  0 min,  0.037 sec
 SCC setup                      ...        0 min,  0.001 sec (  3.902%)
 Dispersion                     ...        0 min,  0.000 sec (  0.321%)
 classical contributions        ...        0 min,  0.000 sec (  0.111%)
 integral evaluation            ...        0 min,  0.002 sec (  4.483%)
 iterations                     ...        0 min,  0.029 sec ( 79.470%)
 molecular gradient             ...        0 min,  0.004 sec ( 11.331%)
 printout                       ...        0 min,  0.000 sec (  0.315%)

         :::::::::::::::::::::::::::::::::::::::::::::::::::::
         ::                     SUMMARY                     ::
         :::::::::::::::::::::::::::::::::::::::::::::::::::::
         :: total energy             -21.773874679378 Eh    ::
         :: total w/o Gsasa/hb       -21.776566372257 Eh    ::
         :: gradient norm              0.000069874610 Eh/a0 ::
         :: HOMO-LUMO gap             10.559700065810 eV    ::
         ::.................................................::
         :: SCC energy               -21.979159954044 Eh    ::
         :: -> isotropic ES            0.043631643418 Eh    ::
         :: -> anisotropic ES          0.002374191887 Eh    ::
         :: -> anisotropic XC          0.003147751268 Eh    ::
         :: -> dispersion             -0.007859889457 Eh    ::
         :: -> Gsolv                  -0.003040740382 Eh    ::
         ::    -> Gelec               -0.005732433261 Eh    ::
         ::    -> Gsasa                0.001175472219 Eh    ::
         ::    -> Ghb                 -0.001378328500 Eh    ::
         ::    -> Gshift               0.002894549160 Eh    ::
         :: repulsion energy           0.205285274666 Eh    ::
         :: add. restraining           0.000000000000 Eh    ::
         :: total charge               0.000000000000 e     ::
         :::::::::::::::::::::::::::::::::::::::::::::::::::::

           -------------------------------------------------
          |                Property Printout                |
           -------------------------------------------------

    * Orbital Energies and Occupations

         #    Occupation            Energy/Eh            Energy/eV
      -------------------------------------------------------------
         1        2.0000           -0.7078607             -19.2619
       ...           ...                  ...                  ...
         7        2.0000           -0.5666354             -15.4189
         8        2.0000           -0.5575422             -15.1715
         9        2.0000           -0.5549999             -15.1023
        10        2.0000           -0.5410138             -14.7217
        11        2.0000           -0.5314115             -14.4604
        12        2.0000           -0.5163956             -14.0518
        13        2.0000           -0.4868385             -13.2475
        14        2.0000           -0.4861821             -13.2297
        15        2.0000           -0.4650508             -12.6547
        16        2.0000           -0.4619068             -12.5691
        17        2.0000           -0.4403857             -11.9835
        18        2.0000           -0.4244886             -11.5509
        19        2.0000           -0.3954003             -10.7594 (HOMO)
        20                         -0.0073385              -0.1997 (LUMO)
        21                          0.0502207               1.3666
        22                          0.0802784               2.1845
        23                          0.0968561               2.6356
        24                          0.1198553               3.2614
        25                          0.1330053               3.6193
        26                          0.1436721               3.9095
        27                          0.1591659               4.3311
        28                          0.1705385               4.6406
        29                          0.1922786               5.2322
        30                          0.2047584               5.5718
       ...                                ...                  ...
        34                          0.2997396               8.1563
      -------------------------------------------------------------
                  HL-Gap            0.3880618 Eh           10.5597 eV
             Fermi-level           -0.2013694 Eh           -5.4795 eV

     #   Z          covCN         q      C6AA      α(0)
     1   6 C        3.643     0.023    20.537     6.515
     2   8 O        1.700    -0.353    19.948     6.030
     3   6 C        3.692     0.066    19.653     6.344
     4   6 C        3.691     0.066    19.654     6.344
     5   8 O        1.700    -0.353    19.948     6.030
     6   6 C        3.643     0.023    20.535     6.515
     7   1 H        0.924     0.046     2.375     2.410
     8   1 H        0.925     0.078     2.004     2.214
     9   1 H        0.924     0.042     2.419     2.432
    10   1 H        0.923     0.038     2.471     2.458
    11   1 H        0.924     0.061     2.190     2.314
    12   1 H        0.924     0.061     2.191     2.315
    13   1 H        0.923     0.039     2.469     2.457
    14   1 H        0.924     0.042     2.419     2.432
    15   1 H        0.925     0.078     2.004     2.214
    16   1 H        0.924     0.046     2.375     2.410

 Mol. C6AA /au·bohr⁶  :       1754.016120
 Mol. C8AA /au·bohr⁸  :      35615.093376
 Mol. α(0) /au        :         61.434287


Wiberg/Mayer (AO) data.
largest (>0.10) Wiberg bond orders for each atom

 ---------------------------------------------------------------------------
     #   Z sym  total        # sym  WBO       # sym  WBO       # sym  WBO
 ---------------------------------------------------------------------------
     1   6 C    3.939 --     2 O    0.982     9 H    0.978     8 H    0.978
                             7 H    0.978
     2   8 O    2.053 --     3 C    0.986     1 C    0.982
     3   6 C    3.949 --     2 O    0.986     4 C    0.980    10 H    0.967
                            11 H    0.967
     4   6 C    3.949 --     5 O    0.986     3 C    0.980    12 H    0.967
                            13 H    0.967
     5   8 O    2.054 --     4 C    0.986     6 C    0.982
     6   6 C    3.939 --     5 O    0.982    14 H    0.978    15 H    0.978
                            16 H    0.977
     7   1 H    0.998 --     1 C    0.978
     8   1 H    0.994 --     1 C    0.978
     9   1 H    0.998 --     1 C    0.978
    10   1 H    0.999 --     3 C    0.967
    11   1 H    0.996 --     3 C    0.967
    12   1 H    0.996 --     4 C    0.967
    13   1 H    0.999 --     4 C    0.967
    14   1 H    0.998 --     6 C    0.978
    15   1 H    0.994 --     6 C    0.978
    16   1 H    0.998 --     6 C    0.977
 ---------------------------------------------------------------------------

Topologies differ in total number of bonds
Writing topology from bond orders to xtbtopo.mol

molecular dipole:
                 x           y           z       tot (Debye)
 q only:       -0.002      -0.001       0.008
   full:       -0.003      -0.002       0.009       0.026
molecular quadrupole (traceless):
                xx          xy          yy          xz          yz          zz
 q only:        2.418       7.436      -1.453      -1.397      -0.623      -0.965
  q+dip:       -0.406       7.799      -1.004      -0.265       0.080       1.410
   full:        0.619       8.397      -1.103      -0.876      -0.252       0.484


           -------------------------------------------------
          | TOTAL ENERGY              -21.773874679378 Eh   |
          | GRADIENT NORM               0.000069874610 Eh/α |
          | HOMO-LUMO GAP              10.559700065810 eV   |
           -------------------------------------------------

------------------------------------------------------------------------
 * finished run on 2025/04/11 at 14:08:43.386     
------------------------------------------------------------------------
 total:
 * wall-time:     0 d,  0 h,  0 min,  0.057 sec
 *  cpu-time:     0 d,  0 h,  0 min,  0.031 sec
 * ratio c/w:     0.556 speedup
 SCF:
 * wall-time:     0 d,  0 h,  0 min,  0.037 sec
 *  cpu-time:     0 d,  0 h,  0 min,  0.020 sec
 * ratio c/w:     0.549 speedup

