! pbe def2-sv(p) def2/J RI DEFGRID1 loosescf d4 GCP(DFT/SV(P)) printgap
%output
    printlevel normal
end
* xyz 0 1
C -3.3003233586 -0.868159885 0.2743664557
C -1.8981749435 -0.600125552 -0.2589633022
C -1.5042850572 0.8662149425 -0.0933898648
C -0.1157379181 1.1529996859 -0.6726108527
C 0.9508995536 0.4335621643 0.1107214022
O 1.0997353381 0.4992862376 1.3128792549
O 1.7346315284 -0.2927018797 -0.6795674172
C 2.8041914634 -1.0229825463 -0.0728504529
H -4.0306210889 -0.2645247663 -0.2589869085
H -3.5618915479 -1.9158094727 0.1506837762
H -3.357338287 -0.6215853188 1.3320310362
H -1.1795053389 -1.2268724539 0.275682287
H -1.8525531444 -0.870190165 -1.3161553594
H -1.5011686073 1.123978624 0.9676655629
H -2.2358724412 1.4981508613 -0.5981301871
H 0.0914780619 2.2220966402 -0.6012389671
H -0.0516246003 0.8419818958 -1.7146079664
H 3.4553580598 -1.324808972 -0.8870930659
H 2.406320199 -1.8938229578 0.4491021358
H 3.3311518578 -0.389219061 0.6413194613
*
