20
 xtb: 6.7.1 (edcfbbe)
C           -3.94230165948074        0.06690828828255       -0.29541613281670
C           -2.70103029360016       -0.26082598742548        0.52857806400666
C           -1.40968045357007        0.10141373100331       -0.20221578444186
C           -0.17526132060755       -0.24098931131395        0.62162315726059
C            1.11597586945292        0.11981254148215       -0.05308440570704
O            1.22521034118538        0.75719190488852       -1.08680404925830
O            2.18035664435235       -0.34438483383074        0.63602968377562
C            3.48112125734323       -0.02396693756755        0.08019624346875
H           -3.94379482763839       -0.48839456427583       -1.24004686798264
H           -4.85949040725663       -0.18848481711711        0.24464967399292
H           -3.98152204536547        1.13498812171255       -0.53689273572984
H           -2.73729844431909        0.27775807985599        1.48437086978210
H           -2.69101313501536       -1.33072337514504        0.77370867849992
H           -1.40933576592216        1.17280329755393       -0.43546005458208
H           -1.36819664889213       -0.43086842080854       -1.16069074518016
H           -0.14350996930744       -1.30925513291908        0.86653861245279
H           -0.19057673014761        0.28673030322184        1.58495166819773
H            4.20420636869496       -0.47784382054654        0.75688361536309
H            3.62094475699958        1.05913085622950        0.04497289760937
H            3.57966148500693       -0.44831788491667       -0.92172804847694
