      -----------------------------------------------------------      
     |                   =====================                   |     
     |                           x T B                           |     
     |                   =====================                   |     
     |                         S. Grimme                         |     
     |          Mulliken Center for Theoretical Chemistry        |     
     |                    University of Bonn                     |     
      -----------------------------------------------------------      

   * xtb version 6.7.1 (edcfbbe) compiled by 'albert@albert-system' on 2024-07-22

   xtb is free software: you can redistribute it and/or modify it under
   the terms of the GNU Lesser General Public License as published by
   the Free Software Foundation, either version 3 of the License, or
   (at your option) any later version.
   
   xtb is distributed in the hope that it will be useful,
   but WITHOUT ANY WARRANTY; without even the implied warranty of
   MERCHANTABILITY or FITNESS FOR A PARTICULAR PURPOSE.  See the
   GNU Lesser General Public License for more details.
   
   Cite this work as:
   * C. Bannwarth, E. Caldeweyher, S. Ehlert, A. Hansen, P. Pracht,
     J. Seibert, S. Spicher, S. Grimme, WIREs Comput. Mol. Sci., 2020, 11,
     e01493. DOI: 10.1002/wcms.1493
   
   for GFN2-xTB:
   * C. Bannwarth, S. Ehlert and S. Grimme., J. Chem. Theory Comput., 2019,
     15, 1652-1671. DOI: 10.1021/acs.jctc.8b01176
   for GFN1-xTB:
   * S. Grimme, C. Bannwarth, P. Shushkov, J. Chem. Theory Comput., 2017,
     13, 1989-2009. DOI: 10.1021/acs.jctc.7b00118
   for GFN0-xTB:
   * P. Pracht, E. Caldeweyher, S. Ehlert, S. Grimme, ChemRxiv, 2019, preprint.
     DOI: 10.26434/chemrxiv.8326202.v1
   for GFN-FF:
   * S. Spicher and S. Grimme, Angew. Chem. Int. Ed., 2020, 59, 15665-15673.
     DOI: 10.1002/anie.202004239
   
   for ALPB and GBSA implicit solvation:
   * S. Ehlert, M. Stahn, S. Spicher, S. Grimme, J. Chem. Theory Comput.,
     2021, 17, 4250-4261. DOI: 10.1021/acs.jctc.1c00471
   
   for ddCOSMO and CPCM-X implicit solvation:
   * M. Stahn, S. Ehlert, S. Grimme, J. Phys. Chem. A,
     2023, XX, XXXX-XXXX. DOI: 10.1021/acs.jpca.3c04382
   
   for DFT-D4:
   * E. Caldeweyher, C. Bannwarth and S. Grimme, J. Chem. Phys., 2017,
     147, 034112. DOI: 10.1063/1.4993215
   * E. Caldeweyher, S. Ehlert, A. Hansen, H. Neugebauer, S. Spicher,
     C. Bannwarth and S. Grimme, J. Chem. Phys., 2019, 150, 154122.
     DOI: 10.1063/1.5090222
   * E. Caldeweyher, J.-M. Mewes, S. Ehlert and S. Grimme, Phys. Chem. Chem. Phys.
     2020, 22, 8499-8512. DOI: 10.1039/D0CP00502A
   
   for sTDA-xTB:
   * S. Grimme and C. Bannwarth, J. Chem. Phys., 2016, 145, 054103.
     DOI: 10.1063/1.4959605
   
   in the mass-spec context:
   * V. Asgeirsson, C. Bauer and S. Grimme, Chem. Sci., 2017, 8, 4879.
     DOI: 10.1039/c7sc00601b
   * J. Koopman and S. Grimme, ACS Omega 2019, 4, 12, 15120-15133.
     DOI: 10.1021/acsomega.9b02011
   
   for metadynamics refer to:
   * S. Grimme, J. Chem. Theory Comput., 2019, 155, 2847-2862
     DOI: 10.1021/acs.jctc.9b00143
   
   for SPH calculations refer to:
   * S. Spicher and S. Grimme, J. Chem. Theory Comput., 2021, 17, 1701-1714
     DOI: 10.1021/acs.jctc.0c01306
   
   for ONIOM refer to:
   * C. Plett, A. Katbashev, S. Ehlert, S. Grimme, M. Bursch,
     Phys. Chem. Chem. Phys., 2023, 25, 17860-17868. DOI: 10.1039/D3CP02178E
   
   for DIPRO refer to:
   * J. Kohn, N. Gildemeister, S. Grimme, D. Fazzi, A. Hansen,
     J. Chem. Phys., 2023, just accepted.
   
   for PTB refer to:
   * S. Grimme, M. Mueller, A. Hansen, J. Chem. Phys., 2023, 158, 124111.
     DOI: 10.1063/5.0137838
   
   with help from (in alphabetical order)
   P. Atkinson, C. Bannwarth, F. Bohle, G. Brandenburg, E. Caldeweyher
   M. Checinski, S. Dohm, S. Ehlert, S. Ehrlich, I. Gerasimov, C. Hölzer
   A. Katbashev, J. Kohn, J. Koopman, C. Lavigne, S. Lehtola, F. März, M. Müller,
   F. Musil, H. Neugebauer, J. Pisarek, C. Plett, P. Pracht, F. Pultar,
   J. Seibert, P. Shushkov, S. Spicher, M. Stahn, M. Steiner, T. Strunk,
   J. Stückrath, T. Rose, and J. Unsleber
   
 * started run on 2025/04/11 at 16:01:11.480     
   ID    Z sym.   atoms
    1    6 C      1-4, 6, 8
    2    8 O      5, 7
    3    1 H      9-20

           -------------------------------------------------
          |                Calculation Setup                |
           -------------------------------------------------

          program call               : /srv/scratch/z5358697/.xtb/bin/xtb solv.coord --gfn2 --sp --chrg 0 --norestart --parallel 1 --alpb water reference -I xtb_sp-xcontrol-inp
          hostname                   : k124
          coordinate file            : solv.coord
          omp threads                :                     1


           -------------------------------------------------
          |                 G F N 2 - x T B                 |
           -------------------------------------------------

        Reference                      10.1021/acs.jctc.8b01176
      * Hamiltonian:
        H0-scaling (s, p, d)           1.850000    2.230000    2.230000
        zeta-weighting                 0.500000
      * Dispersion:
        s8                             2.700000
        a1                             0.520000
        a2                             5.000000
        s9                             5.000000
      * Repulsion:
        kExp                           1.500000    1.000000
        rExp                           1.000000
      * Coulomb:
        alpha                          2.000000
        third order                    shell-resolved
        anisotropic                    true
        a3                             3.000000
        a5                             4.000000
        cn-shift                       1.200000
        cn-exp                         4.000000
        max-rad                        5.000000

      * Solvation model:               ALPB
        Solvent                        water
        Parameter file                 internal GFN2-xTB/ALPB
        Dielectric constant                8.0200E+01
        Reference state                gsolv=reference [X=1]
        Free energy shift                  2.8945E-03 Eh       1.8164E+00 kcal/mol
        Temperature                        2.9815E+02 K
        Density                            1.0000E+00 kg/L
        Solvent mass                       1.8000E+01 g/mol
        Interaction kernel             P16
        Born radius scaling (c1)           1.4744E+00
        Born radii integrator          GBOBC
        Born offset                        0.0000E+00 a0       0.0000E+00 AA
        H-bond correction              true
        Ion screening                  false
        Surface tension                    1.0000E-05 Eh       1.5569E+01 dyn/cm
        Grid points                               974 per atom

          ...................................................
          :                      SETUP                      :
          :.................................................:
          :  # basis functions                  44          :
          :  # atomic orbitals                  44          :
          :  # shells                           28          :
          :  # electrons                        48          :
          :  max. iterations                   250          :
          :  Hamiltonian                  GFN2-xTB          :
          :  restarted?                      false          :
          :  GBSA solvation                   true          :
          :  PC potential                    false          :
          :  electronic temp.          300.0000000     K    :
          :  accuracy                    1.0000000          :
          :  -> integral cutoff          0.2500000E+02      :
          :  -> integral neglect         0.1000000E-07      :
          :  -> SCF convergence          0.1000000E-05 Eh   :
          :  -> wf. convergence          0.1000000E-03 e    :
          :  Broyden damping             0.4000000          :
          :  net charge                          0          :
          :  unpaired electrons                  0          :
          ...................................................

 iter      E             dE          RMSdq      gap      omega  full diag
   1    -27.3705344 -0.273705E+02  0.382E+00    5.70       0.0  T
   2    -27.4322076 -0.616732E-01  0.192E+00    4.95       1.0  T
   3    -27.4340981 -0.189045E-02  0.996E-01    5.28       1.0  T
   4    -27.4354010 -0.130291E-02  0.152E-01    5.04       1.0  T
   5    -27.4355812 -0.180283E-03  0.661E-02    5.07       1.0  T
   6    -27.4355829 -0.164085E-05  0.180E-02    5.07       1.2  T
   7    -27.4355840 -0.108446E-05  0.439E-03    5.07       5.1  T
   8    -27.4355840 -0.310598E-07  0.238E-03    5.07       9.4  T
   9    -27.4355840 -0.139463E-07  0.512E-04    5.07      43.6  T
  10    -27.4355840 -0.748866E-09  0.304E-04    5.07      73.6  T

   *** convergence criteria satisfied after 10 iterations ***

         #    Occupation            Energy/Eh            Energy/eV
      -------------------------------------------------------------
         1        2.0000           -0.7488964             -20.3785
       ...           ...                  ...                  ...
        18        2.0000           -0.4755800             -12.9412
        19        2.0000           -0.4592434             -12.4966
        20        2.0000           -0.4564677             -12.4211
        21        2.0000           -0.4415496             -12.0152
        22        2.0000           -0.4334748             -11.7954
        23        2.0000           -0.4265775             -11.6078
        24        2.0000           -0.4220354             -11.4842 (HOMO)
        25                         -0.2355719              -6.4102 (LUMO)
        26                         -0.0021309              -0.0580
        27                          0.0759610               2.0670
        28                          0.1000097               2.7214
        29                          0.1300660               3.5393
       ...                                ...                  ...
        44                          0.6151804              16.7399
      -------------------------------------------------------------
                  HL-Gap            0.1864635 Eh            5.0739 eV
             Fermi-level           -0.3288036 Eh           -8.9472 eV

 SCC (total)                   0 d,  0 h,  0 min,  0.016 sec
 SCC setup                      ...        0 min,  0.001 sec (  7.781%)
 Dispersion                     ...        0 min,  0.000 sec (  0.731%)
 classical contributions        ...        0 min,  0.000 sec (  0.154%)
 integral evaluation            ...        0 min,  0.002 sec ( 10.681%)
 iterations                     ...        0 min,  0.007 sec ( 47.242%)
 molecular gradient             ...        0 min,  0.005 sec ( 32.342%)
 printout                       ...        0 min,  0.000 sec (  0.956%)

         :::::::::::::::::::::::::::::::::::::::::::::::::::::
         ::                     SUMMARY                     ::
         :::::::::::::::::::::::::::::::::::::::::::::::::::::
         :: total energy             -27.119720496458 Eh    ::
         :: total w/o Gsasa/hb       -27.121414150477 Eh    ::
         :: gradient norm              0.000171006485 Eh/a0 ::
         :: HOMO-LUMO gap              5.073930403593 eV    ::
         ::.................................................::
         :: SCC energy               -27.435502428393 Eh    ::
         :: -> isotropic ES            0.060318120040 Eh    ::
         :: -> anisotropic ES          0.000769466614 Eh    ::
         :: -> anisotropic XC          0.008122970580 Eh    ::
         :: -> dispersion             -0.012384191234 Eh    ::
         :: -> Gsolv                  -0.007791173890 Eh    ::
         ::    -> Gelec               -0.009484827909 Eh    ::
         ::    -> Gsasa                0.001342366539 Eh    ::
         ::    -> Ghb                 -0.002543261680 Eh    ::
         ::    -> Gshift               0.002894549160 Eh    ::
         :: repulsion energy           0.315781931936 Eh    ::
         :: add. restraining           0.000000000000 Eh    ::
         :: total charge              -0.000000000000 e     ::
         :::::::::::::::::::::::::::::::::::::::::::::::::::::

           -------------------------------------------------
          |                Property Printout                |
           -------------------------------------------------

    * Orbital Energies and Occupations

         #    Occupation            Energy/Eh            Energy/eV
      -------------------------------------------------------------
         1        2.0000           -0.7488964             -20.3785
       ...           ...                  ...                  ...
        12        2.0000           -0.5257302             -14.3058
        13        2.0000           -0.5054943             -13.7552
        14        2.0000           -0.4988249             -13.5737
        15        2.0000           -0.4917518             -13.3812
        16        2.0000           -0.4855192             -13.2116
        17        2.0000           -0.4774631             -12.9924
        18        2.0000           -0.4755800             -12.9412
        19        2.0000           -0.4592434             -12.4966
        20        2.0000           -0.4564677             -12.4211
        21        2.0000           -0.4415496             -12.0152
        22        2.0000           -0.4334748             -11.7954
        23        2.0000           -0.4265775             -11.6078
        24        2.0000           -0.4220354             -11.4842 (HOMO)
        25                         -0.2355719              -6.4102 (LUMO)
        26                         -0.0021309              -0.0580
        27                          0.0759610               2.0670
        28                          0.1000097               2.7214
        29                          0.1300660               3.5393
        30                          0.1372548               3.7349
        31                          0.1450171               3.9461
        32                          0.1573671               4.2822
        33                          0.1628350               4.4310
        34                          0.1786070               4.8601
        35                          0.1853146               5.0427
       ...                                ...                  ...
        44                          0.6151804              16.7399
      -------------------------------------------------------------
                  HL-Gap            0.1864635 Eh            5.0739 eV
             Fermi-level           -0.3288036 Eh           -8.9472 eV

     #   Z          covCN         q      C6AA      α(0)
     1   6 C        3.751    -0.109    22.653     6.787
     2   6 C        3.799    -0.057    21.608     6.618
     3   6 C        3.800    -0.076    21.948     6.670
     4   6 C        3.692     0.066    19.649     6.343
     5   8 O        1.704    -0.264    18.371     5.787
     6   6 C        2.707     0.371    20.716     7.450
     7   8 O        0.856    -0.498    23.750     6.534
     8   6 C        3.754    -0.169    23.849     6.964
     9   1 H        0.925     0.037     2.493     2.469
    10   1 H        0.925     0.043     2.413     2.429
    11   1 H        0.925     0.034     2.525     2.485
    12   1 H        0.924     0.042     2.418     2.432
    13   1 H        0.924     0.031     2.566     2.505
    14   1 H        0.924     0.066     2.127     2.281
    15   1 H        0.924     0.060     2.203     2.321
    16   1 H        0.924     0.068     2.104     2.268
    17   1 H        0.924     0.058     2.225     2.333
    18   1 H        0.925     0.101     1.773     2.082
    19   1 H        0.925     0.093     1.850     2.127
    20   1 H        0.925     0.103     1.757     2.073

 Mol. C6AA /au·bohr⁶  :       2998.808101
 Mol. C8AA /au·bohr⁸  :      63886.308191
 Mol. α(0) /au        :         80.957772


Wiberg/Mayer (AO) data.
largest (>0.10) Wiberg bond orders for each atom

 ---------------------------------------------------------------------------
     #   Z sym  total        # sym  WBO       # sym  WBO       # sym  WBO
 ---------------------------------------------------------------------------
     1   6 C    3.996 --     2 C    1.021     9 H    0.987    10 H    0.987
                            11 H    0.987
     2   6 C    3.997 --     1 C    1.021     3 C    1.006    12 H    0.978
                            13 H    0.978
     3   6 C    3.991 --     2 C    1.006     4 C    1.001    14 H    0.973
                            15 H    0.972
     4   6 C    3.914 --     3 C    1.001    17 H    0.967    16 H    0.966
                             5 O    0.923
     5   8 O    2.328 --     6 C    1.170     4 C    0.923     7 O    0.171
     6   6 C    3.905 --     7 O    1.682     5 O    1.170     8 C    0.998
     7   8 O    1.967 --     6 C    1.682     5 O    0.171
     8   6 C    3.983 --     6 C    0.998    19 H    0.980    18 H    0.957
                            20 H    0.952
     9   1 H    0.999 --     1 C    0.987
    10   1 H    0.998 --     1 C    0.987
    11   1 H    0.999 --     1 C    0.987
    12   1 H    0.998 --     2 C    0.978
    13   1 H    0.999 --     2 C    0.978
    14   1 H    0.996 --     3 C    0.973
    15   1 H    0.996 --     3 C    0.972
    16   1 H    0.995 --     4 C    0.966
    17   1 H    0.997 --     4 C    0.967
    18   1 H    0.990 --     8 C    0.957
    19   1 H    0.991 --     8 C    0.980
    20   1 H    0.989 --     8 C    0.952
 ---------------------------------------------------------------------------

Topologies differ in total number of bonds
Writing topology from bond orders to xtbtopo.mol

molecular dipole:
                 x           y           z       tot (Debye)
 q only:       -0.595       0.049      -1.094
   full:       -0.525       0.072      -1.084       3.066
molecular quadrupole (traceless):
                xx          xy          yy          xz          yz          zz
 q only:        1.129      -4.403       4.079      -6.481       2.122      -5.207
  q+dip:        1.045      -3.195       4.106      -6.546       1.359      -5.151
   full:        1.226      -3.036       4.612      -6.923       1.599      -5.838


           -------------------------------------------------
          | TOTAL ENERGY              -27.119720496458 Eh   |
          | GRADIENT NORM               0.000171006485 Eh/α |
          | HOMO-LUMO GAP               5.073930403593 eV   |
           -------------------------------------------------

------------------------------------------------------------------------
 * finished run on 2025/04/11 at 16:01:11.526     
------------------------------------------------------------------------
 total:
 * wall-time:     0 d,  0 h,  0 min,  0.046 sec
 *  cpu-time:     0 d,  0 h,  0 min,  0.023 sec
 * ratio c/w:     0.506 speedup
 SCF:
 * wall-time:     0 d,  0 h,  0 min,  0.016 sec
 *  cpu-time:     0 d,  0 h,  0 min,  0.015 sec
 * ratio c/w:     0.949 speedup

