      -----------------------------------------------------------      
     |                   =====================                   |     
     |                           x T B                           |     
     |                   =====================                   |     
     |                         S. Grimme                         |     
     |          Mulliken Center for Theoretical Chemistry        |     
     |                    University of Bonn                     |     
      -----------------------------------------------------------      

   * xtb version 6.7.1 (edcfbbe) compiled by 'albert@albert-system' on 2024-07-22

   xtb is free software: you can redistribute it and/or modify it under
   the terms of the GNU Lesser General Public License as published by
   the Free Software Foundation, either version 3 of the License, or
   (at your option) any later version.
   
   xtb is distributed in the hope that it will be useful,
   but WITHOUT ANY WARRANTY; without even the implied warranty of
   MERCHANTABILITY or FITNESS FOR A PARTICULAR PURPOSE.  See the
   GNU Lesser General Public License for more details.
   
   Cite this work as:
   * C. Bannwarth, E. Caldeweyher, S. Ehlert, A. Hansen, P. Pracht,
     J. Seibert, S. Spicher, S. Grimme, WIREs Comput. Mol. Sci., 2020, 11,
     e01493. DOI: 10.1002/wcms.1493
   
   for GFN2-xTB:
   * C. Bannwarth, S. Ehlert and S. Grimme., J. Chem. Theory Comput., 2019,
     15, 1652-1671. DOI: 10.1021/acs.jctc.8b01176
   for GFN1-xTB:
   * S. Grimme, C. Bannwarth, P. Shushkov, J. Chem. Theory Comput., 2017,
     13, 1989-2009. DOI: 10.1021/acs.jctc.7b00118
   for GFN0-xTB:
   * P. Pracht, E. Caldeweyher, S. Ehlert, S. Grimme, ChemRxiv, 2019, preprint.
     DOI: 10.26434/chemrxiv.8326202.v1
   for GFN-FF:
   * S. Spicher and S. Grimme, Angew. Chem. Int. Ed., 2020, 59, 15665-15673.
     DOI: 10.1002/anie.202004239
   
   for ALPB and GBSA implicit solvation:
   * S. Ehlert, M. Stahn, S. Spicher, S. Grimme, J. Chem. Theory Comput.,
     2021, 17, 4250-4261. DOI: 10.1021/acs.jctc.1c00471
   
   for ddCOSMO and CPCM-X implicit solvation:
   * M. Stahn, S. Ehlert, S. Grimme, J. Phys. Chem. A,
     2023, XX, XXXX-XXXX. DOI: 10.1021/acs.jpca.3c04382
   
   for DFT-D4:
   * E. Caldeweyher, C. Bannwarth and S. Grimme, J. Chem. Phys., 2017,
     147, 034112. DOI: 10.1063/1.4993215
   * E. Caldeweyher, S. Ehlert, A. Hansen, H. Neugebauer, S. Spicher,
     C. Bannwarth and S. Grimme, J. Chem. Phys., 2019, 150, 154122.
     DOI: 10.1063/1.5090222
   * E. Caldeweyher, J.-M. Mewes, S. Ehlert and S. Grimme, Phys. Chem. Chem. Phys.
     2020, 22, 8499-8512. DOI: 10.1039/D0CP00502A
   
   for sTDA-xTB:
   * S. Grimme and C. Bannwarth, J. Chem. Phys., 2016, 145, 054103.
     DOI: 10.1063/1.4959605
   
   in the mass-spec context:
   * V. Asgeirsson, C. Bauer and S. Grimme, Chem. Sci., 2017, 8, 4879.
     DOI: 10.1039/c7sc00601b
   * J. Koopman and S. Grimme, ACS Omega 2019, 4, 12, 15120-15133.
     DOI: 10.1021/acsomega.9b02011
   
   for metadynamics refer to:
   * S. Grimme, J. Chem. Theory Comput., 2019, 155, 2847-2862
     DOI: 10.1021/acs.jctc.9b00143
   
   for SPH calculations refer to:
   * S. Spicher and S. Grimme, J. Chem. Theory Comput., 2021, 17, 1701-1714
     DOI: 10.1021/acs.jctc.0c01306
   
   for ONIOM refer to:
   * C. Plett, A. Katbashev, S. Ehlert, S. Grimme, M. Bursch,
     Phys. Chem. Chem. Phys., 2023, 25, 17860-17868. DOI: 10.1039/D3CP02178E
   
   for DIPRO refer to:
   * J. Kohn, N. Gildemeister, S. Grimme, D. Fazzi, A. Hansen,
     J. Chem. Phys., 2023, just accepted.
   
   for PTB refer to:
   * S. Grimme, M. Mueller, A. Hansen, J. Chem. Phys., 2023, 158, 124111.
     DOI: 10.1063/5.0137838
   
   with help from (in alphabetical order)
   P. Atkinson, C. Bannwarth, F. Bohle, G. Brandenburg, E. Caldeweyher
   M. Checinski, S. Dohm, S. Ehlert, S. Ehrlich, I. Gerasimov, C. Hölzer
   A. Katbashev, J. Kohn, J. Koopman, C. Lavigne, S. Lehtola, F. März, M. Müller,
   F. Musil, H. Neugebauer, J. Pisarek, C. Plett, P. Pracht, F. Pultar,
   J. Seibert, P. Shushkov, S. Spicher, M. Stahn, M. Steiner, T. Strunk,
   J. Stückrath, T. Rose, and J. Unsleber
   
 * started run on 2025/04/11 at 16:15:24.735     
   ID    Z sym.   atoms
    1    6 C      1-4, 7, 10, 12
    2    7 N      5, 9
    3    8 O      6, 8
    4   16 S      11
    5    1 H      13-26

           -------------------------------------------------
          |                Calculation Setup                |
           -------------------------------------------------

          program call               : /srv/scratch/z5358697/.xtb/bin/xtb gas.coord --gfn2 --sp --chrg 0 --norestart --parallel 1
          hostname                   : k073
          coordinate file            : gas.coord
          omp threads                :                     1


           -------------------------------------------------
          |                 G F N 2 - x T B                 |
           -------------------------------------------------

        Reference                      10.1021/acs.jctc.8b01176
      * Hamiltonian:
        H0-scaling (s, p, d)           1.850000    2.230000    2.230000
        zeta-weighting                 0.500000
      * Dispersion:
        s8                             2.700000
        a1                             0.520000
        a2                             5.000000
        s9                             5.000000
      * Repulsion:
        kExp                           1.500000    1.000000
        rExp                           1.000000
      * Coulomb:
        alpha                          2.000000
        third order                    shell-resolved
        anisotropic                    true
        a3                             3.000000
        a5                             4.000000
        cn-shift                       1.200000
        cn-exp                         4.000000
        max-rad                        5.000000


          ...................................................
          :                      SETUP                      :
          :.................................................:
          :  # basis functions                  68          :
          :  # atomic orbitals                  67          :
          :  # shells                           39          :
          :  # electrons                        70          :
          :  max. iterations                   250          :
          :  Hamiltonian                  GFN2-xTB          :
          :  restarted?                      false          :
          :  GBSA solvation                  false          :
          :  PC potential                    false          :
          :  electronic temp.          300.0000000     K    :
          :  accuracy                    1.0000000          :
          :  -> integral cutoff          0.2500000E+02      :
          :  -> integral neglect         0.1000000E-07      :
          :  -> SCF convergence          0.1000000E-05 Eh   :
          :  -> wf. convergence          0.1000000E-03 e    :
          :  Broyden damping             0.4000000          :
          :  net charge                          0          :
          :  unpaired electrons                  0          :
          ...................................................

 iter      E             dE          RMSdq      gap      omega  full diag
   1    -39.6479743 -0.396480E+02  0.456E+00    3.56       0.0  T
   2    -39.7405523 -0.925781E-01  0.258E+00    3.18       1.0  T
   3    -39.7424640 -0.191163E-02  0.108E+00    2.66       1.0  T
   4    -39.7451170 -0.265302E-02  0.523E-01    2.71       1.0  T
   5    -39.7474702 -0.235324E-02  0.178E-01    2.67       1.0  T
   6    -39.7474938 -0.235644E-04  0.713E-02    2.69       1.0  T
   7    -39.7475305 -0.367488E-04  0.285E-02    2.69       1.0  T
   8    -39.7475342 -0.367827E-05  0.140E-02    2.69       1.4  T
   9    -39.7475344 -0.227317E-06  0.363E-03    2.69       5.4  T
  10    -39.7475345 -0.566685E-07  0.213E-03    2.69       9.2  T
  11    -39.7475345 -0.117322E-07  0.558E-04    2.69      35.1  T
  12    -39.7475345 -0.653230E-09  0.242E-04    2.69      80.9  T

   *** convergence criteria satisfied after 12 iterations ***

         #    Occupation            Energy/Eh            Energy/eV
      -------------------------------------------------------------
         1        2.0000           -0.7448274             -20.2678
       ...           ...                  ...                  ...
        29        2.0000           -0.4622858             -12.5794
        30        2.0000           -0.4504446             -12.2572
        31        2.0000           -0.4295205             -11.6878
        32        2.0000           -0.4203208             -11.4375
        33        2.0000           -0.4149694             -11.2919
        34        2.0000           -0.3910768             -10.6417
        35        2.0000           -0.3591046              -9.7717 (HOMO)
        36                         -0.2602803              -7.0826 (LUMO)
        37                         -0.1994291              -5.4267
        38                         -0.1884119              -5.1269
        39                         -0.1509378              -4.1072
        40                         -0.0999390              -2.7195
       ...                                ...                  ...
        67                          0.6467915              17.6001
      -------------------------------------------------------------
                  HL-Gap            0.0988243 Eh            2.6891 eV
             Fermi-level           -0.3096925 Eh           -8.4272 eV

 SCC (total)                   0 d,  0 h,  0 min,  0.034 sec
 SCC setup                      ...        0 min,  0.000 sec (  0.697%)
 Dispersion                     ...        0 min,  0.000 sec (  0.511%)
 classical contributions        ...        0 min,  0.000 sec (  0.099%)
 integral evaluation            ...        0 min,  0.009 sec ( 26.652%)
 iterations                     ...        0 min,  0.014 sec ( 41.002%)
 molecular gradient             ...        0 min,  0.010 sec ( 30.375%)
 printout                       ...        0 min,  0.000 sec (  0.612%)

         :::::::::::::::::::::::::::::::::::::::::::::::::::::
         ::                     SUMMARY                     ::
         :::::::::::::::::::::::::::::::::::::::::::::::::::::
         :: total energy             -39.315101738770 Eh    ::
         :: gradient norm              0.038787230175 Eh/a0 ::
         :: HOMO-LUMO gap              2.689145125271 eV    ::
         ::.................................................::
         :: SCC energy               -39.747341308160 Eh    ::
         :: -> isotropic ES            0.065006585372 Eh    ::
         :: -> anisotropic ES         -0.001436488226 Eh    ::
         :: -> anisotropic XC          0.024073549006 Eh    ::
         :: -> dispersion             -0.022556410314 Eh    ::
         :: repulsion energy           0.432239569390 Eh    ::
         :: add. restraining           0.000000000000 Eh    ::
         :: total charge               0.000000000000 e     ::
         :::::::::::::::::::::::::::::::::::::::::::::::::::::

           -------------------------------------------------
          |                Property Printout                |
           -------------------------------------------------

    * Orbital Energies and Occupations

         #    Occupation            Energy/Eh            Energy/eV
      -------------------------------------------------------------
         1        2.0000           -0.7448274             -20.2678
       ...           ...                  ...                  ...
        23        2.0000           -0.4883102             -13.2876
        24        2.0000           -0.4841210             -13.1736
        25        2.0000           -0.4838684             -13.1667
        26        2.0000           -0.4777481             -13.0002
        27        2.0000           -0.4719344             -12.8420
        28        2.0000           -0.4663747             -12.6907
        29        2.0000           -0.4622858             -12.5794
        30        2.0000           -0.4504446             -12.2572
        31        2.0000           -0.4295205             -11.6878
        32        2.0000           -0.4203208             -11.4375
        33        2.0000           -0.4149694             -11.2919
        34        2.0000           -0.3910768             -10.6417
        35        2.0000           -0.3591046              -9.7717 (HOMO)
        36                         -0.2602803              -7.0826 (LUMO)
        37                         -0.1994291              -5.4267
        38                         -0.1884119              -5.1269
        39                         -0.1509378              -4.1072
        40                         -0.0999390              -2.7195
        41                         -0.0065991              -0.1796
        42                          0.0043735               0.1190
        43                          0.0098167               0.2671
        44                          0.0194422               0.5290
        45                          0.0641546               1.7457
        46                          0.0997370               2.7140
       ...                                ...                  ...
        67                          0.6467915              17.6001
      -------------------------------------------------------------
                  HL-Gap            0.0988243 Eh            2.6891 eV
             Fermi-level           -0.3096925 Eh           -8.4272 eV

     #   Z          covCN         q      C6AA      α(0)
     1   6 C        3.779    -0.096    22.349     6.735
     2   6 C        3.891     0.068    19.387     6.259
     3   6 C        3.815    -0.110    22.591     6.765
     4   6 C        2.946     0.067    26.508     8.444
     5   7 N        1.831    -0.088    23.710     7.216
     6   8 O        1.770    -0.254    18.188     5.759
     7   6 C        2.640     0.405    20.171     7.347
     8   8 O        0.857    -0.467    23.058     6.438
     9   7 N        2.685    -0.181    24.922     7.414
    10   6 C        3.691    -0.046    21.581     6.648
    11  16 S        2.134    -0.200   149.583    20.585
    12   6 C        3.745    -0.051    21.559     6.624
    13   1 H        0.925     0.047     2.354     2.399
    14   1 H        0.925     0.045     2.379     2.412
    15   1 H        0.925     0.046     2.375     2.410
    16   1 H        0.925     0.048     2.340     2.392
    17   1 H        0.925     0.054     2.274     2.358
    18   1 H        0.925     0.058     2.217     2.328
    19   1 H        0.925     0.078     2.003     2.213
    20   1 H        0.860     0.185     1.186     1.706
    21   1 H        0.925     0.060     2.199     2.319
    22   1 H        0.925     0.057     2.234     2.337
    23   1 H        0.925     0.090     1.878     2.143
    24   1 H        0.925     0.077     2.014     2.219
    25   1 H        0.925     0.047     2.361     2.403
    26   1 H        0.925     0.060     2.198     2.319

 Mol. C6AA /au·bohr⁶  :       7082.835689
 Mol. C8AA /au·bohr⁸  :     175463.015945
 Mol. α(0) /au        :        128.192415


Wiberg/Mayer (AO) data.
largest (>0.10) Wiberg bond orders for each atom

 ---------------------------------------------------------------------------
     #   Z sym  total        # sym  WBO       # sym  WBO       # sym  WBO
 ---------------------------------------------------------------------------
     1   6 C    3.995 --     2 C    1.010    15 H    0.983    14 H    0.982
                            13 H    0.977
     2   6 C    3.975 --     4 C    1.011     1 C    1.010     3 C    0.986
                            11 S    0.899
     3   6 C    3.992 --     2 C    0.986    17 H    0.983    18 H    0.981
                            16 H    0.980
     4   6 C    3.962 --     5 N    1.866     2 C    1.011    19 H    0.941
     5   7 N    3.001 --     4 C    1.866     6 O    0.948
     6   8 O    2.243 --     7 C    1.026     5 N    0.948     8 O    0.123
     7   6 C    3.939 --     8 O    1.623     9 N    1.235     6 O    1.026
     8   8 O    1.971 --     7 C    1.623     9 N    0.171     6 O    0.123
     9   7 N    3.421 --     7 C    1.235    10 C    1.000    20 H    0.937
                             8 O    0.171
    10   6 C    3.956 --     9 N    1.000    22 H    0.978    21 H    0.978
                            23 H    0.976
    11  16 S    2.127 --    12 C    1.013     2 C    0.899
    12   6 C    3.973 --    11 S    1.013    25 H    0.985    26 H    0.977
                            24 H    0.970
    13   1 H    0.998 --     1 C    0.977
    14   1 H    0.998 --     1 C    0.982
    15   1 H    0.998 --     1 C    0.983
    16   1 H    0.997 --     3 C    0.980
    17   1 H    0.997 --     3 C    0.983
    18   1 H    0.996 --     3 C    0.981
    19   1 H    0.992 --     4 C    0.941
    20   1 H    0.966 --     9 N    0.937
    21   1 H    0.996 --    10 C    0.978
    22   1 H    0.997 --    10 C    0.978
    23   1 H    0.992 --    10 C    0.976
    24   1 H    0.994 --    12 C    0.970
    25   1 H    0.998 --    12 C    0.985
    26   1 H    0.996 --    12 C    0.977
 ---------------------------------------------------------------------------

Topologies differ in total number of bonds
Writing topology from bond orders to xtbtopo.mol

molecular dipole:
                 x           y           z       tot (Debye)
 q only:       -0.497      -0.629      -1.138
   full:       -0.753      -0.807      -1.512       4.757
molecular quadrupole (traceless):
                xx          xy          yy          xz          yz          zz
 q only:        9.080      -2.198      -4.148       7.789      -0.631      -4.932
  q+dip:        5.566      -0.320      -2.655       7.978      -0.246      -2.911
   full:        5.722      -1.206      -1.482       8.479      -0.153      -4.240


           -------------------------------------------------
          | TOTAL ENERGY              -39.315101738770 Eh   |
          | GRADIENT NORM               0.038787230175 Eh/α |
          | HOMO-LUMO GAP               2.689145125271 eV   |
           -------------------------------------------------

------------------------------------------------------------------------
 * finished run on 2025/04/11 at 16:15:24.802     
------------------------------------------------------------------------
 total:
 * wall-time:     0 d,  0 h,  0 min,  0.066 sec
 *  cpu-time:     0 d,  0 h,  0 min,  0.039 sec
 * ratio c/w:     0.592 speedup
 SCF:
 * wall-time:     0 d,  0 h,  0 min,  0.035 sec
 *  cpu-time:     0 d,  0 h,  0 min,  0.029 sec
 * ratio c/w:     0.845 speedup

