      -----------------------------------------------------------      
     |                   =====================                   |     
     |                           x T B                           |     
     |                   =====================                   |     
     |                         S. Grimme                         |     
     |          Mulliken Center for Theoretical Chemistry        |     
     |                    University of Bonn                     |     
      -----------------------------------------------------------      

   * xtb version 6.7.1 (edcfbbe) compiled by 'albert@albert-system' on 2024-07-22

   xtb is free software: you can redistribute it and/or modify it under
   the terms of the GNU Lesser General Public License as published by
   the Free Software Foundation, either version 3 of the License, or
   (at your option) any later version.
   
   xtb is distributed in the hope that it will be useful,
   but WITHOUT ANY WARRANTY; without even the implied warranty of
   MERCHANTABILITY or FITNESS FOR A PARTICULAR PURPOSE.  See the
   GNU Lesser General Public License for more details.
   
   Cite this work as:
   * C. Bannwarth, E. Caldeweyher, S. Ehlert, A. Hansen, P. Pracht,
     J. Seibert, S. Spicher, S. Grimme, WIREs Comput. Mol. Sci., 2020, 11,
     e01493. DOI: 10.1002/wcms.1493
   
   for GFN2-xTB:
   * C. Bannwarth, S. Ehlert and S. Grimme., J. Chem. Theory Comput., 2019,
     15, 1652-1671. DOI: 10.1021/acs.jctc.8b01176
   for GFN1-xTB:
   * S. Grimme, C. Bannwarth, P. Shushkov, J. Chem. Theory Comput., 2017,
     13, 1989-2009. DOI: 10.1021/acs.jctc.7b00118
   for GFN0-xTB:
   * P. Pracht, E. Caldeweyher, S. Ehlert, S. Grimme, ChemRxiv, 2019, preprint.
     DOI: 10.26434/chemrxiv.8326202.v1
   for GFN-FF:
   * S. Spicher and S. Grimme, Angew. Chem. Int. Ed., 2020, 59, 15665-15673.
     DOI: 10.1002/anie.202004239
   
   for ALPB and GBSA implicit solvation:
   * S. Ehlert, M. Stahn, S. Spicher, S. Grimme, J. Chem. Theory Comput.,
     2021, 17, 4250-4261. DOI: 10.1021/acs.jctc.1c00471
   
   for ddCOSMO and CPCM-X implicit solvation:
   * M. Stahn, S. Ehlert, S. Grimme, J. Phys. Chem. A,
     2023, XX, XXXX-XXXX. DOI: 10.1021/acs.jpca.3c04382
   
   for DFT-D4:
   * E. Caldeweyher, C. Bannwarth and S. Grimme, J. Chem. Phys., 2017,
     147, 034112. DOI: 10.1063/1.4993215
   * E. Caldeweyher, S. Ehlert, A. Hansen, H. Neugebauer, S. Spicher,
     C. Bannwarth and S. Grimme, J. Chem. Phys., 2019, 150, 154122.
     DOI: 10.1063/1.5090222
   * E. Caldeweyher, J.-M. Mewes, S. Ehlert and S. Grimme, Phys. Chem. Chem. Phys.
     2020, 22, 8499-8512. DOI: 10.1039/D0CP00502A
   
   for sTDA-xTB:
   * S. Grimme and C. Bannwarth, J. Chem. Phys., 2016, 145, 054103.
     DOI: 10.1063/1.4959605
   
   in the mass-spec context:
   * V. Asgeirsson, C. Bauer and S. Grimme, Chem. Sci., 2017, 8, 4879.
     DOI: 10.1039/c7sc00601b
   * J. Koopman and S. Grimme, ACS Omega 2019, 4, 12, 15120-15133.
     DOI: 10.1021/acsomega.9b02011
   
   for metadynamics refer to:
   * S. Grimme, J. Chem. Theory Comput., 2019, 155, 2847-2862
     DOI: 10.1021/acs.jctc.9b00143
   
   for SPH calculations refer to:
   * S. Spicher and S. Grimme, J. Chem. Theory Comput., 2021, 17, 1701-1714
     DOI: 10.1021/acs.jctc.0c01306
   
   for ONIOM refer to:
   * C. Plett, A. Katbashev, S. Ehlert, S. Grimme, M. Bursch,
     Phys. Chem. Chem. Phys., 2023, 25, 17860-17868. DOI: 10.1039/D3CP02178E
   
   for DIPRO refer to:
   * J. Kohn, N. Gildemeister, S. Grimme, D. Fazzi, A. Hansen,
     J. Chem. Phys., 2023, just accepted.
   
   for PTB refer to:
   * S. Grimme, M. Mueller, A. Hansen, J. Chem. Phys., 2023, 158, 124111.
     DOI: 10.1063/5.0137838
   
   with help from (in alphabetical order)
   P. Atkinson, C. Bannwarth, F. Bohle, G. Brandenburg, E. Caldeweyher
   M. Checinski, S. Dohm, S. Ehlert, S. Ehrlich, I. Gerasimov, C. Hölzer
   A. Katbashev, J. Kohn, J. Koopman, C. Lavigne, S. Lehtola, F. März, M. Müller,
   F. Musil, H. Neugebauer, J. Pisarek, C. Plett, P. Pracht, F. Pultar,
   J. Seibert, P. Shushkov, S. Spicher, M. Stahn, M. Steiner, T. Strunk,
   J. Stückrath, T. Rose, and J. Unsleber
   
 * started run on 2025/04/11 at 16:09:19.327     
   ID    Z sym.   atoms
    1    6 C      1-5, 7
    2    8 O      6
    3    1 H      8-19

           -------------------------------------------------
          |                Calculation Setup                |
           -------------------------------------------------

          program call               : /srv/scratch/z5358697/.xtb/bin/xtb solv.coord --gfn2 --sp --chrg 0 --norestart --parallel 1 --alpb water reference -I xtb_sp-xcontrol-inp
          hostname                   : k065
          coordinate file            : solv.coord
          omp threads                :                     1


           -------------------------------------------------
          |                 G F N 2 - x T B                 |
           -------------------------------------------------

        Reference                      10.1021/acs.jctc.8b01176
      * Hamiltonian:
        H0-scaling (s, p, d)           1.850000    2.230000    2.230000
        zeta-weighting                 0.500000
      * Dispersion:
        s8                             2.700000
        a1                             0.520000
        a2                             5.000000
        s9                             5.000000
      * Repulsion:
        kExp                           1.500000    1.000000
        rExp                           1.000000
      * Coulomb:
        alpha                          2.000000
        third order                    shell-resolved
        anisotropic                    true
        a3                             3.000000
        a5                             4.000000
        cn-shift                       1.200000
        cn-exp                         4.000000
        max-rad                        5.000000

      * Solvation model:               ALPB
        Solvent                        water
        Parameter file                 internal GFN2-xTB/ALPB
        Dielectric constant                8.0200E+01
        Reference state                gsolv=reference [X=1]
        Free energy shift                  2.8945E-03 Eh       1.8164E+00 kcal/mol
        Temperature                        2.9815E+02 K
        Density                            1.0000E+00 kg/L
        Solvent mass                       1.8000E+01 g/mol
        Interaction kernel             P16
        Born radius scaling (c1)           1.4744E+00
        Born radii integrator          GBOBC
        Born offset                        0.0000E+00 a0       0.0000E+00 AA
        H-bond correction              true
        Ion screening                  false
        Surface tension                    1.0000E-05 Eh       1.5569E+01 dyn/cm
        Grid points                               974 per atom

          ...................................................
          :                      SETUP                      :
          :.................................................:
          :  # basis functions                  40          :
          :  # atomic orbitals                  40          :
          :  # shells                           26          :
          :  # electrons                        42          :
          :  max. iterations                   250          :
          :  Hamiltonian                  GFN2-xTB          :
          :  restarted?                      false          :
          :  GBSA solvation                   true          :
          :  PC potential                    false          :
          :  electronic temp.          300.0000000     K    :
          :  accuracy                    1.0000000          :
          :  -> integral cutoff          0.2500000E+02      :
          :  -> integral neglect         0.1000000E-07      :
          :  -> SCF convergence          0.1000000E-05 Eh   :
          :  -> wf. convergence          0.1000000E-03 e    :
          :  Broyden damping             0.4000000          :
          :  net charge                          0          :
          :  unpaired electrons                  0          :
          ...................................................

 iter      E             dE          RMSdq      gap      omega  full diag
   1    -23.2683458 -0.232683E+02  0.353E+00    4.62       0.0  T
   2    -23.3315024 -0.631566E-01  0.170E+00    3.66       1.0  T
   3    -23.3351867 -0.368424E-02  0.100E+00    4.05       1.0  T
   4    -23.3369625 -0.177581E-02  0.179E-01    3.83       1.0  T
   5    -23.3372269 -0.264432E-03  0.679E-02    3.89       1.0  T
   6    -23.3372294 -0.252226E-05  0.205E-02    3.88       1.1  T
   7    -23.3372307 -0.129298E-05  0.517E-03    3.88       4.4  T
   8    -23.3372308 -0.448396E-07  0.231E-03    3.88       9.9  T
   9    -23.3372308 -0.952901E-08  0.616E-04    3.88      37.2  T
  10    -23.3372308 -0.929376E-09  0.216E-04    3.88     106.4  T

   *** convergence criteria satisfied after 10 iterations ***

         #    Occupation            Energy/Eh            Energy/eV
      -------------------------------------------------------------
         1        2.0000           -0.7144991             -19.4425
       ...           ...                  ...                  ...
        15        2.0000           -0.4706321             -12.8066
        16        2.0000           -0.4566978             -12.4274
        17        2.0000           -0.4557001             -12.4002
        18        2.0000           -0.4422248             -12.0336
        19        2.0000           -0.4311646             -11.7326
        20        2.0000           -0.4241045             -11.5405
        21        2.0000           -0.3970437             -10.8041 (HOMO)
        22                         -0.2543961              -6.9225 (LUMO)
        23                          0.0682203               1.8564
        24                          0.0894769               2.4348
        25                          0.1103203               3.0020
        26                          0.1279320               3.4812
       ...                                ...                  ...
        40                          0.5875103              15.9870
      -------------------------------------------------------------
                  HL-Gap            0.1426476 Eh            3.8816 eV
             Fermi-level           -0.3257199 Eh           -8.8633 eV

 SCC (total)                   0 d,  0 h,  0 min,  0.018 sec
 SCC setup                      ...        0 min,  0.002 sec ( 11.570%)
 Dispersion                     ...        0 min,  0.000 sec (  0.866%)
 classical contributions        ...        0 min,  0.000 sec (  0.214%)
 integral evaluation            ...        0 min,  0.003 sec ( 14.373%)
 iterations                     ...        0 min,  0.008 sec ( 45.923%)
 molecular gradient             ...        0 min,  0.005 sec ( 26.115%)
 printout                       ...        0 min,  0.000 sec (  0.833%)

         :::::::::::::::::::::::::::::::::::::::::::::::::::::
         ::                     SUMMARY                     ::
         :::::::::::::::::::::::::::::::::::::::::::::::::::::
         :: total energy             -23.026981049981 Eh    ::
         :: total w/o Gsasa/hb       -23.029338327437 Eh    ::
         :: gradient norm              0.000185013687 Eh/a0 ::
         :: HOMO-LUMO gap              3.881638589460 eV    ::
         ::.................................................::
         :: SCC energy               -23.337191460496 Eh    ::
         :: -> isotropic ES            0.041531995887 Eh    ::
         :: -> anisotropic ES          0.002914714957 Eh    ::
         :: -> anisotropic XC          0.011439486999 Eh    ::
         :: -> dispersion             -0.011002808476 Eh    ::
         :: -> Gsolv                  -0.006138458713 Eh    ::
         ::    -> Gelec               -0.008495736169 Eh    ::
         ::    -> Gsasa                0.001406562804 Eh    ::
         ::    -> Ghb                 -0.001943834508 Eh    ::
         ::    -> Gshift               0.002894549160 Eh    ::
         :: repulsion energy           0.310210410515 Eh    ::
         :: add. restraining           0.000000000000 Eh    ::
         :: total charge               0.000000000000 e     ::
         :::::::::::::::::::::::::::::::::::::::::::::::::::::

           -------------------------------------------------
          |                Property Printout                |
           -------------------------------------------------

    * Orbital Energies and Occupations

         #    Occupation            Energy/Eh            Energy/eV
      -------------------------------------------------------------
         1        2.0000           -0.7144991             -19.4425
       ...           ...                  ...                  ...
         9        2.0000           -0.5316233             -14.4662
        10        2.0000           -0.5243329             -14.2678
        11        2.0000           -0.5048916             -13.7388
        12        2.0000           -0.4921337             -13.3916
        13        2.0000           -0.4867083             -13.2440
        14        2.0000           -0.4718099             -12.8386
        15        2.0000           -0.4706321             -12.8066
        16        2.0000           -0.4566978             -12.4274
        17        2.0000           -0.4557001             -12.4002
        18        2.0000           -0.4422248             -12.0336
        19        2.0000           -0.4311646             -11.7326
        20        2.0000           -0.4241045             -11.5405
        21        2.0000           -0.3970437             -10.8041 (HOMO)
        22                         -0.2543961              -6.9225 (LUMO)
        23                          0.0682203               1.8564
        24                          0.0894769               2.4348
        25                          0.1103203               3.0020
        26                          0.1279320               3.4812
        27                          0.1330579               3.6207
        28                          0.1509661               4.1080
        29                          0.1687179               4.5910
        30                          0.1813256               4.9341
        31                          0.1934753               5.2647
        32                          0.2004257               5.4539
       ...                                ...                  ...
        40                          0.5875103              15.9870
      -------------------------------------------------------------
                  HL-Gap            0.1426476 Eh            3.8816 eV
             Fermi-level           -0.3257199 Eh           -8.8633 eV

     #   Z          covCN         q      C6AA      α(0)
     1   6 C        3.753    -0.114    22.743     6.801
     2   6 C        3.800    -0.063    21.716     6.635
     3   6 C        3.802    -0.057    21.591     6.615
     4   6 C        3.802    -0.096    22.324     6.727
     5   6 C        2.811     0.251    22.784     7.820
     6   8 O        0.857    -0.446    22.632     6.378
     7   6 C        3.754    -0.155    23.569     6.923
     8   1 H        0.925     0.037     2.493     2.469
     9   1 H        0.925     0.042     2.416     2.431
    10   1 H        0.925     0.038     2.481     2.463
    11   1 H        0.925     0.044     2.393     2.419
    12   1 H        0.924     0.040     2.445     2.446
    13   1 H        0.924     0.050     2.319     2.382
    14   1 H        0.924     0.036     2.506     2.475
    15   1 H        0.924     0.058     2.218     2.329
    16   1 H        0.925     0.076     2.025     2.226
    17   1 H        0.925     0.072     2.060     2.245
    18   1 H        0.925     0.088     1.897     2.154
    19   1 H        0.925     0.099     1.797     2.096

 Mol. C6AA /au·bohr⁶  :       2607.497440
 Mol. C8AA /au·bohr⁸  :      55851.592670
 Mol. α(0) /au        :         76.032826


Wiberg/Mayer (AO) data.
largest (>0.10) Wiberg bond orders for each atom

 ---------------------------------------------------------------------------
     #   Z sym  total        # sym  WBO       # sym  WBO       # sym  WBO
 ---------------------------------------------------------------------------
     1   6 C    3.995 --     2 C    1.018     8 H    0.988    10 H    0.988
                             9 H    0.987
     2   6 C    3.996 --     1 C    1.018     3 C    1.010    12 H    0.977
                            11 H    0.974
     3   6 C    3.992 --     2 C    1.010    14 H    0.977    13 H    0.975
                             4 C    0.975
     4   6 C    3.994 --     5 C    0.999    15 H    0.976     3 C    0.975
                            16 H    0.954
     5   6 C    3.893 --     6 O    1.804     7 C    1.023     4 C    0.999
     6   8 O    2.005 --     5 C    1.804
     7   6 C    3.991 --     5 C    1.023    17 H    0.980    18 H    0.963
                            19 H    0.940
     8   1 H    0.999 --     1 C    0.988
     9   1 H    0.998 --     1 C    0.987
    10   1 H    0.998 --     1 C    0.988
    11   1 H    0.998 --     2 C    0.974
    12   1 H    0.998 --     2 C    0.977
    13   1 H    0.997 --     3 C    0.975
    14   1 H    0.999 --     3 C    0.977
    15   1 H    0.996 --     4 C    0.976
    16   1 H    0.994 --     4 C    0.954
    17   1 H    0.995 --     7 C    0.980
    18   1 H    0.992 --     7 C    0.963
    19   1 H    0.990 --     7 C    0.940
 ---------------------------------------------------------------------------

Topologies differ in total number of bonds
Writing topology from bond orders to xtbtopo.mol

molecular dipole:
                 x           y           z       tot (Debye)
 q only:        1.223       1.135      -0.074
   full:        1.274       1.165      -0.067       4.392
molecular quadrupole (traceless):
                xx          xy          yy          xz          yz          zz
 q only:       -6.089      -6.814       1.538       0.997      -0.860       4.551
  q+dip:       -7.696      -7.790       1.833       1.797      -0.616       5.864
   full:       -7.286      -8.093       1.607       0.968      -0.289       5.679


           -------------------------------------------------
          | TOTAL ENERGY              -23.026981049981 Eh   |
          | GRADIENT NORM               0.000185013687 Eh/α |
          | HOMO-LUMO GAP               3.881638589460 eV   |
           -------------------------------------------------

------------------------------------------------------------------------
 * finished run on 2025/04/11 at 16:09:19.390     
------------------------------------------------------------------------
 total:
 * wall-time:     0 d,  0 h,  0 min,  0.063 sec
 *  cpu-time:     0 d,  0 h,  0 min,  0.029 sec
 * ratio c/w:     0.465 speedup
 SCF:
 * wall-time:     0 d,  0 h,  0 min,  0.018 sec
 *  cpu-time:     0 d,  0 h,  0 min,  0.018 sec
 * ratio c/w:     0.965 speedup

