      -----------------------------------------------------------      
     |                   =====================                   |     
     |                           x T B                           |     
     |                   =====================                   |     
     |                         S. Grimme                         |     
     |          Mulliken Center for Theoretical Chemistry        |     
     |                    University of Bonn                     |     
      -----------------------------------------------------------      

   * xtb version 6.7.1 (edcfbbe) compiled by 'albert@albert-system' on 2024-07-22

   xtb is free software: you can redistribute it and/or modify it under
   the terms of the GNU Lesser General Public License as published by
   the Free Software Foundation, either version 3 of the License, or
   (at your option) any later version.
   
   xtb is distributed in the hope that it will be useful,
   but WITHOUT ANY WARRANTY; without even the implied warranty of
   MERCHANTABILITY or FITNESS FOR A PARTICULAR PURPOSE.  See the
   GNU Lesser General Public License for more details.
   
   Cite this work as:
   * C. Bannwarth, E. Caldeweyher, S. Ehlert, A. Hansen, P. Pracht,
     J. Seibert, S. Spicher, S. Grimme, WIREs Comput. Mol. Sci., 2020, 11,
     e01493. DOI: 10.1002/wcms.1493
   
   for GFN2-xTB:
   * C. Bannwarth, S. Ehlert and S. Grimme., J. Chem. Theory Comput., 2019,
     15, 1652-1671. DOI: 10.1021/acs.jctc.8b01176
   for GFN1-xTB:
   * S. Grimme, C. Bannwarth, P. Shushkov, J. Chem. Theory Comput., 2017,
     13, 1989-2009. DOI: 10.1021/acs.jctc.7b00118
   for GFN0-xTB:
   * P. Pracht, E. Caldeweyher, S. Ehlert, S. Grimme, ChemRxiv, 2019, preprint.
     DOI: 10.26434/chemrxiv.8326202.v1
   for GFN-FF:
   * S. Spicher and S. Grimme, Angew. Chem. Int. Ed., 2020, 59, 15665-15673.
     DOI: 10.1002/anie.202004239
   
   for ALPB and GBSA implicit solvation:
   * S. Ehlert, M. Stahn, S. Spicher, S. Grimme, J. Chem. Theory Comput.,
     2021, 17, 4250-4261. DOI: 10.1021/acs.jctc.1c00471
   
   for ddCOSMO and CPCM-X implicit solvation:
   * M. Stahn, S. Ehlert, S. Grimme, J. Phys. Chem. A,
     2023, XX, XXXX-XXXX. DOI: 10.1021/acs.jpca.3c04382
   
   for DFT-D4:
   * E. Caldeweyher, C. Bannwarth and S. Grimme, J. Chem. Phys., 2017,
     147, 034112. DOI: 10.1063/1.4993215
   * E. Caldeweyher, S. Ehlert, A. Hansen, H. Neugebauer, S. Spicher,
     C. Bannwarth and S. Grimme, J. Chem. Phys., 2019, 150, 154122.
     DOI: 10.1063/1.5090222
   * E. Caldeweyher, J.-M. Mewes, S. Ehlert and S. Grimme, Phys. Chem. Chem. Phys.
     2020, 22, 8499-8512. DOI: 10.1039/D0CP00502A
   
   for sTDA-xTB:
   * S. Grimme and C. Bannwarth, J. Chem. Phys., 2016, 145, 054103.
     DOI: 10.1063/1.4959605
   
   in the mass-spec context:
   * V. Asgeirsson, C. Bauer and S. Grimme, Chem. Sci., 2017, 8, 4879.
     DOI: 10.1039/c7sc00601b
   * J. Koopman and S. Grimme, ACS Omega 2019, 4, 12, 15120-15133.
     DOI: 10.1021/acsomega.9b02011
   
   for metadynamics refer to:
   * S. Grimme, J. Chem. Theory Comput., 2019, 155, 2847-2862
     DOI: 10.1021/acs.jctc.9b00143
   
   for SPH calculations refer to:
   * S. Spicher and S. Grimme, J. Chem. Theory Comput., 2021, 17, 1701-1714
     DOI: 10.1021/acs.jctc.0c01306
   
   for ONIOM refer to:
   * C. Plett, A. Katbashev, S. Ehlert, S. Grimme, M. Bursch,
     Phys. Chem. Chem. Phys., 2023, 25, 17860-17868. DOI: 10.1039/D3CP02178E
   
   for DIPRO refer to:
   * J. Kohn, N. Gildemeister, S. Grimme, D. Fazzi, A. Hansen,
     J. Chem. Phys., 2023, just accepted.
   
   for PTB refer to:
   * S. Grimme, M. Mueller, A. Hansen, J. Chem. Phys., 2023, 158, 124111.
     DOI: 10.1063/5.0137838
   
   with help from (in alphabetical order)
   P. Atkinson, C. Bannwarth, F. Bohle, G. Brandenburg, E. Caldeweyher
   M. Checinski, S. Dohm, S. Ehlert, S. Ehrlich, I. Gerasimov, C. Hölzer
   A. Katbashev, J. Kohn, J. Koopman, C. Lavigne, S. Lehtola, F. März, M. Müller,
   F. Musil, H. Neugebauer, J. Pisarek, C. Plett, P. Pracht, F. Pultar,
   J. Seibert, P. Shushkov, S. Spicher, M. Stahn, M. Steiner, T. Strunk,
   J. Stückrath, T. Rose, and J. Unsleber
   
 * started run on 2025/04/11 at 16:11:52.151     
   ID    Z sym.   atoms
    1    6 C      1-5
    2   35 Br     6
    3    1 H      7-17

           -------------------------------------------------
          |                Calculation Setup                |
           -------------------------------------------------

          program call               : /srv/scratch/z5358697/.xtb/bin/xtb gas.coord --gfn2 --sp --chrg 0 --norestart --parallel 1
          hostname                   : k124
          coordinate file            : gas.coord
          omp threads                :                     1


           -------------------------------------------------
          |                 G F N 2 - x T B                 |
           -------------------------------------------------

        Reference                      10.1021/acs.jctc.8b01176
      * Hamiltonian:
        H0-scaling (s, p, d)           1.850000    2.230000    2.230000
        zeta-weighting                 0.500000
      * Dispersion:
        s8                             2.700000
        a1                             0.520000
        a2                             5.000000
        s9                             5.000000
      * Repulsion:
        kExp                           1.500000    1.000000
        rExp                           1.000000
      * Coulomb:
        alpha                          2.000000
        third order                    shell-resolved
        anisotropic                    true
        a3                             3.000000
        a5                             4.000000
        cn-shift                       1.200000
        cn-exp                         4.000000
        max-rad                        5.000000


          ...................................................
          :                      SETUP                      :
          :.................................................:
          :  # basis functions                  41          :
          :  # atomic orbitals                  40          :
          :  # shells                           24          :
          :  # electrons                        38          :
          :  max. iterations                   250          :
          :  Hamiltonian                  GFN2-xTB          :
          :  restarted?                      false          :
          :  GBSA solvation                  false          :
          :  PC potential                    false          :
          :  electronic temp.          300.0000000     K    :
          :  accuracy                    1.0000000          :
          :  -> integral cutoff          0.2500000E+02      :
          :  -> integral neglect         0.1000000E-07      :
          :  -> SCF convergence          0.1000000E-05 Eh   :
          :  -> wf. convergence          0.1000000E-03 e    :
          :  Broyden damping             0.4000000          :
          :  net charge                          0          :
          :  unpaired electrons                  0          :
          ...................................................

 iter      E             dE          RMSdq      gap      omega  full diag
   1    -20.5975884 -0.205976E+02  0.404E+00    5.73       0.0  T
   2    -20.6413761 -0.437878E-01  0.278E+00    5.01       1.0  T
   3    -20.6435291 -0.215292E-02  0.896E-01    5.19       1.0  T
   4    -20.6460570 -0.252790E-02  0.500E-01    5.00       1.0  T
   5    -20.6463261 -0.269135E-03  0.317E-01    5.00       1.0  T
   6    -20.6465322 -0.206062E-03  0.197E-01    4.96       1.0  T
   7    -20.6466435 -0.111311E-03  0.823E-02    4.95       1.0  T
   8    -20.6466605 -0.170399E-04  0.223E-02    4.95       1.1  T
   9    -20.6466609 -0.422183E-06  0.521E-03    4.94       4.7  T
  10    -20.6466610 -0.676959E-07  0.202E-03    4.94      12.0  T
  11    -20.6466610 -0.625429E-08  0.908E-04    4.94      26.7  T
  12    -20.6466610 -0.104238E-08  0.577E-04    4.94      42.1  T

   *** convergence criteria satisfied after 12 iterations ***

         #    Occupation            Energy/Eh            Energy/eV
      -------------------------------------------------------------
         1        2.0000           -0.8304175             -22.5968
       ...           ...                  ...                  ...
        13        2.0000           -0.4652965             -12.6614
        14        2.0000           -0.4620739             -12.5737
        15        2.0000           -0.4388667             -11.9422
        16        2.0000           -0.4352078             -11.8426
        17        2.0000           -0.4298099             -11.6957
        18        2.0000           -0.4021128             -10.9420
        19        2.0000           -0.3996600             -10.8753 (HOMO)
        20                         -0.2179979              -5.9320 (LUMO)
        21                          0.0263555               0.7172
        22                          0.0329255               0.8959
        23                          0.0446960               1.2162
        24                          0.0615018               1.6735
       ...                                ...                  ...
        40                          0.3695658              10.0564
      -------------------------------------------------------------
                  HL-Gap            0.1816621 Eh            4.9433 eV
             Fermi-level           -0.3088289 Eh           -8.4037 eV

 SCC (total)                   0 d,  0 h,  0 min,  0.011 sec
 SCC setup                      ...        0 min,  0.000 sec (  1.410%)
 Dispersion                     ...        0 min,  0.000 sec (  0.757%)
 classical contributions        ...        0 min,  0.000 sec (  0.160%)
 integral evaluation            ...        0 min,  0.002 sec ( 19.931%)
 iterations                     ...        0 min,  0.005 sec ( 43.117%)
 molecular gradient             ...        0 min,  0.004 sec ( 33.287%)
 printout                       ...        0 min,  0.000 sec (  1.225%)

         :::::::::::::::::::::::::::::::::::::::::::::::::::::
         ::                     SUMMARY                     ::
         :::::::::::::::::::::::::::::::::::::::::::::::::::::
         :: total energy             -20.402388316004 Eh    ::
         :: gradient norm              0.006509654848 Eh/a0 ::
         :: HOMO-LUMO gap              4.943277946597 eV    ::
         ::.................................................::
         :: SCC energy               -20.646621657774 Eh    ::
         :: -> isotropic ES            0.007943587156 Eh    ::
         :: -> anisotropic ES          0.003994405375 Eh    ::
         :: -> anisotropic XC          0.007761086781 Eh    ::
         :: -> dispersion             -0.011459273158 Eh    ::
         :: repulsion energy           0.244233341770 Eh    ::
         :: add. restraining           0.000000000000 Eh    ::
         :: total charge              -0.000000000000 e     ::
         :::::::::::::::::::::::::::::::::::::::::::::::::::::

           -------------------------------------------------
          |                Property Printout                |
           -------------------------------------------------

    * Orbital Energies and Occupations

         #    Occupation            Energy/Eh            Energy/eV
      -------------------------------------------------------------
         1        2.0000           -0.8304175             -22.5968
       ...           ...                  ...                  ...
         7        2.0000           -0.5378504             -14.6357
         8        2.0000           -0.5285296             -14.3820
         9        2.0000           -0.5098348             -13.8733
        10        2.0000           -0.5008995             -13.6302
        11        2.0000           -0.4927564             -13.4086
        12        2.0000           -0.4748949             -12.9225
        13        2.0000           -0.4652965             -12.6614
        14        2.0000           -0.4620739             -12.5737
        15        2.0000           -0.4388667             -11.9422
        16        2.0000           -0.4352078             -11.8426
        17        2.0000           -0.4298099             -11.6957
        18        2.0000           -0.4021128             -10.9420
        19        2.0000           -0.3996600             -10.8753 (HOMO)
        20                         -0.2179979              -5.9320 (LUMO)
        21                          0.0263555               0.7172
        22                          0.0329255               0.8959
        23                          0.0446960               1.2162
        24                          0.0615018               1.6735
        25                          0.0763996               2.0789
        26                          0.0796934               2.1686
        27                          0.1033234               2.8116
        28                          0.1284885               3.4963
        29                          0.1372502               3.7348
        30                          0.1514680               4.1217
       ...                                ...                  ...
        40                          0.3695658              10.0564
      -------------------------------------------------------------
                  HL-Gap            0.1816621 Eh            4.9433 eV
             Fermi-level           -0.3088289 Eh           -8.4037 eV

     #   Z          covCN         q      C6AA      α(0)
     1   6 C        3.751    -0.103    22.520     6.767
     2   6 C        3.799    -0.052    21.515     6.604
     3   6 C        3.801    -0.056    21.577     6.613
     4   6 C        3.835    -0.055    21.531     6.601
     5   6 C        3.738     0.024    20.242     6.420
     6  35 Br       0.950    -0.204   190.665    22.264
     7   1 H        0.925     0.030     2.583     2.513
     8   1 H        0.925     0.043     2.410     2.428
     9   1 H        0.925     0.035     2.511     2.478
    10   1 H        0.924     0.043     2.410     2.428
    11   1 H        0.924     0.027     2.626     2.534
    12   1 H        0.924     0.027     2.628     2.535
    13   1 H        0.924     0.035     2.519     2.482
    14   1 H        0.924     0.037     2.491     2.468
    15   1 H        0.924     0.057     2.230     2.335
    16   1 H        0.926     0.053     2.285     2.364
    17   1 H        0.926     0.057     2.231     2.336

 Mol. C6AA /au·bohr⁶  :       2925.383456
 Mol. C8AA /au·bohr⁸  :      86254.352598
 Mol. α(0) /au        :         82.171398


Wiberg/Mayer (AO) data.
largest (>0.10) Wiberg bond orders for each atom

 ---------------------------------------------------------------------------
     #   Z sym  total        # sym  WBO       # sym  WBO       # sym  WBO
 ---------------------------------------------------------------------------
     1   6 C    3.997 --     2 C    1.021     7 H    0.988     9 H    0.987
                             8 H    0.984
     2   6 C    3.997 --     1 C    1.021     3 C    1.008    11 H    0.978
                            10 H    0.975
     3   6 C    3.996 --     2 C    1.008     4 C    1.007    12 H    0.977
                            13 H    0.976
     4   6 C    3.993 --     5 C    1.018     3 C    1.007    15 H    0.971
                            14 H    0.967
     5   6 C    3.952 --     4 C    1.018    16 H    0.980    17 H    0.978
                             6 Br   0.956
     6  35 Br   1.014 --     5 C    0.956
     7   1 H    0.999 --     1 C    0.988
     8   1 H    0.998 --     1 C    0.984
     9   1 H    0.999 --     1 C    0.987
    10   1 H    0.998 --     2 C    0.975
    11   1 H    0.999 --     2 C    0.978
    12   1 H    0.999 --     3 C    0.977
    13   1 H    0.999 --     3 C    0.976
    14   1 H    0.999 --     4 C    0.967
    15   1 H    0.997 --     4 C    0.971
    16   1 H    0.997 --     5 C    0.980
    17   1 H    0.997 --     5 C    0.978
 ---------------------------------------------------------------------------

Topologies differ in total number of bonds
Writing topology from bond orders to xtbtopo.mol

molecular dipole:
                 x           y           z       tot (Debye)
 q only:       -0.404       0.753      -0.000
   full:       -0.504       1.413      -0.071       3.817
molecular quadrupole (traceless):
                xx          xy          yy          xz          yz          zz
 q only:       -1.206       1.660       1.259      -0.273       0.005      -0.053
  q+dip:       -0.973       4.230      -0.611      -0.395       0.236       1.584
   full:       -1.409       3.862       0.619      -0.391       0.044       0.790


           -------------------------------------------------
          | TOTAL ENERGY              -20.402388316004 Eh   |
          | GRADIENT NORM               0.006509654848 Eh/α |
          | HOMO-LUMO GAP               4.943277946597 eV   |
           -------------------------------------------------

------------------------------------------------------------------------
 * finished run on 2025/04/11 at 16:11:52.198     
------------------------------------------------------------------------
 total:
 * wall-time:     0 d,  0 h,  0 min,  0.046 sec
 *  cpu-time:     0 d,  0 h,  0 min,  0.019 sec
 * ratio c/w:     0.417 speedup
 SCF:
 * wall-time:     0 d,  0 h,  0 min,  0.012 sec
 *  cpu-time:     0 d,  0 h,  0 min,  0.011 sec
 * ratio c/w:     0.991 speedup

