      -----------------------------------------------------------      
     |                   =====================                   |     
     |                           x T B                           |     
     |                   =====================                   |     
     |                         S. Grimme                         |     
     |          Mulliken Center for Theoretical Chemistry        |     
     |                    University of Bonn                     |     
      -----------------------------------------------------------      

   * xtb version 6.7.1 (edcfbbe) compiled by 'albert@albert-system' on 2024-07-22

   xtb is free software: you can redistribute it and/or modify it under
   the terms of the GNU Lesser General Public License as published by
   the Free Software Foundation, either version 3 of the License, or
   (at your option) any later version.
   
   xtb is distributed in the hope that it will be useful,
   but WITHOUT ANY WARRANTY; without even the implied warranty of
   MERCHANTABILITY or FITNESS FOR A PARTICULAR PURPOSE.  See the
   GNU Lesser General Public License for more details.
   
   Cite this work as:
   * C. Bannwarth, E. Caldeweyher, S. Ehlert, A. Hansen, P. Pracht,
     J. Seibert, S. Spicher, S. Grimme, WIREs Comput. Mol. Sci., 2020, 11,
     e01493. DOI: 10.1002/wcms.1493
   
   for GFN2-xTB:
   * C. Bannwarth, S. Ehlert and S. Grimme., J. Chem. Theory Comput., 2019,
     15, 1652-1671. DOI: 10.1021/acs.jctc.8b01176
   for GFN1-xTB:
   * S. Grimme, C. Bannwarth, P. Shushkov, J. Chem. Theory Comput., 2017,
     13, 1989-2009. DOI: 10.1021/acs.jctc.7b00118
   for GFN0-xTB:
   * P. Pracht, E. Caldeweyher, S. Ehlert, S. Grimme, ChemRxiv, 2019, preprint.
     DOI: 10.26434/chemrxiv.8326202.v1
   for GFN-FF:
   * S. Spicher and S. Grimme, Angew. Chem. Int. Ed., 2020, 59, 15665-15673.
     DOI: 10.1002/anie.202004239
   
   for ALPB and GBSA implicit solvation:
   * S. Ehlert, M. Stahn, S. Spicher, S. Grimme, J. Chem. Theory Comput.,
     2021, 17, 4250-4261. DOI: 10.1021/acs.jctc.1c00471
   
   for ddCOSMO and CPCM-X implicit solvation:
   * M. Stahn, S. Ehlert, S. Grimme, J. Phys. Chem. A,
     2023, XX, XXXX-XXXX. DOI: 10.1021/acs.jpca.3c04382
   
   for DFT-D4:
   * E. Caldeweyher, C. Bannwarth and S. Grimme, J. Chem. Phys., 2017,
     147, 034112. DOI: 10.1063/1.4993215
   * E. Caldeweyher, S. Ehlert, A. Hansen, H. Neugebauer, S. Spicher,
     C. Bannwarth and S. Grimme, J. Chem. Phys., 2019, 150, 154122.
     DOI: 10.1063/1.5090222
   * E. Caldeweyher, J.-M. Mewes, S. Ehlert and S. Grimme, Phys. Chem. Chem. Phys.
     2020, 22, 8499-8512. DOI: 10.1039/D0CP00502A
   
   for sTDA-xTB:
   * S. Grimme and C. Bannwarth, J. Chem. Phys., 2016, 145, 054103.
     DOI: 10.1063/1.4959605
   
   in the mass-spec context:
   * V. Asgeirsson, C. Bauer and S. Grimme, Chem. Sci., 2017, 8, 4879.
     DOI: 10.1039/c7sc00601b
   * J. Koopman and S. Grimme, ACS Omega 2019, 4, 12, 15120-15133.
     DOI: 10.1021/acsomega.9b02011
   
   for metadynamics refer to:
   * S. Grimme, J. Chem. Theory Comput., 2019, 155, 2847-2862
     DOI: 10.1021/acs.jctc.9b00143
   
   for SPH calculations refer to:
   * S. Spicher and S. Grimme, J. Chem. Theory Comput., 2021, 17, 1701-1714
     DOI: 10.1021/acs.jctc.0c01306
   
   for ONIOM refer to:
   * C. Plett, A. Katbashev, S. Ehlert, S. Grimme, M. Bursch,
     Phys. Chem. Chem. Phys., 2023, 25, 17860-17868. DOI: 10.1039/D3CP02178E
   
   for DIPRO refer to:
   * J. Kohn, N. Gildemeister, S. Grimme, D. Fazzi, A. Hansen,
     J. Chem. Phys., 2023, just accepted.
   
   for PTB refer to:
   * S. Grimme, M. Mueller, A. Hansen, J. Chem. Phys., 2023, 158, 124111.
     DOI: 10.1063/5.0137838
   
   with help from (in alphabetical order)
   P. Atkinson, C. Bannwarth, F. Bohle, G. Brandenburg, E. Caldeweyher
   M. Checinski, S. Dohm, S. Ehlert, S. Ehrlich, I. Gerasimov, C. Hölzer
   A. Katbashev, J. Kohn, J. Koopman, C. Lavigne, S. Lehtola, F. März, M. Müller,
   F. Musil, H. Neugebauer, J. Pisarek, C. Plett, P. Pracht, F. Pultar,
   J. Seibert, P. Shushkov, S. Spicher, M. Stahn, M. Steiner, T. Strunk,
   J. Stückrath, T. Rose, and J. Unsleber
   
 * started run on 2025/04/11 at 16:27:30.919     
   ID    Z sym.   atoms
    1    6 C      1, 2, 5, 6, 8, 10
    2    8 O      3, 4, 7, 9
    3    1 H      11-20

           -------------------------------------------------
          |                Calculation Setup                |
           -------------------------------------------------

          program call               : /srv/scratch/z5358697/.xtb/bin/xtb xtb_rrho.coord --gfn2 --bhess vtight --chrg 0 --enso --norestart -I rrho-xcontrol-inp --parallel 1 --alpb water
          hostname                   : k133
          coordinate file            : xtb_rrho.coord
          omp threads                :                     1


           -------------------------------------------------
          |                 G F N 2 - x T B                 |
           -------------------------------------------------

        Reference                      10.1021/acs.jctc.8b01176
      * Hamiltonian:
        H0-scaling (s, p, d)           1.850000    2.230000    2.230000
        zeta-weighting                 0.500000
      * Dispersion:
        s8                             2.700000
        a1                             0.520000
        a2                             5.000000
        s9                             5.000000
      * Repulsion:
        kExp                           1.500000    1.000000
        rExp                           1.000000
      * Coulomb:
        alpha                          2.000000
        third order                    shell-resolved
        anisotropic                    true
        a3                             3.000000
        a5                             4.000000
        cn-shift                       1.200000
        cn-exp                         4.000000
        max-rad                        5.000000

      * Solvation model:               ALPB
        Solvent                        water
        Parameter file                 internal GFN2-xTB/ALPB
        Dielectric constant                8.0200E+01
        Reference state                gsolv [1 M gas/solution]
        Free energy shift                  1.0808E-03 Eh       6.7819E-01 kcal/mol
        Temperature                        2.9815E+02 K
        Density                            1.0000E+00 kg/L
        Solvent mass                       1.8000E+01 g/mol
        Interaction kernel             P16
        Born radius scaling (c1)           1.4744E+00
        Born radii integrator          GBOBC
        Born offset                        0.0000E+00 a0       0.0000E+00 AA
        H-bond correction              true
        Ion screening                  false
        Surface tension                    1.0000E-05 Eh       1.5569E+01 dyn/cm
        Grid points                               974 per atom

          ...................................................
          :                      SETUP                      :
          :.................................................:
          :  # basis functions                  50          :
          :  # atomic orbitals                  50          :
          :  # shells                           30          :
          :  # electrons                        58          :
          :  max. iterations                   250          :
          :  Hamiltonian                  GFN2-xTB          :
          :  restarted?                      false          :
          :  GBSA solvation                   true          :
          :  PC potential                    false          :
          :  electronic temp.          300.0000000     K    :
          :  accuracy                    1.0000000          :
          :  -> integral cutoff          0.2500000E+02      :
          :  -> integral neglect         0.1000000E-07      :
          :  -> SCF convergence          0.1000000E-05 Eh   :
          :  -> wf. convergence          0.1000000E-03 e    :
          :  Broyden damping             0.4000000          :
          :  net charge                          0          :
          :  unpaired electrons                  0          :
          ...................................................

 iter      E             dE          RMSdq      gap      omega  full diag
   1    -34.4624163 -0.344624E+02  0.517E+00    5.90       0.0  T
   2    -34.5542768 -0.918605E-01  0.254E+00    4.79       1.0  T
   3    -34.5575648 -0.328807E-02  0.135E+00    5.17       1.0  T
   4    -34.5608362 -0.327133E-02  0.174E-01    4.94       1.0  T
   5    -34.5610421 -0.205927E-03  0.813E-02    4.99       1.0  T
   6    -34.5610464 -0.426690E-05  0.255E-02    4.98       1.0  T
   7    -34.5610481 -0.169822E-05  0.611E-03    4.99       3.7  T
   8    -34.5610482 -0.128800E-06  0.292E-03    4.99       7.7  T
   9    -34.5610482 -0.177812E-07  0.728E-04    4.99      30.7  T
  10    -34.5610482 -0.184136E-08  0.361E-04    4.99      61.9  T

   *** convergence criteria satisfied after 10 iterations ***

         #    Occupation            Energy/Eh            Energy/eV
      -------------------------------------------------------------
         1        2.0000           -0.7527683             -20.4839
       ...           ...                  ...                  ...
        23        2.0000           -0.4779239             -13.0050
        24        2.0000           -0.4773209             -12.9886
        25        2.0000           -0.4758396             -12.9483
        26        2.0000           -0.4611014             -12.5472
        27        2.0000           -0.4524166             -12.3109
        28        2.0000           -0.4351934             -11.8422
        29        2.0000           -0.4320844             -11.7576 (HOMO)
        30                         -0.2488443              -6.7714 (LUMO)
        31                         -0.2452598              -6.6739
        32                         -0.0644296              -1.7532
        33                          0.0231896               0.6310
        34                          0.0907791               2.4702
       ...                                ...                  ...
        50                          0.5907252              16.0745
      -------------------------------------------------------------
                  HL-Gap            0.1832400 Eh            4.9862 eV
             Fermi-level           -0.3404643 Eh           -9.2645 eV

 SCC (total)                   0 d,  0 h,  0 min,  0.030 sec
 SCC setup                      ...        0 min,  0.001 sec (  4.134%)
 Dispersion                     ...        0 min,  0.000 sec (  0.395%)
 classical contributions        ...        0 min,  0.000 sec (  0.080%)
 integral evaluation            ...        0 min,  0.002 sec (  5.980%)
 iterations                     ...        0 min,  0.021 sec ( 70.037%)
 molecular gradient             ...        0 min,  0.006 sec ( 18.758%)
 printout                       ...        0 min,  0.000 sec (  0.564%)

         :::::::::::::::::::::::::::::::::::::::::::::::::::::
         ::                     SUMMARY                     ::
         :::::::::::::::::::::::::::::::::::::::::::::::::::::
         :: total energy             -34.245241489109 Eh    ::
         :: total w/o Gsasa/hb       -34.245098757690 Eh    ::
         :: gradient norm              0.042874859600 Eh/a0 ::
         :: HOMO-LUMO gap              4.986214740423 eV    ::
         ::.................................................::
         :: SCC energy               -34.561099666845 Eh    ::
         :: -> isotropic ES            0.110840006869 Eh    ::
         :: -> anisotropic ES         -0.002308704433 Eh    ::
         :: -> anisotropic XC          0.004448439393 Eh    ::
         :: -> dispersion             -0.012058937450 Eh    ::
         :: -> Gsolv                  -0.015766195051 Eh    ::
         ::    -> Gelec               -0.015623463632 Eh    ::
         ::    -> Gsasa                0.003880417379 Eh    ::
         ::    -> Ghb                 -0.005103908495 Eh    ::
         ::    -> Gshift               0.001080759698 Eh    ::
         :: repulsion energy           0.315858177736 Eh    ::
         :: add. restraining           0.000000000000 Eh    ::
         :: total charge               0.000000000000 e     ::
         :::::::::::::::::::::::::::::::::::::::::::::::::::::

metadynamics with 1 initial structures loaded
           -------------------------------------------------
          |           Optimal kpush determination           |
           -------------------------------------------------
      ----------------------------------------------------------- 
     |                   =====================                   |
     |                        A N C O P T                        |
     |                   =====================                   |
     |               Approximate Normal Coordinate               |
     |                Rational Function Optimizer                |
      ----------------------------------------------------------- 
target rmsd / Å         0.100000
unbiased initial rmsd   0.054869
 
iter. min.        max.        rmsd       kpush
final kpush:  0.000000
           -------------------------------------------------
          |            Biased Numerical Hessian             |
           -------------------------------------------------
kpush                :   0.00000
alpha                :   1.00000
step length          :   0.00500
SCC accuracy         :   0.30000
Hessian scale factor :   1.00000
frozen atoms in %    :   0.00000    0
RMS gradient         :   0.00009
estimated CPU  time      0.02 min
estimated wall time      0.02 min

writing file <hessian>.

 projected vibrational frequencies (cm⁻¹)
eigval :       -0.00    -0.00    -0.00     0.00     0.00     0.00
eigval :       18.77    21.11    27.95    47.90    66.26    71.50
eigval :      119.40   247.21   273.57   305.96   332.72   411.02
eigval :      486.94   581.31   585.78   626.06   671.73   791.20
eigval :      875.62   896.60   995.81   997.11  1004.10  1004.85
eigval :     1034.51  1059.45  1069.61  1122.96  1161.50  1177.93
eigval :     1211.84  1255.76  1278.51  1331.18  1356.55  1357.31
eigval :     1415.58  1416.68  1417.17  1422.93  1423.82  1425.06
eigval :     1706.28  1707.73  2940.79  2953.10  2988.22  3001.40
eigval :     3028.16  3029.53  3054.01  3056.02  3077.18  3077.68
           -------------------------------------------------
          |                Property Printout                |
           -------------------------------------------------

    * Orbital Energies and Occupations

         #    Occupation            Energy/Eh            Energy/eV
      -------------------------------------------------------------
         1        2.0000           -0.7577641             -20.6198
       ...           ...                  ...                  ...
        17        2.0000           -0.5294294             -14.4065
        18        2.0000           -0.5216569             -14.1950
        19        2.0000           -0.5049652             -13.7408
        20        2.0000           -0.5032923             -13.6953
        21        2.0000           -0.4858829             -13.2215
        22        2.0000           -0.4787800             -13.0283
        23        2.0000           -0.4783610             -13.0169
        24        2.0000           -0.4777172             -12.9993
        25        2.0000           -0.4762213             -12.9586
        26        2.0000           -0.4606007             -12.5336
        27        2.0000           -0.4500801             -12.2473
        28        2.0000           -0.4342937             -11.8177
        29        2.0000           -0.4301914             -11.7061 (HOMO)
        30                         -0.2447268              -6.6594 (LUMO)
        31                         -0.2406275              -6.5478
        32                         -0.0381443              -1.0380
        33                          0.0460861               1.2541
        34                          0.0851948               2.3183
        35                          0.1115290               3.0349
        36                          0.1459862               3.9725
        37                          0.1507463               4.1020
        38                          0.1635944               4.4516
        39                          0.1659656               4.5162
        40                          0.1675695               4.5598
       ...                                ...                  ...
        50                          0.6176264              16.8065
      -------------------------------------------------------------
                  HL-Gap            0.1854646 Eh            5.0467 eV
             Fermi-level           -0.3374591 Eh           -9.1827 eV

     #   Z          covCN         q      C6AA      α(0)
     1   6 C        3.754    -0.177    24.016     6.988
     2   6 C        2.711     0.369    20.743     7.455
     3   8 O        0.856    -0.478    23.313     6.474
     4   8 O        1.705    -0.268    18.446     5.799
     5   6 C        3.696     0.064    19.666     6.344
     6   6 C        3.696     0.064    19.666     6.344
     7   8 O        1.705    -0.268    18.448     5.799
     8   6 C        2.711     0.369    20.743     7.455
     9   8 O        0.856    -0.478    23.309     6.473
    10   6 C        3.754    -0.177    24.016     6.988
    11   1 H        0.925     0.109     1.709     2.045
    12   1 H        0.925     0.100     1.781     2.087
    13   1 H        0.925     0.117     1.639     2.002
    14   1 H        0.924     0.076     2.022     2.224
    15   1 H        0.924     0.089     1.890     2.150
    16   1 H        0.924     0.089     1.890     2.150
    17   1 H        0.924     0.076     2.021     2.223
    18   1 H        0.925     0.101     1.776     2.084
    19   1 H        0.925     0.107     1.719     2.050
    20   1 H        0.925     0.117     1.635     2.000

 Mol. C6AA /au·bohr⁶  :       3514.563147
 Mol. C8AA /au·bohr⁸  :      76901.707949
 Mol. α(0) /au        :         87.132254


Wiberg/Mayer (AO) data.
largest (>0.10) Wiberg bond orders for each atom

 ---------------------------------------------------------------------------
     #   Z sym  total        # sym  WBO       # sym  WBO       # sym  WBO
 ---------------------------------------------------------------------------
     1   6 C    3.979 --     2 C    1.005    12 H    0.977    11 H    0.959
                            13 H    0.942
     2   6 C    3.899 --     3 O    1.705     4 O    1.134     1 C    1.005
     3   8 O    1.982 --     2 C    1.705     4 O    0.164
     4   8 O    2.309 --     2 C    1.134     5 C    0.946     3 O    0.164
     5   6 C    3.923 --     6 C    0.985    15 H    0.967    14 H    0.966
                             4 O    0.946
     6   6 C    3.923 --     5 C    0.985    16 H    0.967    17 H    0.966
                             7 O    0.946
     7   8 O    2.308 --     8 C    1.134     6 C    0.946     9 O    0.164
     8   6 C    3.899 --     9 O    1.705     7 O    1.134    10 C    1.005
     9   8 O    1.982 --     8 C    1.705     7 O    0.164
    10   6 C    3.979 --     8 C    1.005    18 H    0.976    19 H    0.961
                            20 H    0.941
    11   1 H    0.988 --     1 C    0.959
    12   1 H    0.990 --     1 C    0.977
    13   1 H    0.986 --     1 C    0.942
    14   1 H    0.994 --     5 C    0.966
    15   1 H    0.992 --     5 C    0.967
    16   1 H    0.992 --     6 C    0.967
    17   1 H    0.994 --     6 C    0.966
    18   1 H    0.990 --    10 C    0.976
    19   1 H    0.988 --    10 C    0.961
    20   1 H    0.986 --    10 C    0.941
 ---------------------------------------------------------------------------

Topologies differ in total number of bonds
Writing topology from bond orders to xtbtopo.mol

molecular dipole:
                 x           y           z       tot (Debye)
 q only:        0.003      -0.003      -0.004
   full:        0.004      -0.004      -0.005       0.020
molecular quadrupole (traceless):
                xx          xy          yy          xz          yz          zz
 q only:       19.072       3.303      -1.993      13.893       1.939     -17.079
  q+dip:       15.893       2.375       1.273      13.402       2.703     -17.167
   full:       16.624       2.200       1.868      13.644       3.007     -18.491

           -------------------------------------------------
          |                Geometry Summary                 |
           -------------------------------------------------

      molecular mass/u    :      146.1414426
   center of mass at/Å    :       -0.0001811       0.0011609       0.0001458
  moments of inertia/u·Å² :        0.1169734E+03   0.9660316E+03   0.1033661E+04
rotational constants/cm⁻¹ :        0.1441151E+00   0.1745039E-01   0.1630867E-01

 * 17 selected distances

     #   Z          #   Z                                           value/Å
     2   6 C        3   8 O                                       1.2116484
     2   6 C        4   8 O                                       1.3374743
     4   8 O        5   6 C                                       1.4235881
     5   6 C        6   6 C                                       1.5330426 (max)
     6   6 C        7   8 O                                       1.4235754
     7   8 O        8   6 C                                       1.3375421
     8   6 C        9   8 O                                       1.2115954
     1   6 C       11   1 H                                       1.0860614
     1   6 C       12   1 H                                       1.0842501 (min)
     1   6 C       13   1 H                                       1.0878546
     5   6 C       14   1 H                                       1.0950319
     5   6 C       15   1 H                                       1.0912405
     6   6 C       16   1 H                                       1.0912380
     6   6 C       17   1 H                                       1.0950268
    10   6 C       18   1 H                                       1.0843034
    10   6 C       19   1 H                                       1.0858787
    10   6 C       20   1 H                                       1.0879756

 * 3 distinct bonds (by element types)

   Z      Z             #   av. dist./Å        max./Å        min./Å
   1 H    6 C          10     1.0888861     1.0950319     1.0842501
   6 C    6 C           1     1.5330426     1.5330426     1.5330426
   6 C    8 O           6     1.3242373     1.4235881     1.2115954

           -------------------------------------------------
          |               Frequency Printout                |
           -------------------------------------------------
 projected vibrational frequencies (cm⁻¹)
eigval :       -0.00    -0.00    -0.00     0.00     0.00     0.00
eigval :       18.77    21.11    27.95    47.90    66.26    71.50
eigval :      119.40   247.21   273.57   305.96   332.72   411.02
eigval :      486.94   581.31   585.78   626.06   671.73   791.20
eigval :      875.62   896.60   995.81   997.11  1004.10  1004.85
eigval :     1034.51  1059.45  1069.61  1122.96  1161.50  1177.93
eigval :     1211.84  1255.76  1278.51  1331.18  1356.55  1357.31
eigval :     1415.58  1416.68  1417.17  1422.93  1423.82  1425.06
eigval :     1706.28  1707.73  2940.79  2953.10  2988.22  3001.40
eigval :     3028.16  3029.53  3054.01  3056.02  3077.18  3077.68
 reduced masses (amu)
   1: 12.11   2: 11.79   3: 12.65   4: 13.29   5: 13.05   6: 12.99   7:  1.78   8:  1.63
   9: 12.89  10: 12.69  11: 12.16  12:  9.57  13: 11.64  14:  9.56  15: 10.53  16: 11.49
  17: 11.70  18: 10.98  19: 12.15  20:  9.97  21:  9.92  22: 11.55  23: 12.42  24:  3.46
  25: 10.67  26: 10.27  27:  6.67  28:  6.66  29:  6.69  30:  6.61  31: 11.40  32: 12.35
  33: 10.58  34:  8.25  35:  9.94  36: 10.91  37:  5.15  38:  2.23  39:  3.20  40:  3.71
  41:  3.33  42:  3.40  43:  1.84  44:  1.66  45:  1.70  46:  1.66  47:  1.71  48:  1.85
  49: 13.34  50: 13.33  51:  1.67  52:  1.72  53:  1.73  54:  1.82  55:  1.78  56:  1.79
  57:  1.51  58:  1.50  59:  1.91  60:  1.89
 IR intensities (km·mol⁻¹)
   1:  0.00   2:  0.00   3:  0.00   4:  0.00   5:  0.00   6:  0.00   7:  2.62   8:  0.04
   9: 11.00  10: 13.01  11:  0.01  12:  5.37  13:  0.00  14:  0.00  15: 37.58  16:  0.00
  17: 16.24  18: 26.60  19:  0.00  20:  0.34  21: 40.49  22: 25.84  23:  0.00  24: 19.47
  25:  0.00  26: 59.96  27: 23.76  28: 32.05  29:  0.69  30: 46.25  31:  0.00  32:119.13
  33:  0.06  34:  0.00  35:******  36:  0.14  37:202.61  38:  0.00  39: 22.34  40:  0.00
  41:150.50  42:  0.10  43: 23.63  44:  0.35  45: 22.02  46:  0.35  47:  8.02  48:  0.06
  49:******  50: 28.60  51:  0.00  52: 37.73  53:  0.00  54: 14.91  55:  0.24  56:  0.20
  57:  0.40  58:  0.44  59:  3.83  60:  3.64
 Raman intensities (Ä⁴*amu⁻¹)
   1:  0.00   2:  0.00   3:  0.00   4:  0.00   5:  0.00   6:  0.00   7:  0.00   8:  0.00
   9:  0.00  10:  0.00  11:  0.00  12:  0.00  13:  0.00  14:  0.00  15:  0.00  16:  0.00
  17:  0.00  18:  0.00  19:  0.00  20:  0.00  21:  0.00  22:  0.00  23:  0.00  24:  0.00
  25:  0.00  26:  0.00  27:  0.00  28:  0.00  29:  0.00  30:  0.00  31:  0.00  32:  0.00
  33:  0.00  34:  0.00  35:  0.00  36:  0.00  37:  0.00  38:  0.00  39:  0.00  40:  0.00
  41:  0.00  42:  0.00  43:  0.00  44:  0.00  45:  0.00  46:  0.00  47:  0.00  48:  0.00
  49:  0.00  50:  0.00  51:  0.00  52:  0.00  53:  0.00  54:  0.00  55:  0.00  56:  0.00
  57:  0.00  58:  0.00  59:  0.00  60:  0.00
 output can be read by thermo (or use thermo option).
 writing <g98.out> molden fake output.
 recommended (thermochemical) frequency scaling factor: 1.0
           -------------------------------------------------
          |             Thermodynamic Functions             |
           -------------------------------------------------

Molecule has no symmetry elements
It seems to be the C1 point group
c1  symmetry found (for desy threshold:  0.10E+00) used in thermo

          ...................................................
          :                      SETUP                      :
          :.................................................:
          :  # frequencies                          54      :
          :  # imaginary freq.                       0      :
          :  linear?                             false      :
          :  only rotor calc.                    false      :
          :  symmetry                               c1      :
          :  rotational number                       1      :
          :  scaling factor                  1.0000000      :
          :  rotor cutoff                    0.0000000 cm⁻¹ :
          :  imag. cutoff                 -100.0000000 cm⁻¹ :
          :.................................................:

    mode    ω/cm⁻¹     T·S(HO)/kcal·mol⁻¹    T·S(FR)/kcal·mol⁻¹   T·S(vib)
   ------------------------------------------------------------------------
       1     18.77    -2.01543 (100.00%)    -1.34635 (  0.00%)    -2.01543
       2     21.11    -1.94610 (100.00%)    -1.31170 (  0.00%)    -1.94610
       3     27.95    -1.77984 (100.00%)    -1.22856 (  0.00%)    -1.77984
       4     47.90    -1.46159 (100.00%)    -1.06910 (  0.00%)    -1.46159
       5     66.26    -1.27058 (100.00%)    -0.97304 (  0.00%)    -1.27058
       6     71.50    -1.22586 (100.00%)    -0.95049 (  0.00%)    -1.22586
       7    119.40    -0.92724 (100.00%)    -0.79861 (  0.00%)    -0.92724
       8    247.21    -0.52189 (100.00%)    -0.58307 (  0.00%)    -0.52189
       9    273.57    -0.46915 (100.00%)    -0.55305 (  0.00%)    -0.46915
   ------------------------------------------------------------------------

   temp. (K)  partition function   enthalpy   heat capacity  entropy
                                   cal/mol     cal/K/mol   cal/K/mol   J/K/mol
 298.15  VIB  0.752E+06             5834.099     33.748     46.456
         ROT  0.826E+06              888.752      2.981     30.055
         INT  0.621E+12             6722.852     36.729     76.511
         TR   0.171E+28             1481.254      4.968     40.830
         TOT                        8204.1054    41.6968   117.3416   490.9572

       T/K    H(0)-H(T)+PV         H(T)/Eh          T*S/Eh         G(T)/Eh
   ------------------------------------------------------------------------
    298.15    0.130741E-01    0.168033E+00    0.557528E-01    0.112280E+00
   ------------------------------------------------------------------------

         :::::::::::::::::::::::::::::::::::::::::::::::::::::
         ::                  THERMODYNAMIC                  ::
         :::::::::::::::::::::::::::::::::::::::::::::::::::::
         :: total free energy         -34.135196520336 Eh   ::
         ::.................................................::
         :: total energy              -34.247476375551 Eh   ::
         :: zero point energy           0.154958556317 Eh   ::
         :: G(RRHO) w/o ZPVE           -0.042678701102 Eh   ::
         :: G(RRHO) contrib.            0.112279855215 Eh   ::
         :::::::::::::::::::::::::::::::::::::::::::::::::::::

optimized geometry written to: xtbopt.coord


           -------------------------------------------------
          | TOTAL ENERGY              -34.247476375551 Eh   |
          | TOTAL ENTHALPY            -34.079443745031 Eh   |
          | TOTAL FREE ENERGY         -34.135196520336 Eh   |
          | GRADIENT NORM               0.000093404720 Eh/α |
          | HOMO-LUMO GAP               5.046748640917 eV   |
           -------------------------------------------------

------------------------------------------------------------------------
 * finished run on 2025/04/11 at 16:27:32.690     
------------------------------------------------------------------------
 total:
 * wall-time:     0 d,  0 h,  0 min,  1.771 sec
 *  cpu-time:     0 d,  0 h,  0 min,  1.662 sec
 * ratio c/w:     0.938 speedup
 SCF:
 * wall-time:     0 d,  0 h,  0 min,  0.030 sec
 *  cpu-time:     0 d,  0 h,  0 min,  0.018 sec
 * ratio c/w:     0.582 speedup
 analytical hessian:
 * wall-time:     0 d,  0 h,  0 min,  1.457 sec
 *  cpu-time:     0 d,  0 h,  0 min,  1.442 sec
 * ratio c/w:     0.990 speedup

