      -----------------------------------------------------------      
     |                   =====================                   |     
     |                           x T B                           |     
     |                   =====================                   |     
     |                         S. Grimme                         |     
     |          Mulliken Center for Theoretical Chemistry        |     
     |                    University of Bonn                     |     
      -----------------------------------------------------------      

   * xtb version 6.7.1 (edcfbbe) compiled by 'albert@albert-system' on 2024-07-22

   xtb is free software: you can redistribute it and/or modify it under
   the terms of the GNU Lesser General Public License as published by
   the Free Software Foundation, either version 3 of the License, or
   (at your option) any later version.
   
   xtb is distributed in the hope that it will be useful,
   but WITHOUT ANY WARRANTY; without even the implied warranty of
   MERCHANTABILITY or FITNESS FOR A PARTICULAR PURPOSE.  See the
   GNU Lesser General Public License for more details.
   
   Cite this work as:
   * C. Bannwarth, E. Caldeweyher, S. Ehlert, A. Hansen, P. Pracht,
     J. Seibert, S. Spicher, S. Grimme, WIREs Comput. Mol. Sci., 2020, 11,
     e01493. DOI: 10.1002/wcms.1493
   
   for GFN2-xTB:
   * C. Bannwarth, S. Ehlert and S. Grimme., J. Chem. Theory Comput., 2019,
     15, 1652-1671. DOI: 10.1021/acs.jctc.8b01176
   for GFN1-xTB:
   * S. Grimme, C. Bannwarth, P. Shushkov, J. Chem. Theory Comput., 2017,
     13, 1989-2009. DOI: 10.1021/acs.jctc.7b00118
   for GFN0-xTB:
   * P. Pracht, E. Caldeweyher, S. Ehlert, S. Grimme, ChemRxiv, 2019, preprint.
     DOI: 10.26434/chemrxiv.8326202.v1
   for GFN-FF:
   * S. Spicher and S. Grimme, Angew. Chem. Int. Ed., 2020, 59, 15665-15673.
     DOI: 10.1002/anie.202004239
   
   for ALPB and GBSA implicit solvation:
   * S. Ehlert, M. Stahn, S. Spicher, S. Grimme, J. Chem. Theory Comput.,
     2021, 17, 4250-4261. DOI: 10.1021/acs.jctc.1c00471
   
   for ddCOSMO and CPCM-X implicit solvation:
   * M. Stahn, S. Ehlert, S. Grimme, J. Phys. Chem. A,
     2023, XX, XXXX-XXXX. DOI: 10.1021/acs.jpca.3c04382
   
   for DFT-D4:
   * E. Caldeweyher, C. Bannwarth and S. Grimme, J. Chem. Phys., 2017,
     147, 034112. DOI: 10.1063/1.4993215
   * E. Caldeweyher, S. Ehlert, A. Hansen, H. Neugebauer, S. Spicher,
     C. Bannwarth and S. Grimme, J. Chem. Phys., 2019, 150, 154122.
     DOI: 10.1063/1.5090222
   * E. Caldeweyher, J.-M. Mewes, S. Ehlert and S. Grimme, Phys. Chem. Chem. Phys.
     2020, 22, 8499-8512. DOI: 10.1039/D0CP00502A
   
   for sTDA-xTB:
   * S. Grimme and C. Bannwarth, J. Chem. Phys., 2016, 145, 054103.
     DOI: 10.1063/1.4959605
   
   in the mass-spec context:
   * V. Asgeirsson, C. Bauer and S. Grimme, Chem. Sci., 2017, 8, 4879.
     DOI: 10.1039/c7sc00601b
   * J. Koopman and S. Grimme, ACS Omega 2019, 4, 12, 15120-15133.
     DOI: 10.1021/acsomega.9b02011
   
   for metadynamics refer to:
   * S. Grimme, J. Chem. Theory Comput., 2019, 155, 2847-2862
     DOI: 10.1021/acs.jctc.9b00143
   
   for SPH calculations refer to:
   * S. Spicher and S. Grimme, J. Chem. Theory Comput., 2021, 17, 1701-1714
     DOI: 10.1021/acs.jctc.0c01306
   
   for ONIOM refer to:
   * C. Plett, A. Katbashev, S. Ehlert, S. Grimme, M. Bursch,
     Phys. Chem. Chem. Phys., 2023, 25, 17860-17868. DOI: 10.1039/D3CP02178E
   
   for DIPRO refer to:
   * J. Kohn, N. Gildemeister, S. Grimme, D. Fazzi, A. Hansen,
     J. Chem. Phys., 2023, just accepted.
   
   for PTB refer to:
   * S. Grimme, M. Mueller, A. Hansen, J. Chem. Phys., 2023, 158, 124111.
     DOI: 10.1063/5.0137838
   
   with help from (in alphabetical order)
   P. Atkinson, C. Bannwarth, F. Bohle, G. Brandenburg, E. Caldeweyher
   M. Checinski, S. Dohm, S. Ehlert, S. Ehrlich, I. Gerasimov, C. Hölzer
   A. Katbashev, J. Kohn, J. Koopman, C. Lavigne, S. Lehtola, F. März, M. Müller,
   F. Musil, H. Neugebauer, J. Pisarek, C. Plett, P. Pracht, F. Pultar,
   J. Seibert, P. Shushkov, S. Spicher, M. Stahn, M. Steiner, T. Strunk,
   J. Stückrath, T. Rose, and J. Unsleber
   
 * started run on 2025/04/11 at 16:26:45.366     
   ID    Z sym.   atoms
    1    6 C      1-5, 8
    2    8 O      6, 7
    3    1 H      9-20

           -------------------------------------------------
          |                Calculation Setup                |
           -------------------------------------------------

          program call               : /srv/scratch/z5358697/.xtb/bin/xtb xtb_rrho.coord --gfn2 --bhess vtight --chrg 0 --enso --norestart -I rrho-xcontrol-inp --parallel 1 --alpb water
          hostname                   : k068
          coordinate file            : xtb_rrho.coord
          omp threads                :                     1


           -------------------------------------------------
          |                 G F N 2 - x T B                 |
           -------------------------------------------------

        Reference                      10.1021/acs.jctc.8b01176
      * Hamiltonian:
        H0-scaling (s, p, d)           1.850000    2.230000    2.230000
        zeta-weighting                 0.500000
      * Dispersion:
        s8                             2.700000
        a1                             0.520000
        a2                             5.000000
        s9                             5.000000
      * Repulsion:
        kExp                           1.500000    1.000000
        rExp                           1.000000
      * Coulomb:
        alpha                          2.000000
        third order                    shell-resolved
        anisotropic                    true
        a3                             3.000000
        a5                             4.000000
        cn-shift                       1.200000
        cn-exp                         4.000000
        max-rad                        5.000000

      * Solvation model:               ALPB
        Solvent                        water
        Parameter file                 internal GFN2-xTB/ALPB
        Dielectric constant                8.0200E+01
        Reference state                gsolv [1 M gas/solution]
        Free energy shift                  1.0808E-03 Eh       6.7819E-01 kcal/mol
        Temperature                        2.9815E+02 K
        Density                            1.0000E+00 kg/L
        Solvent mass                       1.8000E+01 g/mol
        Interaction kernel             P16
        Born radius scaling (c1)           1.4744E+00
        Born radii integrator          GBOBC
        Born offset                        0.0000E+00 a0       0.0000E+00 AA
        H-bond correction              true
        Ion screening                  false
        Surface tension                    1.0000E-05 Eh       1.5569E+01 dyn/cm
        Grid points                               974 per atom

          ...................................................
          :                      SETUP                      :
          :.................................................:
          :  # basis functions                  44          :
          :  # atomic orbitals                  44          :
          :  # shells                           28          :
          :  # electrons                        48          :
          :  max. iterations                   250          :
          :  Hamiltonian                  GFN2-xTB          :
          :  restarted?                      false          :
          :  GBSA solvation                   true          :
          :  PC potential                    false          :
          :  electronic temp.          300.0000000     K    :
          :  accuracy                    1.0000000          :
          :  -> integral cutoff          0.2500000E+02      :
          :  -> integral neglect         0.1000000E-07      :
          :  -> SCF convergence          0.1000000E-05 Eh   :
          :  -> wf. convergence          0.1000000E-03 e    :
          :  Broyden damping             0.4000000          :
          :  net charge                          0          :
          :  unpaired electrons                  0          :
          ...................................................

 iter      E             dE          RMSdq      gap      omega  full diag
   1    -27.3538641 -0.273539E+02  0.402E+00    5.50       0.0  T
   2    -27.4164251 -0.625610E-01  0.201E+00    4.68       1.0  T
   3    -27.4182778 -0.185271E-02  0.103E+00    5.02       1.0  T
   4    -27.4198852 -0.160745E-02  0.170E-01    4.77       1.0  T
   5    -27.4201250 -0.239760E-03  0.704E-02    4.82       1.0  T
   6    -27.4201269 -0.186028E-05  0.207E-02    4.82       1.1  T
   7    -27.4201276 -0.771431E-06  0.383E-03    4.82       5.8  T
   8    -27.4201276 -0.162565E-07  0.211E-03    4.82      10.6  T
   9    -27.4201276 -0.491625E-08  0.245E-04    4.82      91.3  T
  10    -27.4201276 -0.126473E-09  0.109E-04    4.82     204.9  T

   *** convergence criteria satisfied after 10 iterations ***

         #    Occupation            Energy/Eh            Energy/eV
      -------------------------------------------------------------
         1        2.0000           -0.7475440             -20.3417
       ...           ...                  ...                  ...
        18        2.0000           -0.4718588             -12.8399
        19        2.0000           -0.4541497             -12.3580
        20        2.0000           -0.4494754             -12.2308
        21        2.0000           -0.4462671             -12.1435
        22        2.0000           -0.4400694             -11.9749
        23        2.0000           -0.4244061             -11.5487
        24        2.0000           -0.4228647             -11.5067 (HOMO)
        25                         -0.2458395              -6.6896 (LUMO)
        26                         -0.0155246              -0.4224
        27                          0.0747323               2.0336
        28                          0.1039249               2.8279
        29                          0.1110559               3.0220
       ...                                ...                  ...
        44                          0.5838441              15.8872
      -------------------------------------------------------------
                  HL-Gap            0.1770252 Eh            4.8171 eV
             Fermi-level           -0.3343521 Eh           -9.0982 eV

 SCC (total)                   0 d,  0 h,  0 min,  0.038 sec
 SCC setup                      ...        0 min,  0.001 sec (  3.470%)
 Dispersion                     ...        0 min,  0.000 sec (  0.309%)
 classical contributions        ...        0 min,  0.000 sec (  0.079%)
 integral evaluation            ...        0 min,  0.002 sec (  4.283%)
 iterations                     ...        0 min,  0.029 sec ( 78.479%)
 molecular gradient             ...        0 min,  0.005 sec ( 12.909%)
 printout                       ...        0 min,  0.000 sec (  0.415%)

         :::::::::::::::::::::::::::::::::::::::::::::::::::::
         ::                     SUMMARY                     ::
         :::::::::::::::::::::::::::::::::::::::::::::::::::::
         :: total energy             -27.117568597577 Eh    ::
         :: total w/o Gsasa/hb       -27.117880702130 Eh    ::
         :: gradient norm              0.031756050610 Eh/a0 ::
         :: HOMO-LUMO gap              4.817101295008 eV    ::
         ::.................................................::
         :: SCC energy               -27.420153250362 Eh    ::
         :: -> isotropic ES            0.057557692087 Eh    ::
         :: -> anisotropic ES          0.002373139660 Eh    ::
         :: -> anisotropic XC          0.008911598177 Eh    ::
         :: -> dispersion             -0.011140743174 Eh    ::
         :: -> Gsolv                  -0.008553041870 Eh    ::
         ::    -> Gelec               -0.008865146422 Eh    ::
         ::    -> Gsasa                0.001592163542 Eh    ::
         ::    -> Ghb                 -0.002360818688 Eh    ::
         ::    -> Gshift               0.001080759698 Eh    ::
         :: repulsion energy           0.302584652786 Eh    ::
         :: add. restraining           0.000000000000 Eh    ::
         :: total charge              -0.000000000000 e     ::
         :::::::::::::::::::::::::::::::::::::::::::::::::::::

metadynamics with 1 initial structures loaded
           -------------------------------------------------
          |           Optimal kpush determination           |
           -------------------------------------------------
      ----------------------------------------------------------- 
     |                   =====================                   |
     |                        A N C O P T                        |
     |                   =====================                   |
     |               Approximate Normal Coordinate               |
     |                Rational Function Optimizer                |
      ----------------------------------------------------------- 
target rmsd / Å         0.100000
unbiased initial rmsd   0.251209
 
iter. min.        max.        rmsd       kpush
      ----------------------------------------------------------- 
     |                   =====================                   |
     |                        A N C O P T                        |
     |                   =====================                   |
     |               Approximate Normal Coordinate               |
     |                Rational Function Optimizer                |
      ----------------------------------------------------------- 
 1    0.000000    0.909091    0.009623   -0.454545
      ----------------------------------------------------------- 
     |                   =====================                   |
     |                        A N C O P T                        |
     |                   =====================                   |
     |               Approximate Normal Coordinate               |
     |                Rational Function Optimizer                |
      ----------------------------------------------------------- 
 2    0.000000    0.454545    0.012526   -0.227273
      ----------------------------------------------------------- 
     |                   =====================                   |
     |                        A N C O P T                        |
     |                   =====================                   |
     |               Approximate Normal Coordinate               |
     |                Rational Function Optimizer                |
      ----------------------------------------------------------- 
 3    0.000000    0.227273    0.015831   -0.113636
      ----------------------------------------------------------- 
     |                   =====================                   |
     |                        A N C O P T                        |
     |                   =====================                   |
     |               Approximate Normal Coordinate               |
     |                Rational Function Optimizer                |
      ----------------------------------------------------------- 
 4    0.000000    0.113636    0.019092   -0.056818
      ----------------------------------------------------------- 
     |                   =====================                   |
     |                        A N C O P T                        |
     |                   =====================                   |
     |               Approximate Normal Coordinate               |
     |                Rational Function Optimizer                |
      ----------------------------------------------------------- 
 5    0.000000    0.056818    0.021753   -0.028409
      ----------------------------------------------------------- 
     |                   =====================                   |
     |                        A N C O P T                        |
     |                   =====================                   |
     |               Approximate Normal Coordinate               |
     |                Rational Function Optimizer                |
      ----------------------------------------------------------- 
 6    0.000000    0.028409    0.023806   -0.014205
      ----------------------------------------------------------- 
     |                   =====================                   |
     |                        A N C O P T                        |
     |                   =====================                   |
     |               Approximate Normal Coordinate               |
     |                Rational Function Optimizer                |
      ----------------------------------------------------------- 
 7    0.000000    0.014205    0.026408   -0.007102
      ----------------------------------------------------------- 
     |                   =====================                   |
     |                        A N C O P T                        |
     |                   =====================                   |
     |               Approximate Normal Coordinate               |
     |                Rational Function Optimizer                |
      ----------------------------------------------------------- 
 8    0.000000    0.007102    0.034029   -0.003551
      ----------------------------------------------------------- 
     |                   =====================                   |
     |                        A N C O P T                        |
     |                   =====================                   |
     |               Approximate Normal Coordinate               |
     |                Rational Function Optimizer                |
      ----------------------------------------------------------- 
 9    0.000000    0.003551    0.057099   -0.001776
      ----------------------------------------------------------- 
     |                   =====================                   |
     |                        A N C O P T                        |
     |                   =====================                   |
     |               Approximate Normal Coordinate               |
     |                Rational Function Optimizer                |
      ----------------------------------------------------------- 
10    0.000000    0.001776    0.101681   -0.000888
final kpush: -0.000888
           -------------------------------------------------
          |            Biased Numerical Hessian             |
           -------------------------------------------------
kpush                :  -0.00089
alpha                :   1.00000
step length          :   0.00500
SCC accuracy         :   0.30000
Hessian scale factor :   1.00000
frozen atoms in %    :   0.00000    0
RMS gradient         :   0.00003
estimated CPU  time      0.02 min
estimated wall time      0.02 min

writing file <hessian>.

 projected vibrational frequencies (cm⁻¹)
eigval :       -0.00    -0.00    -0.00     0.00     0.00     0.00
eigval :       20.19    39.13    75.15    97.07   110.05   201.83
eigval :      230.23   253.57   283.01   374.86   412.07   633.41
eigval :      716.67   776.92   827.53   894.54   940.93   949.87
eigval :     1015.06  1059.06  1077.67  1098.78  1112.24  1121.48
eigval :     1137.47  1189.08  1214.80  1241.42  1261.39  1277.43
eigval :     1313.28  1359.60  1373.23  1411.64  1424.09  1437.75
eigval :     1448.77  1485.92  1491.12  1497.29  1501.11  1699.14
eigval :     2965.70  2976.75  2982.74  2988.11  2988.20  2997.66
eigval :     2999.81  3014.47  3029.52  3033.93  3043.26  3056.91
           -------------------------------------------------
          |                Property Printout                |
           -------------------------------------------------

    * Orbital Energies and Occupations

         #    Occupation            Energy/Eh            Energy/eV
      -------------------------------------------------------------
         1        2.0000           -0.7521587             -20.4673
       ...           ...                  ...                  ...
        12        2.0000           -0.5220341             -14.2053
        13        2.0000           -0.5190038             -14.1228
        14        2.0000           -0.5080626             -13.8251
        15        2.0000           -0.4929243             -13.4132
        16        2.0000           -0.4865646             -13.2401
        17        2.0000           -0.4764522             -12.9649
        18        2.0000           -0.4712518             -12.8234
        19        2.0000           -0.4533899             -12.3374
        20        2.0000           -0.4490264             -12.2186
        21        2.0000           -0.4461272             -12.1397
        22        2.0000           -0.4402693             -11.9803
        23        2.0000           -0.4253734             -11.5750
        24        2.0000           -0.4208516             -11.4520 (HOMO)
        25                         -0.2401675              -6.5353 (LUMO)
        26                          0.0036762               0.1000
        27                          0.0840604               2.2874
        28                          0.1048366               2.8527
        29                          0.1222606               3.3269
        30                          0.1381021               3.7579
        31                          0.1406604               3.8276
        32                          0.1547818               4.2118
        33                          0.1606653               4.3719
        34                          0.1776773               4.8348
        35                          0.1858399               5.0570
       ...                                ...                  ...
        44                          0.6146279              16.7249
      -------------------------------------------------------------
                  HL-Gap            0.1806841 Eh            4.9167 eV
             Fermi-level           -0.3305095 Eh           -8.9936 eV

     #   Z          covCN         q      C6AA      α(0)
     1   6 C        3.752    -0.115    22.760     6.803
     2   6 C        3.801    -0.061    21.668     6.627
     3   6 C        3.806    -0.054    21.539     6.607
     4   6 C        3.804    -0.101    22.415     6.740
     5   6 C        2.719     0.364    20.826     7.470
     6   8 O        0.856    -0.485    23.467     6.495
     7   8 O        1.704    -0.266    18.401     5.792
     8   6 C        3.649     0.009    20.749     6.544
     9   1 H        0.925     0.045     2.379     2.412
    10   1 H        0.925     0.039     2.460     2.453
    11   1 H        0.925     0.041     2.440     2.443
    12   1 H        0.924     0.041     2.437     2.441
    13   1 H        0.924     0.043     2.405     2.425
    14   1 H        0.924     0.043     2.405     2.425
    15   1 H        0.924     0.044     2.402     2.424
    16   1 H        0.925     0.078     2.000     2.211
    17   1 H        0.925     0.080     1.980     2.201
    18   1 H        0.924     0.075     2.035     2.231
    19   1 H        0.924     0.076     2.019     2.222
    20   1 H        0.925     0.103     1.755     2.072

 Mol. C6AA /au·bohr⁶  :       3002.401627
 Mol. C8AA /au·bohr⁸  :      63891.609570
 Mol. α(0) /au        :         81.037999


Wiberg/Mayer (AO) data.
largest (>0.10) Wiberg bond orders for each atom

 ---------------------------------------------------------------------------
     #   Z sym  total        # sym  WBO       # sym  WBO       # sym  WBO
 ---------------------------------------------------------------------------
     1   6 C    3.994 --     2 C    1.018    10 H    0.988    11 H    0.987
                             9 H    0.986
     2   6 C    3.995 --     1 C    1.018     3 C    1.005    12 H    0.978
                            13 H    0.978
     3   6 C    3.991 --     2 C    1.005    15 H    0.978    14 H    0.977
                             4 C    0.975
     4   6 C    3.989 --     5 C    0.980     3 C    0.975    16 H    0.971
                            17 H    0.960
     5   6 C    3.904 --     6 O    1.696     7 O    1.164     4 C    0.980
     6   8 O    1.972 --     5 C    1.696     7 O    0.171
     7   8 O    2.318 --     5 C    1.164     8 C    0.938     6 O    0.171
     8   6 C    3.904 --    20 H    0.977    18 H    0.977    19 H    0.976
                             7 O    0.938
     9   1 H    0.997 --     1 C    0.986
    10   1 H    0.998 --     1 C    0.988
    11   1 H    0.998 --     1 C    0.987
    12   1 H    0.998 --     2 C    0.978
    13   1 H    0.998 --     2 C    0.978
    14   1 H    0.998 --     3 C    0.977
    15   1 H    0.998 --     3 C    0.978
    16   1 H    0.994 --     4 C    0.971
    17   1 H    0.994 --     4 C    0.960
    18   1 H    0.994 --     8 C    0.977
    19   1 H    0.994 --     8 C    0.976
    20   1 H    0.989 --     8 C    0.977
 ---------------------------------------------------------------------------

Topologies differ in total number of bonds
Writing topology from bond orders to xtbtopo.mol

molecular dipole:
                 x           y           z       tot (Debye)
 q only:       -0.171      -0.702       0.855
   full:       -0.126      -0.690       0.859       2.819
molecular quadrupole (traceless):
                xx          xy          yy          xz          yz          zz
 q only:        8.363      -5.750      -3.041       2.409       3.532      -5.322
  q+dip:        5.917      -5.578      -1.390       2.967       3.688      -4.527
   full:        6.792      -5.283      -1.724       3.043       4.428      -5.068

           -------------------------------------------------
          |                Geometry Summary                 |
           -------------------------------------------------

      molecular mass/u    :      116.1585142
   center of mass at/Å    :        0.0027187       0.0250925       0.0088210
  moments of inertia/u·Å² :        0.9456392E+02   0.6406146E+03   0.6644568E+03
rotational constants/cm⁻¹ :        0.1782671E+00   0.2631478E-01   0.2537055E-01

 * 18 selected distances

     #   Z          #   Z                                           value/Å
     1   6 C        2   6 C                                       1.5240720
     2   6 C        3   6 C                                       1.5269472
     3   6 C        4   6 C                                       1.5353825 (max)
     5   6 C        6   8 O                                       1.2135491
     5   6 C        7   8 O                                       1.3280084
     7   8 O        8   6 C                                       1.4303648
     1   6 C        9   1 H                                       1.0867972
     1   6 C       10   1 H                                       1.0875140
     1   6 C       11   1 H                                       1.0874189
     2   6 C       12   1 H                                       1.0914653
     2   6 C       13   1 H                                       1.0914250
     3   6 C       14   1 H                                       1.0923049
     3   6 C       15   1 H                                       1.0920951
     4   6 C       16   1 H                                       1.0888931
     4   6 C       17   1 H                                       1.0901147
     8   6 C       18   1 H                                       1.0906029
     8   6 C       19   1 H                                       1.0904606
     8   6 C       20   1 H                                       1.0852926 (min)

 * 3 distinct bonds (by element types)

   Z      Z             #   av. dist./Å        max./Å        min./Å
   1 H    6 C          12     1.0895320     1.0923049     1.0852926
   6 C    6 C           3     1.5288006     1.5353825     1.5240720
   6 C    8 O           3     1.3239741     1.4303648     1.2135491

           -------------------------------------------------
          |               Frequency Printout                |
           -------------------------------------------------
 projected vibrational frequencies (cm⁻¹)
eigval :       -0.00    -0.00    -0.00     0.00     0.00     0.00
eigval :       20.19    39.13    75.15    97.07   110.05   201.83
eigval :      230.23   253.57   283.01   374.86   412.07   633.41
eigval :      716.67   776.92   827.53   894.54   940.93   949.87
eigval :     1015.06  1059.06  1077.67  1098.78  1112.24  1121.48
eigval :     1137.47  1189.08  1214.80  1241.42  1261.39  1277.43
eigval :     1313.28  1359.60  1373.23  1411.64  1424.09  1437.75
eigval :     1448.77  1485.92  1491.12  1497.29  1501.11  1699.14
eigval :     2965.70  2976.75  2982.74  2988.11  2988.20  2997.66
eigval :     2999.81  3014.47  3029.52  3033.93  3043.26  3056.91
 reduced masses (amu)
   1: 12.62   2: 10.31   3: 10.71   4: 11.41   5: 11.84   6: 11.54   7: 11.36   8:  1.40
   9:  6.59  10:  9.95  11:  8.34  12: 10.93  13:  2.67  14: 10.01  15: 10.71  16:  9.73
  17: 10.12  18: 11.26  19: 12.17  20:  1.87  21:  3.41  22:  9.61  23:  5.94  24:  4.14
  25: 11.24  26:  9.01  27:  7.52  28:  8.36  29:  3.94  30:  7.29  31:  6.37  32:  8.89
  33:  6.36  34:  4.37  35:  3.38  36:  1.81  37:  4.26  38:  5.04  39:  2.58  40:  3.18
  41:  1.51  42:  2.16  43:  1.60  44:  1.98  45:  1.82  46:  1.52  47:  1.60  48: 13.31
  49:  1.93  50:  2.02  51:  1.46  52:  1.49  53:  1.96  54:  1.38  55:  1.67  56:  1.84
  57:  1.95  58:  1.85  59:  1.34  60:  1.80
 IR intensities (km·mol⁻¹)
   1:  1.11   2:  0.23   3:  0.25   4:  1.60   5:  0.29   6:  0.47   7:  3.87   8:  0.17
   9:  0.46  10:  0.07  11:  0.26  12:  6.54  13:  1.15  14: 18.10  15:  3.07  16:  7.19
  17:  8.18  18: 20.40  19: 20.34  20: 10.91  21:  6.76  22: 25.21  23:  3.99  24:  2.51
  25: 11.06  26: 25.57  27: 81.00  28:  3.67  29:  2.33  30: 14.45  31: 35.14  32:250.49
  33:133.87  34: 55.18  35: 31.87  36:  0.42  37: 38.31  38:  1.32  39: 18.78  40:  0.68
  41: 12.80  42:  6.27  43:  2.69  44:  1.02  45:  0.54  46:  1.74  47:  0.74  48:641.03
  49:  2.72  50:113.80  51: 15.03  52: 67.99  53: 15.58  54: 16.98  55: 40.30  56: 35.18
  57: 86.91  58: 77.84  59: 43.09  60:  2.50
 Raman intensities (Ä⁴*amu⁻¹)
   1:  0.00   2:  0.00   3:  0.00   4:  0.00   5:  0.00   6:  0.00   7:  0.00   8:  0.00
   9:  0.00  10:  0.00  11:  0.00  12:  0.00  13:  0.00  14:  0.00  15:  0.00  16:  0.00
  17:  0.00  18:  0.00  19:  0.00  20:  0.00  21:  0.00  22:  0.00  23:  0.00  24:  0.00
  25:  0.00  26:  0.00  27:  0.00  28:  0.00  29:  0.00  30:  0.00  31:  0.00  32:  0.00
  33:  0.00  34:  0.00  35:  0.00  36:  0.00  37:  0.00  38:  0.00  39:  0.00  40:  0.00
  41:  0.00  42:  0.00  43:  0.00  44:  0.00  45:  0.00  46:  0.00  47:  0.00  48:  0.00
  49:  0.00  50:  0.00  51:  0.00  52:  0.00  53:  0.00  54:  0.00  55:  0.00  56:  0.00
  57:  0.00  58:  0.00  59:  0.00  60:  0.00
 output can be read by thermo (or use thermo option).
 writing <g98.out> molden fake output.
 recommended (thermochemical) frequency scaling factor: 1.0
           -------------------------------------------------
          |             Thermodynamic Functions             |
           -------------------------------------------------

Molecule has no symmetry elements
It seems to be the C1 point group
c1  symmetry found (for desy threshold:  0.10E+00) used in thermo

          ...................................................
          :                      SETUP                      :
          :.................................................:
          :  # frequencies                          54      :
          :  # imaginary freq.                       0      :
          :  linear?                             false      :
          :  only rotor calc.                    false      :
          :  symmetry                               c1      :
          :  rotational number                       1      :
          :  scaling factor                  1.0000000      :
          :  rotor cutoff                    0.0000000 cm⁻¹ :
          :  imag. cutoff                 -100.0000000 cm⁻¹ :
          :.................................................:

    mode    ω/cm⁻¹     T·S(HO)/kcal·mol⁻¹    T·S(FR)/kcal·mol⁻¹   T·S(vib)
   ------------------------------------------------------------------------
       1     20.19    -1.97229 (100.00%)    -1.32462 (  0.00%)    -1.97229
       2     39.13    -1.58101 (100.00%)    -1.12891 (  0.00%)    -1.58101
       3     75.15    -1.19668 (100.00%)    -0.93570 (  0.00%)    -1.19668
       4     97.07    -1.04718 (100.00%)    -0.85991 (  0.00%)    -1.04718
       5    110.05    -0.97436 (100.00%)    -0.82274 (  0.00%)    -0.97436
       6    201.83    -0.63099 (100.00%)    -0.64312 (  0.00%)    -0.63099
       7    230.23    -0.55967 (100.00%)    -0.60413 (  0.00%)    -0.55967
       8    253.57    -0.50854 (100.00%)    -0.57553 (  0.00%)    -0.50854
       9    283.01    -0.45182 (100.00%)    -0.54299 (  0.00%)    -0.45182
   ------------------------------------------------------------------------

   temp. (K)  partition function   enthalpy   heat capacity  entropy
                                   cal/mol     cal/K/mol   cal/K/mol   J/K/mol
 298.15  VIB  0.105E+05             4711.958     28.392     34.203
         ROT  0.485E+06              888.752      2.981     28.997
         INT  0.509E+10             5600.710     31.373     63.200
         TR   0.121E+28             1481.254      4.968     40.146
         TOT                        7081.9640    36.3414   103.3461   432.4003

       T/K    H(0)-H(T)+PV         H(T)/Eh          T*S/Eh         G(T)/Eh
   ------------------------------------------------------------------------
    298.15    0.112858E-01    0.182520E+00    0.491031E-01    0.133416E+00
   ------------------------------------------------------------------------

         :::::::::::::::::::::::::::::::::::::::::::::::::::::
         ::                  THERMODYNAMIC                  ::
         :::::::::::::::::::::::::::::::::::::::::::::::::::::
         :: total free energy         -26.986326552125 Eh   ::
         ::.................................................::
         :: total energy              -27.119743037692 Eh   ::
         :: zero point energy           0.171233745930 Eh   ::
         :: G(RRHO) w/o ZPVE           -0.037817260363 Eh   ::
         :: G(RRHO) contrib.            0.133416485567 Eh   ::
         :::::::::::::::::::::::::::::::::::::::::::::::::::::

optimized geometry written to: xtbopt.coord


           -------------------------------------------------
          | TOTAL ENERGY              -27.119743037692 Eh   |
          | TOTAL ENTHALPY            -26.937223463788 Eh   |
          | TOTAL FREE ENERGY         -26.986326552125 Eh   |
          | GRADIENT NORM               0.000028070128 Eh/α |
          | HOMO-LUMO GAP               4.916665503380 eV   |
           -------------------------------------------------

------------------------------------------------------------------------
 * finished run on 2025/04/11 at 16:26:48.723     
------------------------------------------------------------------------
 total:
 * wall-time:     0 d,  0 h,  0 min,  3.356 sec
 *  cpu-time:     0 d,  0 h,  0 min,  3.161 sec
 * ratio c/w:     0.942 speedup
 SCF:
 * wall-time:     0 d,  0 h,  0 min,  0.038 sec
 *  cpu-time:     0 d,  0 h,  0 min,  0.015 sec
 * ratio c/w:     0.395 speedup
 analytical hessian:
 * wall-time:     0 d,  0 h,  0 min,  1.198 sec
 *  cpu-time:     0 d,  0 h,  0 min,  1.187 sec
 * ratio c/w:     0.991 speedup

