! r2scan-3c def2/J RI DEFGRID2 scfconv6 printgap
%output
    printlevel normal
end
%cpcm
    smd true
    smdsolvent "water"
end
* xyz 0 1
C -3.6638383248 -0.4499102832 0.7691770883
C -2.6469283609 -0.2792835706 -0.3531760687
C -1.2464520958 -0.0210111506 0.1977165684
C -0.2196654375 0.149434236 -0.9316712544
C 1.1322993745 0.4181021832 -0.3304190675
O 1.6043335473 1.5186105684 -0.1335542929
O 1.752181327 -0.7076281888 0.0047576525
C 3.0280249151 -0.5975428769 0.640911543
H -3.3933771749 -1.2900813037 1.4043151538
H -3.7052515952 0.4454083474 1.3851175757
H -4.6540513787 -0.6321491806 0.3601517646
H -2.6306586076 -1.179806629 -0.9695265728
H -2.9439177074 0.5563941148 -0.9893646306
H -0.9431695601 -0.8568378466 0.8314352576
H -1.2551715248 0.88281746 0.8112265413
H -0.4975068466 0.994181406 -1.5611471235
H -0.1716292577 -0.763359048 -1.5240028446
H 3.7159484422 -0.0422272644 0.0023476525
H 3.3693833151 -1.6167530477 0.7910396069
H 2.9261270012 -0.0734493087 1.5918388452
*
