      -----------------------------------------------------------      
     |                   =====================                   |     
     |                           x T B                           |     
     |                   =====================                   |     
     |                         S. Grimme                         |     
     |          Mulliken Center for Theoretical Chemistry        |     
     |                    University of Bonn                     |     
      -----------------------------------------------------------      

   * xtb version 6.7.1 (edcfbbe) compiled by 'albert@albert-system' on 2024-07-22

   xtb is free software: you can redistribute it and/or modify it under
   the terms of the GNU Lesser General Public License as published by
   the Free Software Foundation, either version 3 of the License, or
   (at your option) any later version.
   
   xtb is distributed in the hope that it will be useful,
   but WITHOUT ANY WARRANTY; without even the implied warranty of
   MERCHANTABILITY or FITNESS FOR A PARTICULAR PURPOSE.  See the
   GNU Lesser General Public License for more details.
   
   Cite this work as:
   * C. Bannwarth, E. Caldeweyher, S. Ehlert, A. Hansen, P. Pracht,
     J. Seibert, S. Spicher, S. Grimme, WIREs Comput. Mol. Sci., 2020, 11,
     e01493. DOI: 10.1002/wcms.1493
   
   for GFN2-xTB:
   * C. Bannwarth, S. Ehlert and S. Grimme., J. Chem. Theory Comput., 2019,
     15, 1652-1671. DOI: 10.1021/acs.jctc.8b01176
   for GFN1-xTB:
   * S. Grimme, C. Bannwarth, P. Shushkov, J. Chem. Theory Comput., 2017,
     13, 1989-2009. DOI: 10.1021/acs.jctc.7b00118
   for GFN0-xTB:
   * P. Pracht, E. Caldeweyher, S. Ehlert, S. Grimme, ChemRxiv, 2019, preprint.
     DOI: 10.26434/chemrxiv.8326202.v1
   for GFN-FF:
   * S. Spicher and S. Grimme, Angew. Chem. Int. Ed., 2020, 59, 15665-15673.
     DOI: 10.1002/anie.202004239
   
   for ALPB and GBSA implicit solvation:
   * S. Ehlert, M. Stahn, S. Spicher, S. Grimme, J. Chem. Theory Comput.,
     2021, 17, 4250-4261. DOI: 10.1021/acs.jctc.1c00471
   
   for ddCOSMO and CPCM-X implicit solvation:
   * M. Stahn, S. Ehlert, S. Grimme, J. Phys. Chem. A,
     2023, XX, XXXX-XXXX. DOI: 10.1021/acs.jpca.3c04382
   
   for DFT-D4:
   * E. Caldeweyher, C. Bannwarth and S. Grimme, J. Chem. Phys., 2017,
     147, 034112. DOI: 10.1063/1.4993215
   * E. Caldeweyher, S. Ehlert, A. Hansen, H. Neugebauer, S. Spicher,
     C. Bannwarth and S. Grimme, J. Chem. Phys., 2019, 150, 154122.
     DOI: 10.1063/1.5090222
   * E. Caldeweyher, J.-M. Mewes, S. Ehlert and S. Grimme, Phys. Chem. Chem. Phys.
     2020, 22, 8499-8512. DOI: 10.1039/D0CP00502A
   
   for sTDA-xTB:
   * S. Grimme and C. Bannwarth, J. Chem. Phys., 2016, 145, 054103.
     DOI: 10.1063/1.4959605
   
   in the mass-spec context:
   * V. Asgeirsson, C. Bauer and S. Grimme, Chem. Sci., 2017, 8, 4879.
     DOI: 10.1039/c7sc00601b
   * J. Koopman and S. Grimme, ACS Omega 2019, 4, 12, 15120-15133.
     DOI: 10.1021/acsomega.9b02011
   
   for metadynamics refer to:
   * S. Grimme, J. Chem. Theory Comput., 2019, 155, 2847-2862
     DOI: 10.1021/acs.jctc.9b00143
   
   for SPH calculations refer to:
   * S. Spicher and S. Grimme, J. Chem. Theory Comput., 2021, 17, 1701-1714
     DOI: 10.1021/acs.jctc.0c01306
   
   for ONIOM refer to:
   * C. Plett, A. Katbashev, S. Ehlert, S. Grimme, M. Bursch,
     Phys. Chem. Chem. Phys., 2023, 25, 17860-17868. DOI: 10.1039/D3CP02178E
   
   for DIPRO refer to:
   * J. Kohn, N. Gildemeister, S. Grimme, D. Fazzi, A. Hansen,
     J. Chem. Phys., 2023, just accepted.
   
   for PTB refer to:
   * S. Grimme, M. Mueller, A. Hansen, J. Chem. Phys., 2023, 158, 124111.
     DOI: 10.1063/5.0137838
   
   with help from (in alphabetical order)
   P. Atkinson, C. Bannwarth, F. Bohle, G. Brandenburg, E. Caldeweyher
   M. Checinski, S. Dohm, S. Ehlert, S. Ehrlich, I. Gerasimov, C. Hölzer
   A. Katbashev, J. Kohn, J. Koopman, C. Lavigne, S. Lehtola, F. März, M. Müller,
   F. Musil, H. Neugebauer, J. Pisarek, C. Plett, P. Pracht, F. Pultar,
   J. Seibert, P. Shushkov, S. Spicher, M. Stahn, M. Steiner, T. Strunk,
   J. Stückrath, T. Rose, and J. Unsleber
   
 * started run on 2025/04/11 at 14:24:03.635     
   ID    Z sym.   atoms
    1    6 C      1-3, 5
    2   17 Cl     4, 6
    3    1 H      7-14

           -------------------------------------------------
          |                Calculation Setup                |
           -------------------------------------------------

          program call               : /software/projects/pawsey0265/mwang1/xtb/bin/xtb solv.coord --gfn2 --sp --chrg 0 --norestart --parallel 1 --alpb water reference -I xtb_sp-xcontrol-inp
          hostname                   : nid002029
          coordinate file            : solv.coord
          omp threads                :                     1


           -------------------------------------------------
          |                 G F N 2 - x T B                 |
           -------------------------------------------------

        Reference                      10.1021/acs.jctc.8b01176
      * Hamiltonian:
        H0-scaling (s, p, d)           1.850000    2.230000    2.230000
        zeta-weighting                 0.500000
      * Dispersion:
        s8                             2.700000
        a1                             0.520000
        a2                             5.000000
        s9                             5.000000
      * Repulsion:
        kExp                           1.500000    1.000000
        rExp                           1.000000
      * Coulomb:
        alpha                          2.000000
        third order                    shell-resolved
        anisotropic                    true
        a3                             3.000000
        a5                             4.000000
        cn-shift                       1.200000
        cn-exp                         4.000000
        max-rad                        5.000000

      * Solvation model:               ALPB
        Solvent                        water
        Parameter file                 internal GFN2-xTB/ALPB
        Dielectric constant                8.0200E+01
        Reference state                gsolv=reference [X=1]
        Free energy shift                  2.8945E-03 Eh       1.8164E+00 kcal/mol
        Temperature                        2.9815E+02 K
        Density                            1.0000E+00 kg/L
        Solvent mass                       1.8000E+01 g/mol
        Interaction kernel             P16
        Born radius scaling (c1)           1.4744E+00
        Born radii integrator          GBOBC
        Born offset                        0.0000E+00 a0       0.0000E+00 AA
        H-bond correction              true
        Ion screening                  false
        Surface tension                    1.0000E-05 Eh       1.5569E+01 dyn/cm
        Grid points                               974 per atom

          ...................................................
          :                      SETUP                      :
          :.................................................:
          :  # basis functions                  44          :
          :  # atomic orbitals                  42          :
          :  # shells                           22          :
          :  # electrons                        38          :
          :  max. iterations                   250          :
          :  Hamiltonian                  GFN2-xTB          :
          :  restarted?                      false          :
          :  GBSA solvation                   true          :
          :  PC potential                    false          :
          :  electronic temp.          300.0000000     K    :
          :  accuracy                    1.0000000          :
          :  -> integral cutoff          0.2500000E+02      :
          :  -> integral neglect         0.1000000E-07      :
          :  -> SCF convergence          0.1000000E-05 Eh   :
          :  -> wf. convergence          0.1000000E-03 e    :
          :  Broyden damping             0.4000000          :
          :  net charge                          0          :
          :  unpaired electrons                  0          :
          ...................................................

 iter      E             dE          RMSdq      gap      omega  full diag
   1    -21.8814816 -0.218815E+02  0.427E+00    7.18       0.0  T
   2    -21.9335960 -0.521144E-01  0.243E+00    6.79       1.0  T
   3    -21.9344358 -0.839771E-03  0.111E+00    6.86       1.0  T
   4    -21.9347933 -0.357466E-03  0.113E-01    6.82       1.0  T
   5    -21.9348413 -0.480042E-04  0.568E-02    6.83       1.0  T
   6    -21.9348419 -0.633961E-06  0.462E-03    6.83       5.8  T
   7    -21.9348419 -0.440583E-07  0.292E-03    6.83       9.2  T
   8    -21.9348420 -0.360043E-07  0.196E-03    6.83      13.6  T
   9    -21.9348420 -0.305349E-07  0.444E-04    6.83      60.2  T
  10    -21.9348420 -0.526903E-09  0.119E-04    6.83     223.7  T

   *** convergence criteria satisfied after 10 iterations ***

         #    Occupation            Energy/Eh            Energy/eV
      -------------------------------------------------------------
         1        2.0000           -1.0568341             -28.7579
       ...           ...                  ...                  ...
        13        2.0000           -0.4584867             -12.4761
        14        2.0000           -0.4531170             -12.3299
        15        2.0000           -0.4463150             -12.1448
        16        2.0000           -0.4180316             -11.3752
        17        2.0000           -0.4176684             -11.3653
        18        2.0000           -0.4155033             -11.3064
        19        2.0000           -0.4130069             -11.2385 (HOMO)
        20                         -0.1621924              -4.4135 (LUMO)
        21                         -0.1583633              -4.3093
        22                          0.0135330               0.3683
        23                          0.0140794               0.3831
        24                          0.0190263               0.5177
       ...                                ...                  ...
        42                          0.2945042               8.0139
      -------------------------------------------------------------
                  HL-Gap            0.2508145 Eh            6.8250 eV
             Fermi-level           -0.2875997 Eh           -7.8260 eV

 SCC (total)                   0 d,  0 h,  0 min,  0.039 sec
 SCC setup                      ...        0 min,  0.001 sec (  2.823%)
 Dispersion                     ...        0 min,  0.000 sec (  0.225%)
 classical contributions        ...        0 min,  0.000 sec (  0.082%)
 integral evaluation            ...        0 min,  0.031 sec ( 79.688%)
 iterations                     ...        0 min,  0.004 sec (  9.098%)
 molecular gradient             ...        0 min,  0.003 sec (  7.686%)
 printout                       ...        0 min,  0.000 sec (  0.337%)

         :::::::::::::::::::::::::::::::::::::::::::::::::::::
         ::                     SUMMARY                     ::
         :::::::::::::::::::::::::::::::::::::::::::::::::::::
         :: total energy             -21.751131427461 Eh    ::
         :: total w/o Gsasa/hb       -21.751942163115 Eh    ::
         :: gradient norm              0.000233645607 Eh/a0 ::
         :: HOMO-LUMO gap              6.825010232470 eV    ::
         ::.................................................::
         :: SCC energy               -21.934838534638 Eh    ::
         :: -> isotropic ES            0.018719581212 Eh    ::
         :: -> anisotropic ES         -0.002152791444 Eh    ::
         :: -> anisotropic XC          0.010243423437 Eh    ::
         :: -> dispersion             -0.008651756687 Eh    ::
         :: -> Gsolv                  -0.006326099836 Eh    ::
         ::    -> Gelec               -0.007136835489 Eh    ::
         ::    -> Gsasa               -0.000702272913 Eh    ::
         ::    -> Ghb                 -0.001381540593 Eh    ::
         ::    -> Gshift               0.002894549160 Eh    ::
         :: repulsion energy           0.183707107177 Eh    ::
         :: add. restraining           0.000000000000 Eh    ::
         :: total charge               0.000000000000 e     ::
         :::::::::::::::::::::::::::::::::::::::::::::::::::::

           -------------------------------------------------
          |                Property Printout                |
           -------------------------------------------------

    * Orbital Energies and Occupations

         #    Occupation            Energy/Eh            Energy/eV
      -------------------------------------------------------------
         1        2.0000           -1.0568341             -28.7579
       ...           ...                  ...                  ...
         7        2.0000           -0.5338662             -14.5272
         8        2.0000           -0.5303465             -14.4315
         9        2.0000           -0.5194727             -14.1356
        10        2.0000           -0.5038943             -13.7117
        11        2.0000           -0.4972686             -13.5314
        12        2.0000           -0.4854354             -13.2094
        13        2.0000           -0.4584867             -12.4761
        14        2.0000           -0.4531170             -12.3299
        15        2.0000           -0.4463150             -12.1448
        16        2.0000           -0.4180316             -11.3752
        17        2.0000           -0.4176684             -11.3653
        18        2.0000           -0.4155033             -11.3064
        19        2.0000           -0.4130069             -11.2385 (HOMO)
        20                         -0.1621924              -4.4135 (LUMO)
        21                         -0.1583633              -4.3093
        22                          0.0135330               0.3683
        23                          0.0140794               0.3831
        24                          0.0190263               0.5177
        25                          0.0200813               0.5464
        26                          0.0235557               0.6410
        27                          0.0239569               0.6519
        28                          0.0240375               0.6541
        29                          0.0240960               0.6557
        30                          0.0741942               2.0189
       ...                                ...                  ...
        42                          0.2945042               8.0139
      -------------------------------------------------------------
                  HL-Gap            0.2508145 Eh            6.8250 eV
             Fermi-level           -0.2875997 Eh           -7.8260 eV

     #   Z          covCN         q      C6AA      α(0)
     1   6 C        3.829    -0.074    21.897     6.658
     2   6 C        3.829    -0.074    21.897     6.658
     3   6 C        3.713     0.022    20.333     6.443
     4  17 Cl       0.914    -0.262   107.456    15.859
     5   6 C        3.713     0.022    20.333     6.443
     6  17 Cl       0.914    -0.262   107.456    15.859
     7   1 H        0.924     0.067     2.114     2.274
     8   1 H        0.924     0.074     2.037     2.232
     9   1 H        0.924     0.067     2.114     2.274
    10   1 H        0.924     0.074     2.037     2.232
    11   1 H        0.925     0.084     1.941     2.179
    12   1 H        0.925     0.088     1.894     2.152
    13   1 H        0.925     0.084     1.941     2.179
    14   1 H        0.925     0.088     1.894     2.152

 Mol. C6AA /au·bohr⁶  :       2536.138369
 Mol. C8AA /au·bohr⁸  :      73874.533715
 Mol. α(0) /au        :         75.593099


Wiberg/Mayer (AO) data.
largest (>0.10) Wiberg bond orders for each atom

 ---------------------------------------------------------------------------
     #   Z sym  total        # sym  WBO       # sym  WBO       # sym  WBO
 ---------------------------------------------------------------------------
     1   6 C    3.989 --     5 C    1.017     2 C    0.994     7 H    0.973
                             8 H    0.972
     2   6 C    3.989 --     3 C    1.017     1 C    0.994     9 H    0.973
                            10 H    0.972
     3   6 C    3.909 --     2 C    1.017    11 H    0.976    12 H    0.976
                             4 Cl   0.922
     4  17 Cl   0.963 --     3 C    0.922
     5   6 C    3.909 --     1 C    1.017    13 H    0.976    14 H    0.975
                             6 Cl   0.922
     6  17 Cl   0.963 --     5 C    0.922
     7   1 H    0.995 --     1 C    0.973
     8   1 H    0.994 --     1 C    0.972
     9   1 H    0.995 --     2 C    0.973
    10   1 H    0.994 --     2 C    0.972
    11   1 H    0.993 --     3 C    0.976
    12   1 H    0.992 --     3 C    0.976
    13   1 H    0.993 --     5 C    0.976
    14   1 H    0.992 --     5 C    0.975
 ---------------------------------------------------------------------------

Topologies differ in total number of bonds
Writing topology from bond orders to xtbtopo.mol

molecular dipole:
                 x           y           z       tot (Debye)
 q only:       -0.000       0.121       0.000
   full:       -0.000       0.047       0.000       0.120
molecular quadrupole (traceless):
                xx          xy          yy          xz          yz          zz
 q only:      -18.109      -0.004       9.711      -4.977      -0.001       8.398
  q+dip:      -17.482      -0.005       8.954      -5.354       0.000       8.528
   full:      -15.458      -0.004       8.002      -4.304      -0.000       7.456


           -------------------------------------------------
          | TOTAL ENERGY              -21.751131427461 Eh   |
          | GRADIENT NORM               0.000233645607 Eh/α |
          | HOMO-LUMO GAP               6.825010232470 eV   |
           -------------------------------------------------

------------------------------------------------------------------------
 * finished run on 2025/04/11 at 14:24:03.705     
------------------------------------------------------------------------
 total:
 * wall-time:     0 d,  0 h,  0 min,  0.069 sec
 *  cpu-time:     0 d,  0 h,  0 min,  0.031 sec
 * ratio c/w:     0.454 speedup
 SCF:
 * wall-time:     0 d,  0 h,  0 min,  0.039 sec
 *  cpu-time:     0 d,  0 h,  0 min,  0.020 sec
 * ratio c/w:     0.517 speedup

