 Entering Gaussian System
 *********************************************
 Gaussian 98:
 frequency output generated by the xtb code
 *********************************************
                         Standard orientation:
 --------------------------------------------------------------------
  Center     Atomic     Atomic              Coordinates (Angstroms)
  Number     Number      Type              X           Y           Z
 --------------------------------------------------------------------
    1          6             0        2.584418   -1.313856    0.225934
    2          6             0        2.318003    0.008317   -0.483112
    3          6             0        1.311602    0.903896    0.260931
    4          6             0       -0.052317    0.325665    0.265185
    5          6             0       -1.130866    0.891433   -0.293621
    6          6             0       -2.430140    0.251066   -0.258238
    7          8             0       -2.682295   -0.820862    0.262668
    8          1             0        2.918409   -1.140777    1.246370
    9          1             0        1.691844   -1.933147    0.254293
   10          1             0        3.359904   -1.867221   -0.298115
   11          1             0        1.945907   -0.183857   -1.491086
   12          1             0        3.255323    0.559809   -0.572015
   13          1             0        1.294205    1.889998   -0.204816
   14          1             0        1.648320    1.009720    1.295163
   15          1             0       -0.182414   -0.634237    0.748899
   16          1             0       -1.072620    1.847311   -0.791767
   17          1             0       -3.237655    0.814752   -0.760276
 --------------------------------------------------------------------
     1 basis functions        1 primitive gaussians
     1 alpha electrons        1 beta electrons
 
 Harmonic frequencies (cm**-1), IR intensities (km*mol⁻¹),
 Raman scattering activities (A**4/amu), Raman depolarization ratios,
 reduced masses (AMU), force constants (mDyne/A) and normal coordinates:
                      1                      2                      3
                        a                      a                      a 
 Frequencies --    32.0000                77.3268                96.6175
 Red. masses --     9.0287                 9.1901                 8.7941
 Frc consts  --     0.0000                 0.0000                 0.0000
 IR Inten    --     4.6954                 3.8588                 1.6298
 Raman Activ --     0.0000                 0.0000                 0.0000
 Depolar     --     0.0000                 0.0000                 0.0000
 Atom AN      X      Y      Z        X      Y      Z        X      Y      Z
   1   6     0.29   0.08   0.27     0.49   0.14  -0.04    -0.11   0.00   0.08
   2   6     0.06  -0.14  -0.05    -0.11  -0.01  -0.10    -0.36  -0.19  -0.19
   3   6    -0.03  -0.11  -0.23    -0.04  -0.17   0.20     0.06   0.09   0.07
   4   6    -0.03  -0.11  -0.26    -0.05  -0.15   0.14    -0.00   0.25   0.30
   5   6    -0.15   0.18   0.27     0.06  -0.14  -0.06     0.04   0.11   0.08
   6   6    -0.15   0.19   0.25    -0.03   0.04  -0.19     0.11  -0.03  -0.02
   7   8    -0.04  -0.10  -0.30    -0.37   0.26   0.08     0.30  -0.20  -0.29
   8   1     0.12   0.11   0.05     0.32   0.10  -0.08     0.18   0.09  -0.06
   9   1     0.11  -0.00   0.16     0.16   0.02   0.19    -0.06   0.05   0.26
  10   1     0.08   0.01   0.09     0.06   0.04  -0.13    -0.17  -0.09  -0.08
  11   1     0.01  -0.13   0.00    -0.13  -0.06   0.02    -0.26  -0.13   0.02
  12   1    -0.01  -0.01  -0.07    -0.08   0.06  -0.15    -0.11  -0.08  -0.24
  13   1    -0.01  -0.04  -0.08    -0.02  -0.02   0.11     0.03   0.02   0.00
  14   1    -0.04  -0.00  -0.06     0.01  -0.11   0.05     0.10   0.02  -0.01
  15   1     0.02  -0.10  -0.21    -0.04  -0.03   0.06    -0.02   0.10   0.15
  16   1    -0.07   0.13   0.21     0.07  -0.06  -0.04     0.01   0.01  -0.02
  17   1    -0.08   0.14   0.22     0.05   0.00  -0.16     0.01  -0.01   0.02
                      4                      5                      6
                        a                      a                      a 
 Frequencies --   179.8410               214.3563               241.3366
 Red. masses --     9.3322                 7.0719                 4.4562
 Frc consts  --     0.0000                 0.0000                 0.0000
 IR Inten    --     7.5154                 7.3299                 0.9278
 Raman Activ --     0.0000                 0.0000                 0.0000
 Depolar     --     0.0000                 0.0000                 0.0000
 Atom AN      X      Y      Z        X      Y      Z        X      Y      Z
   1   6     0.04  -0.07  -0.01     0.05  -0.02  -0.04    -0.17  -0.01  -0.00
   2   6    -0.06  -0.04   0.10     0.03   0.06   0.13     0.23   0.12   0.09
   3   6    -0.10  -0.13   0.16    -0.07  -0.07   0.14     0.09   0.12  -0.11
   4   6    -0.15   0.04  -0.35    -0.10  -0.00  -0.11     0.14  -0.05  -0.07
   5   6    -0.17   0.31  -0.04     0.03  -0.14  -0.51     0.01  -0.08   0.15
   6   6     0.03  -0.09  -0.19    -0.11   0.19   0.31    -0.01  -0.09  -0.02
   7   8     0.41   0.06   0.31     0.19  -0.05  -0.05    -0.27  -0.04  -0.02
   8   1     0.16  -0.03  -0.05     0.19  -0.04  -0.06     0.35  -0.05  -0.12
   9   1    -0.01   0.02   0.13    -0.03   0.07   0.12    -0.21   0.24   0.34
  10   1    -0.09  -0.06  -0.11    -0.11  -0.06  -0.14    -0.39  -0.24  -0.25
  11   1    -0.02   0.00   0.03     0.03   0.05   0.02     0.13   0.08  -0.01
  12   1    -0.02   0.00   0.03     0.00   0.03   0.08     0.10  -0.00   0.11
  13   1     0.04   0.01   0.15     0.01  -0.00   0.08     0.00   0.02  -0.07
  14   1    -0.10  -0.16   0.08    -0.07  -0.07   0.06    -0.00   0.09  -0.03
  15   1    -0.07  -0.07  -0.27    -0.09   0.07   0.09     0.08  -0.03  -0.05
  16   1    -0.10   0.15   0.11     0.03  -0.10  -0.25    -0.02  -0.00   0.08
  17   1    -0.02  -0.18  -0.18    -0.14   0.20   0.43     0.04  -0.02  -0.07
                      7                      8                      9
                        a                      a                      a 
 Frequencies --   306.1154               377.6144               445.5222
 Red. masses --     8.6820                 9.7069                 7.3672
 Frc consts  --     0.0000                 0.0000                 0.0000
 IR Inten    --     0.6664                 4.3928                 2.4771
 Raman Activ --     0.0000                 0.0000                 0.0000
 Depolar     --     0.0000                 0.0000                 0.0000
 Atom AN      X      Y      Z        X      Y      Z        X      Y      Z
   1   6    -0.35   0.30   0.14    -0.02   0.06  -0.02     0.08  -0.20  -0.07
   2   6    -0.17   0.13  -0.21     0.04   0.08   0.02    -0.35  -0.03   0.32
   3   6     0.01  -0.07   0.14    -0.34  -0.19  -0.25    -0.16   0.39  -0.00
   4   6     0.17  -0.39  -0.20    -0.22  -0.36   0.28     0.15  -0.15  -0.14
   5   6     0.23  -0.17  -0.03     0.06   0.02   0.14     0.14  -0.13  -0.03
   6   6     0.15   0.06   0.03     0.07   0.17  -0.09     0.11   0.03  -0.01
   7   8     0.06   0.09   0.04     0.39   0.16  -0.03     0.03   0.07   0.02
   8   1    -0.15   0.18   0.04     0.05   0.01  -0.02     0.09  -0.15  -0.03
   9   1    -0.12   0.11   0.06    -0.03   0.06   0.04     0.10  -0.17  -0.03
  10   1    -0.09   0.01   0.14    -0.06  -0.02  -0.04     0.04   0.10  -0.16
  11   1    -0.12   0.01  -0.03     0.13   0.04  -0.04    -0.18  -0.03   0.12
  12   1    -0.04   0.01  -0.14    -0.01   0.08   0.13    -0.09  -0.04  -0.02
  13   1    -0.05   0.04   0.17    -0.23  -0.12  -0.21    -0.09   0.02  -0.19
  14   1     0.01  -0.14   0.05    -0.06   0.14  -0.10    -0.08   0.33  -0.01
  15   1     0.07  -0.18  -0.18    -0.12  -0.05   0.16     0.15  -0.12  -0.18
  16   1     0.09   0.01   0.11     0.15  -0.03  -0.00     0.03   0.03   0.12
  17   1     0.04   0.08   0.08     0.02  -0.01  -0.08     0.03   0.07   0.07
                     10                     11                     12
                        a                      a                      a 
 Frequencies --   701.2827               754.7124               796.8218
 Red. masses --    10.9806                 5.6222                 3.2794
 Frc consts  --     0.0000                 0.0000                 0.0000
 IR Inten    --    58.0329                 4.9556                31.9905
 Raman Activ --     0.0000                 0.0000                 0.0000
 Depolar     --     0.0000                 0.0000                 0.0000
 Atom AN      X      Y      Z        X      Y      Z        X      Y      Z
   1   6    -0.02   0.04  -0.01     0.01  -0.01  -0.01     0.07   0.06  -0.02
   2   6    -0.13   0.01   0.05     0.04  -0.06  -0.11     0.28   0.08   0.07
   3   6    -0.21  -0.16  -0.08    -0.03  -0.06   0.02     0.08  -0.09   0.15
   4   6    -0.04   0.06  -0.11    -0.14   0.20   0.40    -0.11  -0.08   0.01
   5   6     0.22   0.37  -0.07     0.09  -0.07  -0.35     0.02   0.15  -0.10
   6   6     0.57  -0.17   0.27     0.10  -0.11  -0.11     0.02  -0.05   0.01
   7   8    -0.33  -0.16  -0.01    -0.07   0.00   0.07    -0.07  -0.05   0.02
   8   1     0.02   0.02  -0.01    -0.01   0.08  -0.01    -0.10  -0.22   0.07
   9   1     0.02  -0.03   0.02     0.00  -0.00   0.05    -0.17   0.27  -0.22
  10   1     0.01   0.05  -0.03     0.01  -0.04   0.05    -0.08  -0.14   0.01
  11   1     0.05   0.03  -0.02     0.13   0.05  -0.08    -0.30  -0.20   0.19
  12   1    -0.05   0.04   0.11     0.01   0.02   0.13    -0.00   0.07  -0.46
  13   1    -0.06  -0.05  -0.03    -0.05  -0.05  -0.07    -0.10  -0.13  -0.19
  14   1    -0.08  -0.04  -0.02     0.15   0.08  -0.06    -0.02   0.28   0.02
  15   1    -0.17   0.07   0.03    -0.00  -0.18  -0.35    -0.17  -0.03  -0.04
  16   1    -0.00   0.04  -0.14    -0.12   0.26   0.43    -0.03   0.07   0.02
  17   1     0.22  -0.01  -0.00    -0.04   0.11   0.23    -0.01  -0.01   0.03
                     13                     14                     15
                        a                      a                      a 
 Frequencies --   886.6498               923.0763               928.2335
 Red. masses --     4.7187                 7.7026                 6.3925
 Frc consts  --     0.0000                 0.0000                 0.0000
 IR Inten    --    30.6840                 1.2974                 5.4418
 Raman Activ --     0.0000                 0.0000                 0.0000
 Depolar     --     0.0000                 0.0000                 0.0000
 Atom AN      X      Y      Z        X      Y      Z        X      Y      Z
   1   6    -0.09   0.10  -0.17    -0.14   0.38   0.00    -0.02   0.07   0.01
   2   6    -0.09  -0.08   0.04    -0.18  -0.03   0.32    -0.04  -0.01   0.06
   3   6     0.29  -0.18   0.29     0.22  -0.38  -0.21     0.02  -0.06  -0.05
   4   6     0.04  -0.09  -0.12     0.09   0.13   0.05     0.04  -0.02  -0.10
   5   6     0.01   0.15   0.01     0.03  -0.10  -0.07    -0.06   0.11   0.25
   6   6    -0.15  -0.02  -0.03    -0.11   0.06   0.06     0.12  -0.27  -0.51
   7   8    -0.01  -0.04   0.02     0.03  -0.01  -0.02    -0.03   0.08   0.14
   8   1    -0.01   0.35  -0.10     0.06  -0.18   0.01     0.02  -0.06   0.01
   9   1     0.07  -0.10   0.16     0.01   0.02  -0.14    -0.00   0.01  -0.04
  10   1     0.07   0.04   0.08    -0.06   0.33  -0.27    -0.02   0.07  -0.06
  11   1    -0.04   0.28  -0.04     0.00  -0.14   0.09     0.02  -0.05   0.01
  12   1     0.05  -0.12   0.16    -0.08   0.04   0.06    -0.02   0.02   0.01
  13   1     0.01  -0.23  -0.31     0.18  -0.12  -0.10     0.04  -0.01  -0.01
  14   1     0.07   0.40   0.03     0.08  -0.10  -0.06     0.02  -0.05  -0.01
  15   1    -0.13   0.01  -0.00     0.05   0.01  -0.03    -0.02   0.11   0.19
  16   1     0.01  -0.01  -0.11    -0.03   0.05   0.12     0.01  -0.03  -0.04
  17   1    -0.07  -0.04   0.00    -0.00  -0.05  -0.10    -0.14   0.31   0.57
                     16                     17                     18
                        a                      a                      a 
 Frequencies --   995.3488              1012.5811              1058.9229
 Red. masses --     2.7491                 5.3685                 5.5515
 Frc consts  --     0.0000                 0.0000                 0.0000
 IR Inten    --    21.5032                24.3753                26.0174
 Raman Activ --     0.0000                 0.0000                 0.0000
 Depolar     --     0.0000                 0.0000                 0.0000
 Atom AN      X      Y      Z        X      Y      Z        X      Y      Z
   1   6     0.06  -0.01  -0.11     0.12   0.05  -0.15     0.23  -0.10   0.05
   2   6    -0.01  -0.04   0.05    -0.06  -0.10   0.09    -0.31   0.06  -0.04
   3   6    -0.10  -0.07   0.01    -0.14  -0.19   0.02    -0.04  -0.05   0.04
   4   6     0.08   0.05  -0.19     0.07   0.30   0.04     0.21   0.01  -0.09
   5   6    -0.04  -0.23  -0.08    -0.17  -0.24   0.19     0.23   0.17  -0.04
   6   6     0.10   0.03   0.03     0.17   0.03   0.00    -0.28  -0.01  -0.04
   7   8     0.03   0.07  -0.02     0.07   0.12  -0.05    -0.04  -0.12   0.05
   8   1    -0.06   0.14  -0.03    -0.11   0.12  -0.01    -0.09  -0.11   0.07
   9   1    -0.04   0.08   0.02    -0.11   0.21  -0.04    -0.13   0.23  -0.09
  10   1     0.02  -0.13   0.12    -0.02  -0.23   0.15    -0.05  -0.27   0.12
  11   1    -0.08   0.09   0.02    -0.04   0.05   0.02     0.13   0.00  -0.08
  12   1    -0.03   0.03  -0.01    -0.13   0.16   0.05    -0.25   0.34   0.19
  13   1     0.12  -0.05  -0.07     0.13  -0.10  -0.12    -0.01  -0.04  -0.05
  14   1    -0.26  -0.00   0.08    -0.18   0.04   0.04     0.24   0.00  -0.07
  15   1     0.01   0.29   0.49     0.22  -0.11  -0.31     0.08   0.05   0.07
  16   1    -0.19   0.22   0.50    -0.12  -0.23  -0.28     0.24   0.07   0.05
  17   1     0.07   0.02  -0.05     0.10   0.11   0.02    -0.13  -0.09  -0.02
                     19                     20                     21
                        a                      a                      a 
 Frequencies --  1076.2581              1109.0172              1155.5957
 Red. masses --     4.8195                 8.5985                 7.6137
 Frc consts  --     0.0000                 0.0000                 0.0000
 IR Inten    --    17.0884                 5.7326                 5.1267
 Raman Activ --     0.0000                 0.0000                 0.0000
 Depolar     --     0.0000                 0.0000                 0.0000
 Atom AN      X      Y      Z        X      Y      Z        X      Y      Z
   1   6    -0.03   0.03  -0.16     0.03   0.37  -0.20     0.15  -0.00  -0.16
   2   6     0.09  -0.04   0.19     0.09  -0.57   0.02    -0.20   0.03   0.30
   3   6    -0.07  -0.01  -0.23    -0.17   0.29   0.23     0.32   0.21  -0.26
   4   6    -0.04   0.02   0.18    -0.05  -0.09  -0.05    -0.28  -0.29   0.07
   5   6     0.23   0.21  -0.06    -0.00   0.04  -0.01    -0.13  -0.00  -0.03
   6   6    -0.19  -0.05  -0.06     0.01   0.01   0.03     0.14  -0.01   0.04
   7   8    -0.07  -0.14   0.07    -0.01  -0.02   0.00     0.00   0.04  -0.02
   8   1    -0.04   0.20  -0.06    -0.04   0.05  -0.03    -0.10   0.13  -0.01
   9   1     0.00   0.00   0.06    -0.07   0.21  -0.14    -0.08   0.16   0.00
  10   1     0.03  -0.05   0.08    -0.04   0.02  -0.05     0.01  -0.19   0.14
  11   1    -0.17   0.07   0.10     0.26  -0.32  -0.05    -0.07   0.07   0.07
  12   1     0.07  -0.11  -0.10     0.03  -0.14   0.14    -0.02  -0.04   0.05
  13   1     0.22   0.05   0.05     0.04   0.06   0.03     0.26   0.12   0.08
  14   1    -0.42  -0.12   0.09     0.04   0.05   0.03     0.25  -0.16  -0.10
  15   1     0.22  -0.07  -0.05     0.02   0.00   0.05    -0.24  -0.07  -0.01
  16   1     0.45   0.06   0.02     0.09   0.01   0.01    -0.10  -0.00  -0.01
  17   1    -0.13  -0.06   0.06    -0.00  -0.02  -0.02     0.05   0.01   0.00
                     22                     23                     24
                        a                      a                      a 
 Frequencies --  1198.6816              1233.3968              1264.4493
 Red. masses --     5.2780                 3.9626                 2.2412
 Frc consts  --     0.0000                 0.0000                 0.0000
 IR Inten    --     1.4417                24.2099                 4.9074
 Raman Activ --     0.0000                 0.0000                 0.0000
 Depolar     --     0.0000                 0.0000                 0.0000
 Atom AN      X      Y      Z        X      Y      Z        X      Y      Z
   1   6    -0.06  -0.02  -0.25     0.17   0.08   0.11    -0.17  -0.13  -0.07
   2   6     0.10  -0.03   0.32    -0.18  -0.12  -0.13     0.07   0.07  -0.03
   3   6    -0.16  -0.07  -0.12     0.13   0.06  -0.11     0.10   0.12   0.02
   4   6     0.30   0.13  -0.01     0.18   0.03   0.11     0.02   0.01   0.02
   5   6     0.17  -0.00   0.04     0.22  -0.05   0.07     0.08  -0.10   0.07
   6   6    -0.16   0.02  -0.05    -0.14   0.00  -0.05    -0.05   0.00  -0.01
   7   8     0.01  -0.01   0.01     0.02  -0.01   0.01     0.01  -0.01   0.01
   8   1    -0.05   0.27  -0.09    -0.02  -0.17   0.08     0.03   0.14  -0.07
   9   1     0.00  -0.02   0.11    -0.06   0.16  -0.13     0.05  -0.16   0.13
  10   1     0.07  -0.04   0.11    -0.05  -0.03  -0.05     0.06   0.07   0.02
  11   1    -0.06  -0.18   0.15     0.00   0.20  -0.09     0.22  -0.39  -0.00
  12   1     0.02  -0.03  -0.08     0.08  -0.21   0.13    -0.24   0.45  -0.05
  13   1    -0.49   0.07   0.17    -0.12   0.06   0.07     0.26   0.01  -0.05
  14   1     0.21  -0.13  -0.10    -0.45   0.02   0.13    -0.23   0.06   0.09
  15   1    -0.18   0.05  -0.04    -0.47  -0.01  -0.12    -0.44   0.00  -0.11
  16   1    -0.24  -0.01  -0.04    -0.22  -0.02  -0.03     0.07  -0.03   0.03
  17   1    -0.06  -0.01  -0.00    -0.04   0.00   0.01     0.03   0.04  -0.01
                     25                     26                     27
                        a                      a                      a 
 Frequencies --  1277.9503              1317.2867              1338.5626
 Red. masses --     3.5002                 4.9005                 4.4111
 Frc consts  --     0.0000                 0.0000                 0.0000
 IR Inten    --     0.5464                 9.9998                21.4049
 Raman Activ --     0.0000                 0.0000                 0.0000
 Depolar     --     0.0000                 0.0000                 0.0000
 Atom AN      X      Y      Z        X      Y      Z        X      Y      Z
   1   6    -0.05  -0.01  -0.01    -0.05   0.03   0.08    -0.07   0.00   0.09
   2   6    -0.00  -0.00  -0.03     0.22  -0.15  -0.03     0.19  -0.42   0.02
   3   6     0.06   0.03  -0.00    -0.43   0.12   0.04     0.22   0.07  -0.11
   4   6     0.03  -0.28   0.18     0.14  -0.03   0.01    -0.05  -0.03   0.01
   5   6     0.15   0.26  -0.10     0.19  -0.01   0.06    -0.12   0.02  -0.04
   6   6    -0.03   0.02  -0.02    -0.09   0.02  -0.03     0.06   0.00   0.01
   7   8    -0.02   0.04  -0.03     0.00  -0.02   0.01    -0.01   0.00  -0.00
   8   1     0.01   0.02  -0.02     0.05  -0.04   0.01     0.04   0.08  -0.02
   9   1     0.02  -0.05   0.01     0.01  -0.02  -0.03    -0.03   0.02  -0.08
  10   1    -0.01  -0.01   0.01     0.00   0.09  -0.05    -0.01   0.15  -0.12
  11   1     0.08  -0.11  -0.02    -0.23   0.34   0.03    -0.21   0.37   0.01
  12   1    -0.09   0.16   0.00    -0.02   0.08  -0.06    -0.29   0.47   0.04
  13   1     0.11   0.00  -0.00     0.45  -0.06  -0.19    -0.29   0.12   0.19
  14   1    -0.17   0.02   0.06     0.28  -0.18  -0.10    -0.05   0.05   0.01
  15   1     0.38  -0.09   0.12    -0.23  -0.01  -0.06     0.05  -0.00   0.03
  16   1    -0.65   0.03  -0.17    -0.16  -0.02  -0.04     0.09   0.01   0.02
  17   1    -0.17  -0.17   0.05    -0.04  -0.03  -0.01    -0.00  -0.02   0.01
                     28                     29                     30
                        a                      a                      a 
 Frequencies --  1386.3090              1414.4000              1450.8259
 Red. masses --     3.3874                 3.1848                 2.2300
 Frc consts  --     0.0000                 0.0000                 0.0000
 IR Inten    --    67.5661                 4.8299                15.5564
 Raman Activ --     0.0000                 0.0000                 0.0000
 Depolar     --     0.0000                 0.0000                 0.0000
 Atom AN      X      Y      Z        X      Y      Z        X      Y      Z
   1   6    -0.00  -0.00   0.01     0.09  -0.37   0.19    -0.01  -0.04   0.02
   2   6     0.01  -0.02   0.00    -0.05   0.08   0.01    -0.02   0.00   0.02
   3   6     0.01   0.00  -0.01    -0.05  -0.04   0.01     0.16   0.24   0.11
   4   6    -0.06  -0.07   0.02    -0.00   0.01  -0.00     0.00  -0.02   0.04
   5   6     0.09   0.14  -0.05     0.02  -0.00   0.01    -0.08   0.03  -0.03
   6   6    -0.29  -0.04  -0.05    -0.00  -0.01   0.00     0.01   0.02  -0.01
   7   8     0.08  -0.21   0.13    -0.00   0.01  -0.01    -0.00  -0.03   0.01
   8   1     0.00   0.01  -0.00    -0.06   0.51  -0.05     0.04   0.05  -0.02
   9   1    -0.00   0.00  -0.01    -0.27   0.35  -0.23    -0.03   0.04  -0.04
  10   1    -0.01   0.00  -0.01     0.04   0.35  -0.35     0.03   0.04  -0.00
  11   1    -0.00   0.01  -0.00     0.10  -0.04  -0.03     0.04   0.00  -0.01
  12   1    -0.01   0.02  -0.00     0.05  -0.09  -0.08    -0.02   0.02  -0.03
  13   1     0.02   0.02   0.03     0.07   0.01   0.03    -0.28  -0.25  -0.55
  14   1    -0.00   0.03  -0.00     0.02   0.06  -0.01    -0.10  -0.63   0.11
  15   1     0.11  -0.02   0.03     0.03  -0.00  -0.00     0.04  -0.02  -0.01
  16   1    -0.13   0.03  -0.05    -0.02  -0.00  -0.01     0.04   0.01  -0.01
  17   1     0.53   0.66  -0.23    -0.01  -0.02   0.01     0.03   0.03  -0.01
                     31                     32                     33
                        a                      a                      a 
 Frequencies --  1484.8150              1496.5748              1505.1461
 Red. masses --     1.9008                 1.5705                 1.5437
 Frc consts  --     0.0000                 0.0000                 0.0000
 IR Inten    --     1.9718                 0.5423                 1.5373
 Raman Activ --     0.0000                 0.0000                 0.0000
 Depolar     --     0.0000                 0.0000                 0.0000
 Atom AN      X      Y      Z        X      Y      Z        X      Y      Z
   1   6    -0.00   0.04  -0.03     0.20   0.02  -0.05     0.04   0.11   0.18
   2   6    -0.11  -0.10   0.23     0.06  -0.01  -0.03    -0.00   0.03   0.05
   3   6    -0.02  -0.02   0.01    -0.00   0.02   0.01    -0.00  -0.00  -0.00
   4   6    -0.01   0.02  -0.01     0.00  -0.01   0.00     0.00   0.01  -0.01
   5   6     0.02  -0.01   0.01    -0.01   0.01  -0.00     0.00  -0.01   0.01
   6   6    -0.01  -0.01   0.00     0.00   0.00  -0.00    -0.00  -0.00  -0.00
   7   8     0.00   0.01  -0.00    -0.00  -0.00   0.00     0.00   0.00  -0.00
   8   1    -0.06  -0.08   0.03    -0.67   0.01   0.22     0.04   0.34  -0.06
   9   1     0.02  -0.03   0.10     0.10  -0.10   0.41     0.25  -0.38  -0.49
  10   1    -0.00  -0.01   0.01    -0.26   0.01  -0.42    -0.42  -0.41  -0.18
  11   1     0.53   0.33  -0.25    -0.06  -0.02   0.02     0.04  -0.01   0.00
  12   1    -0.07  -0.01  -0.66    -0.01   0.04   0.04    -0.00   0.00  -0.05
  13   1    -0.01   0.01   0.03    -0.01  -0.02  -0.04    -0.00  -0.00  -0.00
  14   1     0.00   0.02  -0.00    -0.00  -0.05   0.01     0.01  -0.01  -0.00
  15   1     0.01   0.01   0.00     0.00  -0.00   0.00    -0.04   0.01  -0.00
  16   1    -0.00  -0.00   0.00    -0.00   0.00  -0.00     0.01  -0.00   0.01
  17   1    -0.00  -0.00   0.00     0.00   0.00  -0.00    -0.00  -0.00   0.00
                     34                     35                     36
                        a                      a                      a 
 Frequencies --  1602.3916              1688.1585              2775.0625
 Red. masses --    12.1513                12.6204                 1.6747
 Frc consts  --     0.0000                 0.0000                 0.0000
 IR Inten    --   890.3765               210.7829               274.7972
 Raman Activ --     0.0000                 0.0000                 0.0000
 Depolar     --     0.0000                 0.0000                 0.0000
 Atom AN      X      Y      Z        X      Y      Z        X      Y      Z
   1   6    -0.00   0.01  -0.00    -0.00  -0.00  -0.00     0.00  -0.00  -0.00
   2   6     0.02  -0.02  -0.00     0.01  -0.00   0.00     0.00   0.00  -0.00
   3   6     0.08   0.04   0.02     0.07   0.01   0.02     0.00  -0.00   0.00
   4   6    -0.50   0.16  -0.20    -0.36   0.12  -0.15    -0.00   0.00  -0.00
   5   6     0.51  -0.13   0.19     0.29  -0.17   0.16     0.01  -0.01   0.01
   6   6    -0.18  -0.38   0.16     0.15   0.56  -0.27     0.19  -0.11   0.10
   7   8     0.08   0.31  -0.15    -0.10  -0.43   0.21     0.00  -0.03   0.02
   8   1    -0.00  -0.00   0.00    -0.00   0.00  -0.00    -0.00  -0.00  -0.00
   9   1     0.00  -0.01   0.00    -0.00   0.00   0.00     0.00   0.00   0.00
  10   1    -0.00   0.00  -0.00     0.00   0.00  -0.00    -0.00   0.00   0.00
  11   1    -0.02   0.00   0.01    -0.00   0.00   0.00     0.00   0.00   0.00
  12   1    -0.01   0.02   0.02    -0.00   0.00   0.00    -0.00  -0.00  -0.00
  13   1    -0.07  -0.01  -0.04    -0.04  -0.00  -0.00    -0.00  -0.00   0.00
  14   1     0.04  -0.04  -0.00     0.03   0.01  -0.01     0.00   0.00  -0.00
  15   1     0.10   0.05  -0.01     0.06   0.04  -0.01    -0.00   0.00  -0.00
  16   1    -0.06  -0.06   0.02    -0.10  -0.06   0.01    -0.00  -0.02   0.01
  17   1     0.00  -0.03   0.02    -0.09  -0.05   0.01    -0.71   0.49  -0.44
                     37                     38                     39
                        a                      a                      a 
 Frequencies --  2961.5002              2976.8192              2988.9529
 Red. masses --     1.7615                 1.9916                 1.5050
 Frc consts  --     0.0000                 0.0000                 0.0000
 IR Inten    --     7.5971                65.9999                30.4553
 Raman Activ --     0.0000                 0.0000                 0.0000
 Depolar     --     0.0000                 0.0000                 0.0000
 Atom AN      X      Y      Z        X      Y      Z        X      Y      Z
   1   6     0.00   0.00  -0.00    -0.02  -0.01  -0.01    -0.01   0.01   0.01
   2   6    -0.04  -0.02  -0.04     0.21   0.12   0.15     0.08   0.05  -0.16
   3   6     0.08   0.00   0.24     0.02  -0.02   0.07    -0.00  -0.11   0.02
   4   6     0.01   0.00   0.01     0.00  -0.00   0.00    -0.00   0.00  -0.00
   5   6    -0.00   0.00  -0.00    -0.00   0.00  -0.00     0.00   0.00  -0.00
   6   6    -0.00  -0.00  -0.00    -0.00   0.00   0.00    -0.00  -0.00   0.00
   7   8     0.00   0.00  -0.00     0.00   0.00  -0.00     0.00   0.00  -0.00
   8   1    -0.00   0.00  -0.01     0.02   0.01   0.07    -0.02  -0.00  -0.04
   9   1    -0.01  -0.01   0.00     0.06   0.04  -0.01     0.02   0.02   0.00
  10   1    -0.00   0.00   0.00    -0.00  -0.00  -0.01     0.04  -0.03  -0.03
  11   1     0.07   0.04   0.20    -0.21  -0.11  -0.61     0.24   0.12   0.56
  12   1     0.08   0.05  -0.01    -0.55  -0.33   0.07    -0.52  -0.30   0.02
  13   1     0.01   0.07  -0.00     0.00   0.08  -0.03    -0.01   0.39  -0.20
  14   1    -0.29  -0.08  -0.88    -0.07  -0.02  -0.20     0.04  -0.01   0.12
  15   1    -0.00  -0.01   0.01    -0.00  -0.01   0.00    -0.00  -0.02   0.01
  16   1    -0.00   0.00   0.00    -0.00  -0.00   0.00    -0.00  -0.00   0.00
  17   1     0.00  -0.00   0.00     0.00  -0.00   0.00     0.00  -0.00   0.00
                     40                     41                     42
                        a                      a                      a 
 Frequencies --  2996.3933              3031.4231              3035.2924
 Red. masses --     1.6716                 1.9021                 1.9009
 Frc consts  --     0.0000                 0.0000                 0.0000
 IR Inten    --    72.4538                73.1370                74.2414
 Raman Activ --     0.0000                 0.0000                 0.0000
 Depolar     --     0.0000                 0.0000                 0.0000
 Atom AN      X      Y      Z        X      Y      Z        X      Y      Z
   1   6    -0.02   0.00   0.01     0.00   0.10   0.27    -0.28  -0.01   0.02
   2   6     0.06   0.04  -0.07     0.01   0.01   0.03    -0.03  -0.01   0.00
   3   6     0.00   0.20  -0.09     0.00  -0.00   0.01     0.00  -0.00   0.00
   4   6    -0.00  -0.01   0.00     0.00   0.00  -0.00     0.00   0.01  -0.01
   5   6    -0.00  -0.00   0.00     0.00   0.00  -0.00     0.00  -0.00   0.00
   6   6    -0.00  -0.00  -0.00    -0.00  -0.00   0.00     0.00   0.00  -0.00
   7   8     0.00   0.00  -0.00    -0.00  -0.00  -0.00    -0.00  -0.00   0.00
   8   1    -0.01  -0.00  -0.03    -0.28  -0.15  -0.81     0.05   0.05   0.30
   9   1     0.03   0.02   0.00    -0.04  -0.01   0.04     0.45   0.33  -0.01
  10   1     0.04  -0.03  -0.03     0.30  -0.19  -0.17     0.49  -0.37  -0.36
  11   1     0.10   0.05   0.23    -0.04  -0.02  -0.09    -0.00  -0.00   0.00
  12   1    -0.32  -0.19   0.02     0.01   0.01   0.00     0.09   0.05  -0.01
  13   1     0.01  -0.76   0.37    -0.00   0.02  -0.01    -0.00   0.01  -0.01
  14   1    -0.02   0.02  -0.06    -0.00  -0.00  -0.02    -0.00  -0.00  -0.00
  15   1     0.01   0.06  -0.03     0.00  -0.01   0.00    -0.00  -0.04   0.02
  16   1     0.00   0.00  -0.00    -0.00  -0.00   0.00     0.00   0.00  -0.00
  17   1     0.00  -0.00   0.00    -0.00   0.00   0.00    -0.00   0.00  -0.00
                     43                     44                     45
                        a                      a                      a 
 Frequencies --  3046.7826              3062.7085              3090.0583
 Red. masses --     1.3505                 1.8078                 1.8387
 Frc consts  --     0.0000                 0.0000                 0.0000
 IR Inten    --    35.3301                23.4986                44.0737
 Raman Activ --     0.0000                 0.0000                 0.0000
 Depolar     --     0.0000                 0.0000                 0.0000
 Atom AN      X      Y      Z        X      Y      Z        X      Y      Z
   1   6     0.05   0.17  -0.00     0.02   0.02  -0.00    -0.00  -0.00   0.00
   2   6     0.01   0.01   0.00     0.00   0.00  -0.00    -0.00  -0.00   0.00
   3   6     0.00  -0.00   0.00    -0.00   0.02  -0.01     0.00  -0.00   0.00
   4   6    -0.00  -0.03   0.01     0.02   0.23  -0.12    -0.02  -0.05   0.02
   5   6    -0.00   0.00  -0.00     0.01  -0.04   0.02    -0.01  -0.24   0.13
   6   6     0.00  -0.00   0.00     0.00  -0.00   0.00     0.01  -0.01   0.00
   7   8    -0.00   0.00  -0.00    -0.00  -0.00   0.00    -0.00   0.00  -0.00
   8   1     0.09   0.07   0.26     0.01   0.01   0.02    -0.00  -0.00  -0.00
   9   1    -0.65  -0.42   0.02    -0.09  -0.06   0.00     0.01   0.01  -0.00
  10   1     0.39  -0.24  -0.26     0.02  -0.01  -0.01     0.00  -0.00  -0.00
  11   1    -0.01  -0.00  -0.02    -0.00   0.00  -0.00    -0.00  -0.00  -0.00
  12   1    -0.02  -0.01   0.00    -0.01  -0.01   0.00     0.00   0.00   0.00
  13   1     0.00   0.01  -0.00     0.00  -0.06   0.03     0.00   0.02  -0.01
  14   1     0.00   0.00   0.00     0.00   0.00   0.01    -0.00  -0.00  -0.00
  15   1     0.01   0.09  -0.05    -0.10  -0.83   0.42     0.02   0.15  -0.08
  16   1    -0.00  -0.01   0.01     0.01   0.15  -0.08     0.05   0.84  -0.44
  17   1    -0.00   0.00  -0.00    -0.00   0.00  -0.00    -0.01   0.01  -0.01
