23
 xtb: 6.7.1 (edcfbbe)
C            2.40314616168653        0.78868264142217       -0.12528047188038
C            1.61228283976442       -0.35118567698724       -0.76260332457859
C            0.81029100959779       -1.18501428277289        0.24271698959168
C           -0.21216198490562       -0.44831158298160        1.12096017015602
C           -1.43245571109982        0.19985245091998        0.43282309067134
C           -1.14196511254417        1.57210249826430       -0.18281931229443
C           -2.08168252891092       -0.72935947430422       -0.59409857238213
H            3.07068628883487        0.41016044435747        0.65793347702429
H            3.01982513187692        1.30453753578399       -0.86873659538924
H            1.74544648900881        1.53402342304993        0.33218211702101
H            2.31091357210065       -1.02349589455461       -1.27700862933615
H            0.95058292091562        0.04567928996255       -1.54059706186712
H            0.30363493865376       -1.99578710061328       -0.29548052511620
H            1.52465883006488       -1.67517249991008        0.91885221933398
H           -0.59411706536172       -1.18622728012865        1.83905541262255
H            0.29938689792983        0.31568325172664        1.72140055769567
H           -2.16885142005594        0.36916828671655        1.23141487563494
H           -2.06945968232262        2.03033473839547       -0.54504694529933
H           -0.70067643870586        2.25074909519178        0.55508962041477
H           -0.45612256498370        1.50455883618855       -1.03232276462618
H           -2.29591244155047       -1.71482269627167       -0.16522398157074
H           -1.43192419562123       -0.87461114162309       -1.46454144621299
H           -3.02609218995045       -0.30680886316493       -0.95431151763306
