! pbe def2-sv(p) def2/J RI DEFGRID1 loosescf d4 GCP(DFT/SV(P)) printgap
%output
    printlevel normal
end
* xyz 0 1
C -3.9307960811 0.0710689031 -0.2941808805
C -2.6986339022 -0.2431419853 0.5456161335
C -1.4095965099 0.0676454423 -0.210757171
C -0.1725765103 -0.242941208 0.62666918
C 1.1063319894 0.0362195104 -0.1179524059
O 1.1841203463 0.3801501666 -1.2778097504
O 2.1636865723 -0.1537711686 0.6669921637
C 3.4732979965 0.0546779993 0.1280094635
H -3.9273694455 -0.5166348092 -1.2091615328
H -4.8383409494 -0.1569792688 0.2587657682
H -3.9477800608 1.1239156173 -0.5658667504
H -2.7276353588 0.3440433846 1.4655302506
H -2.7088113646 -1.2990099095 0.8229542869
H -1.3930603951 1.1213622083 -0.4963081285
H -1.3708522372 -0.5152607991 -1.1331113183
H -0.1600268904 -1.2953168693 0.9183034141
H -0.1623255987 0.3469716166 1.5447826626
H 4.0872773154 -0.7792435036 0.4589938637
H 3.8636577309 0.9933383743 0.5193251637
H 3.4238979711 0.0956069959 -0.9606223874
*
