! r2scan-3c def2/J RI DEFGRID2 scfconv6 printgap
%output
    printlevel normal
end
* xyz 0 1
C -2.5959908879 -1.2660629508 -0.0163209456
C -2.5218945082 0.2560010669 -0.0079514782
C -1.2487576261 0.7548839786 0.6837355808
C -0.0264248521 0.3795591632 -0.1143871182
O 0.1507011483 0.6595202817 -1.2818500318
O 0.8387658054 -0.3135910023 0.6155532287
C 2.0737630371 -0.7303623785 0.0097053874
C 3.1467127595 0.3358104434 0.1688223634
H -3.5163099332 -1.5979667958 -0.48930544
H -1.7569568589 -1.6846705716 -0.5692197971
H -2.5671171823 -1.6556861458 0.9984200567
H -3.3882758905 0.662440231 0.5143329826
H -2.5309125627 0.6304082196 -1.0334054776
H -1.1555222463 0.3334248762 1.683768264
H -1.2750613101 1.8438527904 0.7487817177
H 2.3439393944 -1.6469524813 0.5350678523
H 1.8903098721 -0.9382083213 -1.0489744416
H 3.2800900942 0.5777953343 1.219697014
H 4.0832154684 -0.0328867239 -0.2366624408
H 2.8594191608 1.2367550656 -0.3687906422
*
