      -----------------------------------------------------------      
     |                   =====================                   |     
     |                           x T B                           |     
     |                   =====================                   |     
     |                         S. Grimme                         |     
     |          Mulliken Center for Theoretical Chemistry        |     
     |                    University of Bonn                     |     
      -----------------------------------------------------------      

   * xtb version 6.7.1 (edcfbbe) compiled by 'albert@albert-system' on 2024-07-22

   xtb is free software: you can redistribute it and/or modify it under
   the terms of the GNU Lesser General Public License as published by
   the Free Software Foundation, either version 3 of the License, or
   (at your option) any later version.
   
   xtb is distributed in the hope that it will be useful,
   but WITHOUT ANY WARRANTY; without even the implied warranty of
   MERCHANTABILITY or FITNESS FOR A PARTICULAR PURPOSE.  See the
   GNU Lesser General Public License for more details.
   
   Cite this work as:
   * C. Bannwarth, E. Caldeweyher, S. Ehlert, A. Hansen, P. Pracht,
     J. Seibert, S. Spicher, S. Grimme, WIREs Comput. Mol. Sci., 2020, 11,
     e01493. DOI: 10.1002/wcms.1493
   
   for GFN2-xTB:
   * C. Bannwarth, S. Ehlert and S. Grimme., J. Chem. Theory Comput., 2019,
     15, 1652-1671. DOI: 10.1021/acs.jctc.8b01176
   for GFN1-xTB:
   * S. Grimme, C. Bannwarth, P. Shushkov, J. Chem. Theory Comput., 2017,
     13, 1989-2009. DOI: 10.1021/acs.jctc.7b00118
   for GFN0-xTB:
   * P. Pracht, E. Caldeweyher, S. Ehlert, S. Grimme, ChemRxiv, 2019, preprint.
     DOI: 10.26434/chemrxiv.8326202.v1
   for GFN-FF:
   * S. Spicher and S. Grimme, Angew. Chem. Int. Ed., 2020, 59, 15665-15673.
     DOI: 10.1002/anie.202004239
   
   for ALPB and GBSA implicit solvation:
   * S. Ehlert, M. Stahn, S. Spicher, S. Grimme, J. Chem. Theory Comput.,
     2021, 17, 4250-4261. DOI: 10.1021/acs.jctc.1c00471
   
   for ddCOSMO and CPCM-X implicit solvation:
   * M. Stahn, S. Ehlert, S. Grimme, J. Phys. Chem. A,
     2023, XX, XXXX-XXXX. DOI: 10.1021/acs.jpca.3c04382
   
   for DFT-D4:
   * E. Caldeweyher, C. Bannwarth and S. Grimme, J. Chem. Phys., 2017,
     147, 034112. DOI: 10.1063/1.4993215
   * E. Caldeweyher, S. Ehlert, A. Hansen, H. Neugebauer, S. Spicher,
     C. Bannwarth and S. Grimme, J. Chem. Phys., 2019, 150, 154122.
     DOI: 10.1063/1.5090222
   * E. Caldeweyher, J.-M. Mewes, S. Ehlert and S. Grimme, Phys. Chem. Chem. Phys.
     2020, 22, 8499-8512. DOI: 10.1039/D0CP00502A
   
   for sTDA-xTB:
   * S. Grimme and C. Bannwarth, J. Chem. Phys., 2016, 145, 054103.
     DOI: 10.1063/1.4959605
   
   in the mass-spec context:
   * V. Asgeirsson, C. Bauer and S. Grimme, Chem. Sci., 2017, 8, 4879.
     DOI: 10.1039/c7sc00601b
   * J. Koopman and S. Grimme, ACS Omega 2019, 4, 12, 15120-15133.
     DOI: 10.1021/acsomega.9b02011
   
   for metadynamics refer to:
   * S. Grimme, J. Chem. Theory Comput., 2019, 155, 2847-2862
     DOI: 10.1021/acs.jctc.9b00143
   
   for SPH calculations refer to:
   * S. Spicher and S. Grimme, J. Chem. Theory Comput., 2021, 17, 1701-1714
     DOI: 10.1021/acs.jctc.0c01306
   
   for ONIOM refer to:
   * C. Plett, A. Katbashev, S. Ehlert, S. Grimme, M. Bursch,
     Phys. Chem. Chem. Phys., 2023, 25, 17860-17868. DOI: 10.1039/D3CP02178E
   
   for DIPRO refer to:
   * J. Kohn, N. Gildemeister, S. Grimme, D. Fazzi, A. Hansen,
     J. Chem. Phys., 2023, just accepted.
   
   for PTB refer to:
   * S. Grimme, M. Mueller, A. Hansen, J. Chem. Phys., 2023, 158, 124111.
     DOI: 10.1063/5.0137838
   
   with help from (in alphabetical order)
   P. Atkinson, C. Bannwarth, F. Bohle, G. Brandenburg, E. Caldeweyher
   M. Checinski, S. Dohm, S. Ehlert, S. Ehrlich, I. Gerasimov, C. Hölzer
   A. Katbashev, J. Kohn, J. Koopman, C. Lavigne, S. Lehtola, F. März, M. Müller,
   F. Musil, H. Neugebauer, J. Pisarek, C. Plett, P. Pracht, F. Pultar,
   J. Seibert, P. Shushkov, S. Spicher, M. Stahn, M. Steiner, T. Strunk,
   J. Stückrath, T. Rose, and J. Unsleber
   
 * started run on 2025/04/11 at 14:23:05.084     
   ID    Z sym.   atoms
    1    6 C      1-5, 7, 9
    2    8 O      6, 8
    3    1 H      10-23

           -------------------------------------------------
          |                Calculation Setup                |
           -------------------------------------------------

          program call               : /software/projects/pawsey0265/mwang1/xtb/bin/xtb gas.coord --gfn2 --sp --chrg 0 --norestart --parallel 1
          hostname                   : nid001577
          coordinate file            : gas.coord
          omp threads                :                     1


           -------------------------------------------------
          |                 G F N 2 - x T B                 |
           -------------------------------------------------

        Reference                      10.1021/acs.jctc.8b01176
      * Hamiltonian:
        H0-scaling (s, p, d)           1.850000    2.230000    2.230000
        zeta-weighting                 0.500000
      * Dispersion:
        s8                             2.700000
        a1                             0.520000
        a2                             5.000000
        s9                             5.000000
      * Repulsion:
        kExp                           1.500000    1.000000
        rExp                           1.000000
      * Coulomb:
        alpha                          2.000000
        third order                    shell-resolved
        anisotropic                    true
        a3                             3.000000
        a5                             4.000000
        cn-shift                       1.200000
        cn-exp                         4.000000
        max-rad                        5.000000


          ...................................................
          :                      SETUP                      :
          :.................................................:
          :  # basis functions                  50          :
          :  # atomic orbitals                  50          :
          :  # shells                           32          :
          :  # electrons                        54          :
          :  max. iterations                   250          :
          :  Hamiltonian                  GFN2-xTB          :
          :  restarted?                      false          :
          :  GBSA solvation                  false          :
          :  PC potential                    false          :
          :  electronic temp.          300.0000000     K    :
          :  accuracy                    1.0000000          :
          :  -> integral cutoff          0.2500000E+02      :
          :  -> integral neglect         0.1000000E-07      :
          :  -> SCF convergence          0.1000000E-05 Eh   :
          :  -> wf. convergence          0.1000000E-03 e    :
          :  Broyden damping             0.4000000          :
          :  net charge                          0          :
          :  unpaired electrons                  0          :
          ...................................................

 iter      E             dE          RMSdq      gap      omega  full diag
   1    -30.5615947 -0.305616E+02  0.355E+00    6.17       0.0  T
   2    -30.6387681 -0.771734E-01  0.186E+00    4.82       1.0  T
   3    -30.6427999 -0.403183E-02  0.105E+00    5.35       1.0  T
   4    -30.6449602 -0.216037E-02  0.177E-01    5.06       1.0  T
   5    -30.6452402 -0.279984E-03  0.700E-02    5.14       1.0  T
   6    -30.6452445 -0.423874E-05  0.221E-02    5.13       1.0  T
   7    -30.6452462 -0.175356E-05  0.681E-03    5.13       3.1  T
   8    -30.6452464 -0.140139E-06  0.223E-03    5.13       9.3  T
   9    -30.6452464 -0.147417E-07  0.907E-04    5.13      23.0  T
  10    -30.6452464 -0.260723E-08  0.287E-04    5.13      72.6  T

   *** convergence criteria satisfied after 10 iterations ***

         #    Occupation            Energy/Eh            Energy/eV
      -------------------------------------------------------------
         1        2.0000           -0.7413723             -20.1738
       ...           ...                  ...                  ...
        21        2.0000           -0.4660849             -12.6828
        22        2.0000           -0.4576246             -12.4526
        23        2.0000           -0.4432967             -12.0627
        24        2.0000           -0.4367364             -11.8842
        25        2.0000           -0.4313003             -11.7363
        26        2.0000           -0.4294086             -11.6848
        27        2.0000           -0.4138261             -11.2608 (HOMO)
        28                         -0.2253424              -6.1319 (LUMO)
        29                         -0.0027401              -0.0746
        30                          0.0610301               1.6607
        31                          0.0861127               2.3432
        32                          0.1021979               2.7809
       ...                                ...                  ...
        50                          0.6243055              16.9882
      -------------------------------------------------------------
                  HL-Gap            0.1884837 Eh            5.1289 eV
             Fermi-level           -0.3195842 Eh           -8.6963 eV

 SCC (total)                   0 d,  0 h,  0 min,  0.075 sec
 SCC setup                      ...        0 min,  0.000 sec (  0.354%)
 Dispersion                     ...        0 min,  0.000 sec (  0.226%)
 classical contributions        ...        0 min,  0.000 sec (  0.076%)
 integral evaluation            ...        0 min,  0.002 sec (  2.619%)
 iterations                     ...        0 min,  0.068 sec ( 89.635%)
 molecular gradient             ...        0 min,  0.005 sec (  6.843%)
 printout                       ...        0 min,  0.000 sec (  0.219%)

         :::::::::::::::::::::::::::::::::::::::::::::::::::::
         ::                     SUMMARY                     ::
         :::::::::::::::::::::::::::::::::::::::::::::::::::::
         :: total energy             -30.281237545230 Eh    ::
         :: gradient norm              0.028933029878 Eh/a0 ::
         :: HOMO-LUMO gap              5.128902288778 eV    ::
         ::.................................................::
         :: SCC energy               -30.645195775677 Eh    ::
         :: -> isotropic ES            0.049202268292 Eh    ::
         :: -> anisotropic ES          0.003616840615 Eh    ::
         :: -> anisotropic XC          0.009415939724 Eh    ::
         :: -> dispersion             -0.014450183588 Eh    ::
         :: repulsion energy           0.363958230447 Eh    ::
         :: add. restraining           0.000000000000 Eh    ::
         :: total charge              -0.000000000000 e     ::
         :::::::::::::::::::::::::::::::::::::::::::::::::::::

           -------------------------------------------------
          |                Property Printout                |
           -------------------------------------------------

    * Orbital Energies and Occupations

         #    Occupation            Energy/Eh            Energy/eV
      -------------------------------------------------------------
         1        2.0000           -0.7413723             -20.1738
       ...           ...                  ...                  ...
        15        2.0000           -0.5045962             -13.7308
        16        2.0000           -0.4926855             -13.4067
        17        2.0000           -0.4860858             -13.2271
        18        2.0000           -0.4842667             -13.1776
        19        2.0000           -0.4769223             -12.9777
        20        2.0000           -0.4705381             -12.8040
        21        2.0000           -0.4660849             -12.6828
        22        2.0000           -0.4576246             -12.4526
        23        2.0000           -0.4432967             -12.0627
        24        2.0000           -0.4367364             -11.8842
        25        2.0000           -0.4313003             -11.7363
        26        2.0000           -0.4294086             -11.6848
        27        2.0000           -0.4138261             -11.2608 (HOMO)
        28                         -0.2253424              -6.1319 (LUMO)
        29                         -0.0027401              -0.0746
        30                          0.0610301               1.6607
        31                          0.0861127               2.3432
        32                          0.1021979               2.7809
        33                          0.1246654               3.3923
        34                          0.1335477               3.6340
        35                          0.1530371               4.1644
        36                          0.1595486               4.3415
        37                          0.1626590               4.4262
        38                          0.1747312               4.7547
       ...                                ...                  ...
        50                          0.6243055              16.9882
      -------------------------------------------------------------
                  HL-Gap            0.1884837 Eh            5.1289 eV
             Fermi-level           -0.3195842 Eh           -8.6963 eV

     #   Z          covCN         q      C6AA      α(0)
     1   6 C        3.756    -0.110    22.656     6.787
     2   6 C        3.849    -0.009    20.709     6.473
     3   6 C        3.757    -0.110    22.648     6.785
     4   6 C        3.805    -0.070    21.845     6.654
     5   6 C        3.694     0.075    19.497     6.317
     6   8 O        1.704    -0.260    18.306     5.777
     7   6 C        2.709     0.359    20.902     7.484
     8   8 O        0.856    -0.427    22.238     6.323
     9   6 C        3.754    -0.145    23.365     6.893
    10   1 H        0.925     0.035     2.522     2.483
    11   1 H        0.925     0.037     2.488     2.467
    12   1 H        0.925     0.047     2.358     2.401
    13   1 H        0.924     0.030     2.592     2.518
    14   1 H        0.925     0.038     2.476     2.461
    15   1 H        0.925     0.040     2.455     2.450
    16   1 H        0.925     0.033     2.539     2.492
    17   1 H        0.924     0.055     2.258     2.350
    18   1 H        0.924     0.045     2.381     2.413
    19   1 H        0.924     0.049     2.337     2.391
    20   1 H        0.924     0.061     2.192     2.315
    21   1 H        0.925     0.072     2.068     2.249
    22   1 H        0.925     0.078     1.996     2.209
    23   1 H        0.925     0.079     1.988     2.205

 Mol. C6AA /au·bohr⁶  :       3939.765144
 Mol. C8AA /au·bohr⁸  :      83619.729405
 Mol. α(0) /au        :         92.894979


Wiberg/Mayer (AO) data.
largest (>0.10) Wiberg bond orders for each atom

 ---------------------------------------------------------------------------
     #   Z sym  total        # sym  WBO       # sym  WBO       # sym  WBO
 ---------------------------------------------------------------------------
     1   6 C    3.996 --     2 C    1.010    11 H    0.987    10 H    0.987
                            12 H    0.984
     2   6 C    3.996 --     1 C    1.010     3 C    1.008     4 C    0.996
                            13 H    0.968
     3   6 C    3.996 --     2 C    1.008    14 H    0.987    16 H    0.987
                            15 H    0.986
     4   6 C    3.992 --     5 C    1.005     2 C    0.996    17 H    0.973
                            18 H    0.972
     5   6 C    3.924 --     4 C    1.005    20 H    0.967    19 H    0.967
                             6 O    0.931
     6   8 O    2.320 --     7 C    1.152     5 C    0.931     8 O    0.175
     7   6 C    3.919 --     8 O    1.731     6 O    1.152     9 C    0.990
     8   8 O    2.017 --     7 C    1.731     6 O    0.175
     9   6 C    3.991 --     7 C    0.990    21 H    0.980    22 H    0.975
                            23 H    0.956
    10   1 H    0.999 --     1 C    0.987
    11   1 H    0.999 --     1 C    0.987
    12   1 H    0.998 --     1 C    0.984
    13   1 H    0.999 --     2 C    0.968
    14   1 H    0.999 --     3 C    0.987
    15   1 H    0.998 --     3 C    0.986
    16   1 H    0.999 --     3 C    0.987
    17   1 H    0.997 --     4 C    0.973
    18   1 H    0.997 --     4 C    0.972
    19   1 H    0.998 --     5 C    0.967
    20   1 H    0.996 --     5 C    0.967
    21   1 H    0.995 --     9 C    0.980
    22   1 H    0.993 --     9 C    0.975
    23   1 H    0.994 --     9 C    0.956
 ---------------------------------------------------------------------------

Topologies differ in total number of bonds
Writing topology from bond orders to xtbtopo.mol

molecular dipole:
                 x           y           z       tot (Debye)
 q only:        0.792       0.533      -0.428
   full:        0.777       0.549      -0.482       2.711
molecular quadrupole (traceless):
                xx          xy          yy          xz          yz          zz
 q only:       -1.958      -7.223       1.515       5.993       0.139       0.443
  q+dip:       -4.024      -7.668       2.462       6.334       1.872       1.562
   full:       -3.717      -7.834       2.172       6.783       1.816       1.545


           -------------------------------------------------
          | TOTAL ENERGY              -30.281237545230 Eh   |
          | GRADIENT NORM               0.028933029878 Eh/α |
          | HOMO-LUMO GAP               5.128902288778 eV   |
           -------------------------------------------------

------------------------------------------------------------------------
 * finished run on 2025/04/11 at 14:23:05.207     
------------------------------------------------------------------------
 total:
 * wall-time:     0 d,  0 h,  0 min,  0.118 sec
 *  cpu-time:     0 d,  0 h,  0 min,  0.035 sec
 * ratio c/w:     0.296 speedup
 SCF:
 * wall-time:     0 d,  0 h,  0 min,  0.076 sec
 *  cpu-time:     0 d,  0 h,  0 min,  0.020 sec
 * ratio c/w:     0.267 speedup

