 Entering Gaussian System
 *********************************************
 Gaussian 98:
 frequency output generated by the xtb code
 *********************************************
                         Standard orientation:
 --------------------------------------------------------------------
  Center     Atomic     Atomic              Coordinates (Angstroms)
  Number     Number      Type              X           Y           Z
 --------------------------------------------------------------------
    1          6             0        3.294965    0.270274    0.601937
    2          6             0        2.170686    0.252268   -0.427326
    3          6             0        0.804924    0.084321    0.236245
    4          6             0       -0.318374    0.053248   -0.805629
    5          6             0       -1.680288   -0.182676   -0.202576
    6          8             0       -2.392175   -1.097663   -0.573010
    7          6             0       -2.103879    0.770668    0.874863
    8          1             0        4.257545    0.391593    0.111896
    9          1             0        3.159522    1.091529    1.301770
   10          1             0        3.311410   -0.660309    1.164729
   11          1             0        2.335946   -0.566874   -1.130213
   12          1             0        2.183527    1.184580   -0.995501
   13          1             0        0.645278    0.908109    0.932114
   14          1             0        0.793314   -0.848504    0.804337
   15          1             0       -0.346418    1.010156   -1.331619
   16          1             0       -0.125879   -0.734324   -1.537180
   17          1             0       -1.806776    1.785853    0.632574
   18          1             0       -3.178960    0.711215    1.021055
   19          1             0       -1.614119    0.480677    1.802541
 --------------------------------------------------------------------
     1 basis functions        1 primitive gaussians
     1 alpha electrons        1 beta electrons
 
 Harmonic frequencies (cm**-1), IR intensities (km*mol⁻¹),
 Raman scattering activities (A**4/amu), Raman depolarization ratios,
 reduced masses (AMU), force constants (mDyne/A) and normal coordinates:
                      1                      2                      3
                        a                      a                      a 
 Frequencies --    35.8617                75.8082               107.8918
 Red. masses --    10.3819                 6.9389                 7.5452
 Frc consts  --     0.0000                 0.0000                 0.0000
 IR Inten    --     6.3803                 1.3705                 0.1839
 Raman Activ --     0.0000                 0.0000                 0.0000
 Depolar     --     0.0000                 0.0000                 0.0000
 Atom AN      X      Y      Z        X      Y      Z        X      Y      Z
   1   6     0.03   0.31   0.00    -0.00  -0.14  -0.02    -0.14   0.34   0.11
   2   6     0.03  -0.16   0.00     0.02  -0.30  -0.03     0.02  -0.34  -0.04
   3   6     0.03   0.07   0.06    -0.05   0.44   0.01    -0.02  -0.41  -0.13
   4   6     0.05  -0.32   0.07    -0.04   0.30   0.00    -0.05   0.27  -0.12
   5   6    -0.03  -0.05  -0.01     0.01   0.01   0.00     0.03   0.10  -0.01
   6   8    -0.37   0.33  -0.34     0.21  -0.11  -0.07     0.13   0.01   0.09
   7   6     0.21  -0.18   0.20    -0.14  -0.17   0.10     0.05   0.01   0.08
   8   1     0.01   0.04  -0.01     0.02  -0.22  -0.02    -0.02   0.07   0.06
   9   1    -0.00   0.17  -0.10     0.08   0.08  -0.13    -0.11   0.20  -0.10
  10   1     0.02   0.16   0.11    -0.10   0.04   0.14    -0.03   0.18   0.17
  11   1     0.02  -0.13   0.10    -0.06  -0.20   0.11     0.08  -0.16   0.08
  12   1     0.00  -0.11  -0.11     0.09  -0.17  -0.14    -0.04  -0.16  -0.11
  13   1     0.01   0.10  -0.07     0.05   0.23  -0.10     0.04  -0.19   0.06
  14   1     0.01   0.08   0.12    -0.10   0.20   0.12    -0.05  -0.18  -0.15
  15   1     0.02  -0.15  -0.08    -0.05   0.08   0.00     0.01   0.16   0.11
  16   1     0.02  -0.16   0.09     0.03   0.10  -0.00    -0.06   0.17  -0.15
  17   1     0.09  -0.05   0.09    -0.21  -0.01  -0.01     0.05   0.01   0.08
  18   1     0.06  -0.01   0.08    -0.02  -0.20   0.12     0.01   0.03   0.00
  19   1     0.08  -0.11   0.03     0.09   0.04  -0.01    -0.01  -0.06   0.02
                      4                      5                      6
                        a                      a                      a 
 Frequencies --   130.2492               142.0919               232.7122
 Red. masses --     8.1715                 2.9239                 2.0792
 Frc consts  --     0.0000                 0.0000                 0.0000
 IR Inten    --     0.5176                 2.4203                 0.0832
 Raman Activ --     0.0000                 0.0000                 0.0000
 Depolar     --     0.0000                 0.0000                 0.0000
 Atom AN      X      Y      Z        X      Y      Z        X      Y      Z
   1   6     0.27   0.12  -0.26     0.13   0.00  -0.18     0.01  -0.05   0.01
   2   6    -0.01  -0.10   0.05    -0.04  -0.08   0.02    -0.01   0.26   0.02
   3   6     0.11  -0.24   0.28     0.00   0.08   0.16     0.02  -0.12  -0.01
   4   6     0.06   0.01   0.31     0.02   0.06   0.13     0.00  -0.06   0.01
   5   6    -0.07   0.03   0.04    -0.01   0.01   0.00    -0.01  -0.03   0.00
   6   8    -0.00   0.08  -0.22     0.10  -0.06  -0.05    -0.05  -0.00   0.00
   7   6    -0.36   0.07  -0.12    -0.19  -0.01  -0.05     0.02   0.01  -0.02
   8   1     0.03   0.06  -0.16     0.02  -0.07  -0.11     0.05  -0.56  -0.04
   9   1     0.10   0.05  -0.08     0.11   0.05  -0.10     0.33   0.27  -0.27
  10   1     0.16   0.05  -0.06     0.03   0.04   0.01    -0.37   0.16   0.31
  11   1    -0.02  -0.03   0.01    -0.06  -0.05   0.03     0.00   0.14  -0.07
  12   1    -0.08  -0.04  -0.00    -0.02  -0.05  -0.04    -0.02   0.13   0.09
  13   1     0.05  -0.11   0.13     0.02   0.04   0.03    -0.03  -0.10   0.07
  14   1     0.05  -0.10   0.02    -0.01   0.04   0.07     0.06  -0.08  -0.08
  15   1     0.05   0.03   0.13     0.00   0.02   0.04     0.00  -0.01   0.02
  16   1     0.01   0.03   0.05     0.03   0.02   0.04    -0.00  -0.01  -0.01
  17   1    -0.31   0.05  -0.16     0.35  -0.06   0.25    -0.01   0.00  -0.03
  18   1    -0.08  -0.16   0.05    -0.12   0.31  -0.36     0.01  -0.01   0.01
  19   1     0.03   0.21  -0.05    -0.46  -0.32   0.10     0.03   0.02  -0.01
                      7                      8                      9
                        a                      a                      a 
 Frequencies --   284.0794               366.3365               409.8249
 Red. masses --     9.2723                10.2879                 8.4522
 Frc consts  --     0.0000                 0.0000                 0.0000
 IR Inten    --     0.8351                 2.9647                 3.0719
 Raman Activ --     0.0000                 0.0000                 0.0000
 Depolar     --     0.0000                 0.0000                 0.0000
 Atom AN      X      Y      Z        X      Y      Z        X      Y      Z
   1   6     0.05  -0.01   0.20     0.52   0.04   0.07     0.09   0.01  -0.03
   2   6     0.40   0.03  -0.23     0.19  -0.01   0.32    -0.09  -0.01   0.16
   3   6     0.31   0.02  -0.33    -0.11   0.04  -0.11    -0.18  -0.10  -0.06
   4   6    -0.05  -0.08   0.04    -0.17   0.14  -0.23     0.10  -0.21  -0.33
   5   6    -0.09   0.01   0.16    -0.19  -0.07  -0.14     0.12   0.35  -0.10
   6   8    -0.15   0.09   0.05    -0.37  -0.11   0.17     0.27   0.18   0.18
   7   6    -0.43  -0.04   0.08     0.03  -0.07  -0.07    -0.24  -0.09   0.17
   8   1     0.08  -0.00   0.18     0.08   0.02  -0.11    -0.01  -0.01  -0.09
   9   1    -0.07  -0.01   0.05     0.23   0.02   0.03     0.09   0.02  -0.01
  10   1    -0.06  -0.01   0.05     0.24   0.02   0.02     0.07   0.01   0.00
  11   1     0.17   0.01  -0.05     0.07  -0.00   0.09    -0.02   0.02   0.02
  12   1     0.16   0.01  -0.06     0.08  -0.01   0.08    -0.04   0.01   0.06
  13   1     0.10   0.00  -0.09    -0.06   0.00  -0.03    -0.13  -0.02  -0.05
  14   1     0.13   0.01  -0.08    -0.09   0.00  -0.04    -0.08  -0.02  -0.00
  15   1    -0.06  -0.04  -0.02    -0.09   0.08   0.00     0.16  -0.15  -0.27
  16   1    -0.08  -0.04   0.02    -0.02   0.10  -0.12    -0.05  -0.22   0.06
  17   1    -0.13   0.00   0.06     0.02  -0.02  -0.01    -0.20   0.05   0.20
  18   1    -0.14  -0.05  -0.08     0.01   0.00   0.03    -0.07  -0.20  -0.01
  19   1    -0.20  -0.01   0.07     0.04  -0.05  -0.05    -0.08  -0.10   0.03
                     10                     11                     12
                        a                      a                      a 
 Frequencies --   529.6355               553.9808               774.7874
 Red. masses --    10.8674                 8.5501                 1.9018
 Frc consts  --     0.0000                 0.0000                 0.0000
 IR Inten    --    27.6654                 1.7034                12.7753
 Raman Activ --     0.0000                 0.0000                 0.0000
 Depolar     --     0.0000                 0.0000                 0.0000
 Atom AN      X      Y      Z        X      Y      Z        X      Y      Z
   1   6    -0.14  -0.01  -0.05     0.01  -0.00  -0.02     0.00  -0.02  -0.00
   2   6    -0.04   0.01  -0.09    -0.10  -0.02   0.11     0.02  -0.14  -0.01
   3   6     0.14   0.03   0.20    -0.15   0.01  -0.11     0.02  -0.18  -0.02
   4   6     0.31   0.10  -0.02     0.04  -0.00  -0.19    -0.00  -0.13  -0.01
   5   6     0.19   0.00  -0.27     0.44  -0.35   0.40    -0.01   0.03  -0.03
   6   8    -0.38   0.17   0.41    -0.06   0.28  -0.06     0.04  -0.01  -0.01
   7   6    -0.02  -0.27  -0.23     0.00  -0.05  -0.00    -0.02   0.06   0.03
   8   1    -0.01  -0.00   0.04    -0.03   0.00  -0.06    -0.00   0.05   0.00
   9   1    -0.08  -0.01  -0.01     0.04   0.00  -0.00    -0.09   0.07  -0.11
  10   1    -0.08  -0.01  -0.02     0.04   0.00  -0.00     0.08   0.07   0.12
  11   1    -0.04  -0.01  -0.02    -0.03  -0.01   0.04     0.08   0.23  -0.30
  12   1    -0.03  -0.00  -0.03    -0.02  -0.01   0.02    -0.11   0.17   0.33
  13   1     0.05   0.01   0.05    -0.10   0.00  -0.05     0.03   0.27  -0.37
  14   1     0.05   0.01   0.05    -0.08   0.01  -0.03    -0.08   0.20   0.40
  15   1     0.10   0.09   0.10    -0.14   0.05   0.05     0.04   0.11   0.26
  16   1     0.19   0.11  -0.07     0.01   0.09  -0.14    -0.08   0.15  -0.21
  17   1    -0.12  -0.01   0.07    -0.05  -0.04  -0.18    -0.02   0.03   0.06
  18   1    -0.01  -0.23  -0.14    -0.03  -0.07  -0.26    -0.00   0.00   0.02
  19   1    -0.04  -0.13  -0.07    -0.21   0.27   0.19     0.00  -0.02  -0.01
                     13                     14                     15
                        a                      a                      a 
 Frequencies --   822.4989               845.6651               918.1264
 Red. masses --     2.9910                 9.4703                 4.3597
 Frc consts  --     0.0000                 0.0000                 0.0000
 IR Inten    --     1.0352                 6.3860                 1.6943
 Raman Activ --     0.0000                 0.0000                 0.0000
 Depolar     --     0.0000                 0.0000                 0.0000
 Atom AN      X      Y      Z        X      Y      Z        X      Y      Z
   1   6     0.01  -0.08  -0.01     0.05  -0.00   0.06     0.13   0.14   0.00
   2   6     0.03  -0.22  -0.03    -0.01  -0.00  -0.01     0.07   0.04  -0.13
   3   6    -0.00   0.10   0.03    -0.10   0.00  -0.14    -0.07  -0.21   0.15
   4   6    -0.01   0.28   0.02    -0.39  -0.09   0.36    -0.14   0.21  -0.02
   5   6    -0.00  -0.03   0.06     0.14   0.14   0.10    -0.08   0.11   0.01
   6   8    -0.06   0.02   0.02     0.19   0.25   0.09     0.02   0.04   0.05
   7   6     0.03  -0.14  -0.06     0.15  -0.20  -0.44     0.08  -0.28  -0.03
   8   1    -0.00   0.12   0.02    -0.01   0.00  -0.03     0.14  -0.11   0.17
   9   1    -0.21   0.11  -0.19     0.04   0.01   0.01     0.10  -0.09   0.16
  10   1     0.17   0.11   0.21     0.05   0.00   0.02    -0.25  -0.08  -0.18
  11   1    -0.06   0.19  -0.30     0.02   0.00  -0.00     0.18   0.00   0.01
  12   1     0.03   0.15   0.32     0.03   0.00   0.00    -0.24  -0.03  -0.10
  13   1     0.18  -0.05   0.14     0.01  -0.00  -0.03     0.09   0.11  -0.12
  14   1    -0.16  -0.06  -0.14     0.01   0.00  -0.03    -0.16   0.06   0.22
  15   1     0.00  -0.12  -0.34    -0.22  -0.02   0.10     0.20  -0.02  -0.15
  16   1     0.05  -0.17   0.28    -0.21  -0.03   0.07    -0.15  -0.09   0.11
  17   1     0.06  -0.08  -0.13    -0.01  -0.00   0.06     0.09  -0.15  -0.27
  18   1     0.00   0.01  -0.04     0.05  -0.19  -0.10     0.00   0.03  -0.12
  19   1    -0.02   0.06   0.02     0.09  -0.23  -0.19    -0.07   0.17   0.11
                     16                     17                     18
                        a                      a                      a 
 Frequencies --   938.6835               974.9346               997.7372
 Red. masses --     5.6581                 4.5390                 4.6453
 Frc consts  --     0.0000                 0.0000                 0.0000
 IR Inten    --     1.1100                15.9574                12.7510
 Raman Activ --     0.0000                 0.0000                 0.0000
 Depolar     --     0.0000                 0.0000                 0.0000
 Atom AN      X      Y      Z        X      Y      Z        X      Y      Z
   1   6    -0.33   0.05   0.03    -0.12  -0.11   0.04     0.06  -0.07  -0.05
   2   6    -0.11  -0.04   0.24    -0.02   0.06   0.04    -0.01   0.08   0.02
   3   6     0.25  -0.06  -0.27     0.11   0.05  -0.04    -0.03  -0.00   0.02
   4   6     0.17   0.15   0.07    -0.14  -0.09   0.09     0.15  -0.01  -0.13
   5   6    -0.04  -0.02   0.11    -0.15   0.23  -0.23    -0.03   0.03   0.26
   6   8    -0.04   0.02   0.02     0.04  -0.03   0.05     0.06   0.16   0.07
   7   6    -0.11  -0.08  -0.08     0.18  -0.22   0.13    -0.27  -0.23  -0.16
   8   1    -0.28  -0.06  -0.40    -0.14   0.06  -0.18     0.07   0.05   0.11
   9   1     0.29  -0.01   0.10    -0.01   0.06  -0.09    -0.16   0.03  -0.10
  10   1     0.08  -0.05  -0.10     0.20   0.05   0.12     0.02   0.04   0.08
  11   1     0.22   0.02   0.09    -0.11  -0.04   0.05    -0.21  -0.05   0.03
  12   1    -0.06  -0.01   0.07     0.25   0.00  -0.01     0.11  -0.01  -0.05
  13   1     0.21   0.07  -0.14    -0.10  -0.02   0.00    -0.23  -0.01  -0.03
  14   1    -0.01   0.04   0.02     0.27   0.02  -0.00     0.13   0.01   0.02
  15   1     0.08  -0.02  -0.09     0.21   0.04   0.13     0.20   0.05   0.05
  16   1    -0.00  -0.04   0.09    -0.16   0.02  -0.06    -0.14   0.03  -0.11
  17   1     0.10  -0.07  -0.07     0.00  -0.11  -0.26     0.25  -0.20  -0.23
  18   1    -0.02   0.11   0.11     0.01  -0.02  -0.23    -0.04   0.28   0.28
  19   1     0.08  -0.06  -0.09    -0.16   0.29   0.24     0.19  -0.11  -0.19
                     19                     20                     21
                        a                      a                      a 
 Frequencies --  1066.3293              1090.4092              1100.7970
 Red. masses --     9.4719                 5.3290                 8.2100
 Frc consts  --     0.0000                 0.0000                 0.0000
 IR Inten    --     5.7201                11.9655                 4.5865
 Raman Activ --     0.0000                 0.0000                 0.0000
 Depolar     --     0.0000                 0.0000                 0.0000
 Atom AN      X      Y      Z        X      Y      Z        X      Y      Z
   1   6     0.21   0.01   0.26     0.07  -0.06   0.15    -0.18  -0.00  -0.37
   2   6    -0.20  -0.01  -0.31    -0.13   0.10  -0.15     0.41   0.04   0.28
   3   6    -0.41   0.01  -0.33    -0.01  -0.12  -0.01    -0.30  -0.05  -0.17
   4   6     0.30  -0.03   0.36    -0.01   0.28  -0.02     0.15   0.07   0.25
   5   6     0.01   0.02  -0.12     0.01  -0.19   0.24    -0.05  -0.02   0.03
   6   8    -0.01   0.00   0.04    -0.14  -0.12  -0.11    -0.04  -0.05  -0.02
   7   6    -0.05  -0.04   0.08     0.13   0.18  -0.12     0.07   0.03  -0.02
   8   1     0.02  -0.00  -0.00    -0.02   0.03  -0.03     0.02   0.01   0.04
   9   1     0.14   0.00   0.08     0.04   0.03  -0.01    -0.19  -0.01  -0.12
  10   1     0.12   0.00   0.06     0.13   0.02   0.09    -0.16   0.00  -0.09
  11   1     0.02   0.02  -0.09    -0.12  -0.04   0.01     0.17   0.00   0.10
  12   1    -0.02   0.00  -0.07     0.08  -0.01  -0.10     0.23   0.00   0.07
  13   1    -0.06  -0.00  -0.07    -0.10   0.04  -0.10    -0.25  -0.01  -0.08
  14   1    -0.11  -0.01  -0.10     0.17   0.04   0.11    -0.18   0.00  -0.02
  15   1     0.14   0.02   0.13     0.50   0.02  -0.11     0.20   0.01   0.05
  16   1     0.27   0.04   0.10    -0.23  -0.10   0.11     0.03  -0.01   0.10
  17   1     0.04  -0.05  -0.08    -0.11   0.15   0.23    -0.04   0.04   0.04
  18   1    -0.02   0.09   0.04     0.04  -0.20  -0.08     0.02  -0.07  -0.05
  19   1     0.00   0.06   0.03    -0.03  -0.12  -0.04    -0.03  -0.01   0.01
                     22                     23                     24
                        a                      a                      a 
 Frequencies --  1124.6055              1199.1660              1214.5225
 Red. masses --     7.7957                 6.5962                 8.4150
 Frc consts  --     0.0000                 0.0000                 0.0000
 IR Inten    --    19.8215                44.8818               186.4706
 Raman Activ --     0.0000                 0.0000                 0.0000
 Depolar     --     0.0000                 0.0000                 0.0000
 Atom AN      X      Y      Z        X      Y      Z        X      Y      Z
   1   6    -0.19  -0.02   0.11    -0.02   0.23   0.02     0.01   0.14  -0.05
   2   6     0.33   0.05  -0.34     0.01  -0.33  -0.03    -0.02  -0.18   0.08
   3   6    -0.31  -0.04   0.39    -0.05   0.34   0.02    -0.00   0.12  -0.06
   4   6    -0.15  -0.04  -0.16     0.07  -0.20  -0.12    -0.28   0.02   0.12
   5   6     0.11  -0.06   0.02    -0.25   0.09   0.28     0.49  -0.22  -0.38
   6   8     0.03   0.06   0.01     0.03  -0.02  -0.04    -0.07   0.02   0.04
   7   6    -0.09   0.01   0.00     0.09  -0.02  -0.10    -0.17   0.07   0.13
   8   1    -0.18   0.00  -0.25     0.01  -0.10  -0.00     0.04  -0.06   0.04
   9   1     0.18   0.04   0.02     0.15  -0.06   0.16     0.04  -0.04   0.09
  10   1     0.17  -0.01   0.01    -0.14  -0.06  -0.17    -0.13  -0.03  -0.11
  11   1     0.29   0.03  -0.06    -0.00   0.08  -0.19    -0.04   0.03  -0.07
  12   1     0.28   0.03  -0.05     0.00   0.05   0.20     0.08   0.03   0.14
  13   1    -0.00  -0.01   0.12     0.04  -0.07   0.20     0.02  -0.03   0.06
  14   1    -0.03  -0.02   0.09     0.01  -0.05  -0.20     0.13   0.00  -0.06
  15   1     0.03   0.01   0.00     0.34   0.07   0.17     0.27   0.02   0.06
  16   1     0.09   0.00  -0.02    -0.04   0.06  -0.16    -0.26  -0.07   0.06
  17   1     0.04  -0.02  -0.01    -0.01   0.01   0.00     0.02   0.00   0.02
  18   1    -0.01   0.06   0.09     0.02  -0.13  -0.09    -0.03   0.20   0.18
  19   1     0.04  -0.03  -0.05    -0.02  -0.05  -0.02     0.03   0.04  -0.00
                     25                     26                     27
                        a                      a                      a 
 Frequencies --  1245.2984              1263.2369              1280.7598
 Red. masses --     3.7603                 2.9604                 1.8467
 Frc consts  --     0.0000                 0.0000                 0.0000
 IR Inten    --     3.8622                 6.8850                 0.7275
 Raman Activ --     0.0000                 0.0000                 0.0000
 Depolar     --     0.0000                 0.0000                 0.0000
 Atom AN      X      Y      Z        X      Y      Z        X      Y      Z
   1   6    -0.07   0.18   0.11     0.03   0.16  -0.07     0.01  -0.12  -0.01
   2   6     0.14  -0.17  -0.14    -0.12  -0.15   0.07     0.02  -0.14  -0.01
   3   6     0.10  -0.06   0.09    -0.11  -0.18  -0.06    -0.01   0.19   0.02
   4   6     0.26   0.15   0.10    -0.14   0.12  -0.07    -0.03   0.07   0.01
   5   6    -0.02   0.03  -0.07    -0.07   0.02   0.07     0.01  -0.01  -0.01
   6   8    -0.04  -0.04   0.00     0.05   0.05   0.01     0.00   0.01   0.00
   7   6     0.04  -0.01   0.00     0.00  -0.01  -0.01     0.01  -0.00  -0.00
   8   1    -0.06  -0.08  -0.10     0.07  -0.07   0.08    -0.00   0.01  -0.00
   9   1     0.17  -0.02   0.13     0.04  -0.05   0.10    -0.07   0.02  -0.07
  10   1    -0.04  -0.05  -0.13    -0.12  -0.02  -0.10     0.06   0.01   0.07
  11   1    -0.30   0.01  -0.17    -0.07   0.02  -0.06     0.50   0.07  -0.00
  12   1     0.08   0.03   0.09     0.34   0.03   0.14    -0.51  -0.03   0.00
  13   1    -0.54  -0.03  -0.10    -0.01   0.03  -0.10    -0.44  -0.07   0.03
  14   1    -0.03  -0.01   0.03     0.55   0.06   0.17     0.43   0.02  -0.04
  15   1    -0.36  -0.05  -0.13    -0.11  -0.02  -0.11    -0.01  -0.00  -0.04
  16   1    -0.28  -0.04   0.01     0.49   0.03   0.13     0.04  -0.00   0.04
  17   1    -0.03   0.01  -0.01     0.01  -0.01  -0.02    -0.02   0.00  -0.02
  18   1     0.01   0.01   0.01    -0.00  -0.02  -0.03     0.00   0.02   0.02
  19   1    -0.03   0.01   0.02     0.01  -0.01  -0.01    -0.02  -0.02   0.00
                     28                     29                     30
                        a                      a                      a 
 Frequencies --  1320.1576              1357.6545              1361.2334
 Red. masses --     4.2578                 3.2561                 5.0704
 Frc consts  --     0.0000                 0.0000                 0.0000
 IR Inten    --     9.9628                54.9728                 0.4007
 Raman Activ --     0.0000                 0.0000                 0.0000
 Depolar     --     0.0000                 0.0000                 0.0000
 Atom AN      X      Y      Z        X      Y      Z        X      Y      Z
   1   6    -0.05   0.00   0.11     0.01   0.00  -0.01    -0.06  -0.01   0.07
   2   6     0.28   0.02   0.01    -0.04  -0.00  -0.01     0.40   0.02   0.10
   3   6     0.22  -0.02  -0.07     0.03  -0.00   0.02    -0.39  -0.02  -0.09
   4   6    -0.37  -0.04  -0.00    -0.00   0.01   0.03     0.15   0.02  -0.00
   5   6     0.03  -0.03   0.02     0.05  -0.03  -0.04     0.00  -0.00  -0.02
   6   8     0.04   0.06   0.01    -0.02  -0.01  -0.00    -0.01  -0.02  -0.00
   7   6    -0.02   0.01   0.01    -0.06   0.25   0.36    -0.02   0.03   0.05
   8   1    -0.10  -0.00  -0.14     0.01  -0.00   0.01    -0.07   0.00  -0.10
   9   1     0.01   0.04  -0.02    -0.00  -0.01   0.00    -0.01   0.05  -0.05
  10   1     0.00  -0.04  -0.05     0.00   0.01   0.01    -0.00  -0.04  -0.05
  11   1    -0.38  -0.03  -0.07     0.05  -0.00   0.01    -0.36  -0.00  -0.08
  12   1    -0.31  -0.02  -0.05     0.04   0.01   0.01    -0.37  -0.05  -0.08
  13   1    -0.25  -0.03  -0.06    -0.03   0.01  -0.02     0.37   0.01   0.07
  14   1    -0.22   0.00  -0.01    -0.03  -0.01  -0.02     0.37   0.04   0.07
  15   1     0.25   0.02   0.04     0.00  -0.01  -0.02    -0.08   0.00  -0.00
  16   1     0.48   0.04   0.10    -0.04   0.01  -0.01    -0.15  -0.03  -0.02
  17   1     0.01  -0.01  -0.03     0.01  -0.11  -0.52     0.02  -0.01  -0.02
  18   1    -0.00  -0.00   0.01    -0.05  -0.20  -0.40    -0.01  -0.03  -0.07
  19   1     0.01  -0.04  -0.02     0.20  -0.47  -0.22     0.04  -0.01  -0.02
                     31                     32                     33
                        a                      a                      a 
 Frequencies --  1412.3568              1434.5836              1443.9950
 Red. masses --     3.1820                 1.7777                 1.7613
 Frc consts  --     0.0000                 0.0000                 0.0000
 IR Inten    --     0.5818                27.5569                 5.6211
 Raman Activ --     0.0000                 0.0000                 0.0000
 Depolar     --     0.0000                 0.0000                 0.0000
 Atom AN      X      Y      Z        X      Y      Z        X      Y      Z
   1   6     0.34   0.01   0.27     0.01  -0.00   0.00    -0.00  -0.00  -0.00
   2   6    -0.09  -0.01  -0.00    -0.01  -0.01  -0.01     0.00   0.00  -0.00
   3   6     0.00  -0.00   0.02     0.02   0.01   0.01    -0.01  -0.00  -0.04
   4   6     0.02   0.00  -0.01    -0.02  -0.00   0.05    -0.02  -0.02   0.11
   5   6    -0.00   0.00   0.00     0.03   0.04  -0.02     0.03   0.01  -0.05
   6   8    -0.00  -0.00  -0.00    -0.04  -0.06  -0.02    -0.00   0.00   0.00
   7   6     0.00   0.00  -0.00    -0.23   0.03   0.05    -0.03   0.20  -0.08
   8   1    -0.21   0.02  -0.46    -0.00   0.00  -0.00     0.00   0.00   0.01
   9   1    -0.45   0.12  -0.22    -0.01   0.00  -0.00     0.00   0.00  -0.00
  10   1    -0.42  -0.16  -0.24    -0.01  -0.00  -0.00     0.00   0.00  -0.00
  11   1     0.10   0.04  -0.03     0.03  -0.00   0.00    -0.00  -0.01   0.01
  12   1     0.10  -0.02  -0.04     0.00   0.01   0.01    -0.00   0.01   0.01
  13   1     0.01   0.00   0.01    -0.07  -0.00  -0.01     0.02  -0.05   0.07
  14   1     0.00  -0.00   0.00    -0.01  -0.01  -0.01    -0.00   0.05   0.08
  15   1    -0.02  -0.00  -0.01     0.02  -0.04  -0.07     0.03  -0.12  -0.19
  16   1    -0.02  -0.00  -0.01     0.00   0.06  -0.06    -0.00   0.17  -0.18
  17   1    -0.00   0.00  -0.01     0.54  -0.08   0.31     0.35  -0.12  -0.18
  18   1     0.00  -0.00   0.01    -0.05  -0.32  -0.29     0.08  -0.49   0.44
  19   1    -0.01  -0.01   0.00     0.41   0.40  -0.10    -0.39  -0.10   0.16
                     34                     35                     36
                        a                      a                      a 
 Frequencies --  1456.1579              1486.9896              1493.8773
 Red. masses --     1.9114                 1.9563                 1.8128
 Frc consts  --     0.0000                 0.0000                 0.0000
 IR Inten    --     5.7767                 2.9014                 0.6220
 Raman Activ --     0.0000                 0.0000                 0.0000
 Depolar     --     0.0000                 0.0000                 0.0000
 Atom AN      X      Y      Z        X      Y      Z        X      Y      Z
   1   6    -0.00  -0.00   0.01    -0.00   0.01  -0.03     0.01  -0.01   0.03
   2   6     0.01   0.00  -0.01     0.02  -0.01   0.11     0.05   0.02  -0.25
   3   6    -0.03  -0.00   0.03    -0.04  -0.02   0.26    -0.04  -0.01   0.08
   4   6    -0.05  -0.04   0.25    -0.02  -0.01   0.01     0.01   0.00  -0.01
   5   6    -0.00  -0.04   0.01     0.01   0.00  -0.01     0.00   0.01   0.00
   6   8     0.02   0.03   0.01    -0.00  -0.00  -0.00    -0.00  -0.00  -0.00
   7   6     0.03  -0.08   0.01    -0.00   0.02  -0.02     0.00   0.01  -0.01
   8   1     0.00   0.00   0.00    -0.02  -0.01  -0.03    -0.00   0.01  -0.00
   9   1     0.00   0.01  -0.01    -0.02  -0.07   0.07    -0.01   0.07  -0.08
  10   1     0.00  -0.01  -0.01    -0.02   0.05   0.08    -0.01  -0.05  -0.08
  11   1    -0.00  -0.03   0.03    -0.01   0.15  -0.18    -0.05  -0.41   0.46
  12   1    -0.01   0.02   0.03     0.01  -0.12  -0.20    -0.12   0.32   0.52
  13   1     0.03   0.03  -0.03     0.04   0.41  -0.46     0.04   0.16  -0.18
  14   1     0.02  -0.03  -0.04     0.10  -0.32  -0.52     0.07  -0.12  -0.20
  15   1     0.14  -0.30  -0.52     0.01   0.00   0.01    -0.01   0.02   0.04
  16   1     0.02   0.44  -0.46     0.02   0.00   0.01     0.00  -0.03   0.04
  17   1    -0.21   0.07   0.06     0.05  -0.02  -0.02     0.02  -0.01  -0.01
  18   1    -0.02   0.24  -0.11     0.01  -0.06   0.07     0.01  -0.03   0.03
  19   1     0.09  -0.00  -0.04    -0.07  -0.01   0.03    -0.03  -0.00   0.01
                     37                     38                     39
                        a                      a                      a 
 Frequencies --  1499.0846              1501.4022              1697.3160
 Red. masses --     1.5343                 1.6075                13.2187
 Frc consts  --     0.0000                 0.0000                 0.0000
 IR Inten    --     1.4101                 0.7983               599.5361
 Raman Activ --     0.0000                 0.0000                 0.0000
 Depolar     --     0.0000                 0.0000                 0.0000
 Atom AN      X      Y      Z        X      Y      Z        X      Y      Z
   1   6    -0.02  -0.21   0.03     0.13  -0.04  -0.16    -0.00  -0.00   0.00
   2   6    -0.02  -0.05   0.02     0.06  -0.00  -0.07    -0.00  -0.00  -0.00
   3   6     0.01   0.00   0.01    -0.02   0.00  -0.02     0.02   0.01   0.01
   4   6    -0.00   0.00   0.00     0.01   0.00   0.00     0.04   0.03  -0.01
   5   6     0.00  -0.00  -0.00    -0.00  -0.00   0.00    -0.45  -0.59  -0.25
   6   8     0.00   0.00   0.00     0.00   0.00   0.00     0.35   0.45   0.18
   7   6     0.00   0.00  -0.00     0.00  -0.00   0.00     0.01   0.05   0.03
   8   1    -0.02   0.68   0.14    -0.15   0.21  -0.27    -0.00  -0.00  -0.00
   9   1     0.48   0.23  -0.19    -0.04  -0.37   0.41     0.00   0.00  -0.00
  10   1    -0.38  -0.05  -0.06    -0.35   0.30   0.51     0.00  -0.00  -0.00
  11   1    -0.00   0.03  -0.05    -0.04  -0.07   0.06     0.00  -0.00   0.00
  12   1     0.03  -0.02  -0.01    -0.05   0.05   0.08     0.00   0.00   0.00
  13   1    -0.02   0.01  -0.02    -0.00  -0.04   0.05     0.00   0.00  -0.00
  14   1     0.02  -0.01  -0.02     0.00   0.03   0.05    -0.01  -0.01  -0.01
  15   1    -0.00   0.00   0.00    -0.00  -0.00  -0.01     0.03   0.00   0.01
  16   1     0.00  -0.00   0.00    -0.00   0.01  -0.01    -0.07  -0.03   0.01
  17   1     0.00  -0.00  -0.00    -0.01   0.00   0.00     0.02   0.01   0.06
  18   1     0.00  -0.00   0.00    -0.00   0.01  -0.01    -0.00  -0.07  -0.04
  19   1    -0.00  -0.00   0.00     0.01   0.00  -0.00     0.00   0.04   0.01
                     40                     41                     42
                        a                      a                      a 
 Frequencies --  2962.6463              2966.7759              2975.6426
 Red. masses --     1.8558                 1.8924                 1.8467
 Frc consts  --     0.0000                 0.0000                 0.0000
 IR Inten    --    15.6813                 7.8542               115.7794
 Raman Activ --     0.0000                 0.0000                 0.0000
 Depolar     --     0.0000                 0.0000                 0.0000
 Atom AN      X      Y      Z        X      Y      Z        X      Y      Z
   1   6     0.00  -0.01  -0.00    -0.00   0.01  -0.00     0.00  -0.01   0.00
   2   6    -0.02   0.18   0.02     0.02  -0.20  -0.01    -0.01   0.11   0.04
   3   6     0.00  -0.15   0.04    -0.00  -0.01   0.01    -0.00   0.21  -0.09
   4   6    -0.01   0.14  -0.04    -0.01   0.19  -0.06    -0.00   0.09  -0.05
   5   6     0.00   0.01  -0.00     0.00   0.01  -0.00     0.00   0.00  -0.00
   6   8    -0.00  -0.00  -0.00    -0.00  -0.00  -0.00    -0.00  -0.00  -0.00
   7   6    -0.00  -0.00   0.00    -0.00  -0.00   0.00    -0.00  -0.00   0.00
   8   1    -0.00  -0.00   0.00    -0.00   0.00   0.00    -0.00  -0.00   0.00
   9   1    -0.00   0.03   0.03     0.00  -0.03  -0.03    -0.00   0.02   0.02
  10   1    -0.00   0.03  -0.02     0.00  -0.04   0.03     0.00   0.03  -0.02
  11   1     0.07  -0.32  -0.29    -0.07   0.32   0.29     0.06  -0.28  -0.24
  12   1    -0.01  -0.35   0.22     0.01   0.39  -0.25    -0.00  -0.11   0.08
  13   1    -0.03   0.12   0.13     0.00  -0.02  -0.01     0.02  -0.06  -0.09
  14   1     0.00   0.43  -0.27    -0.00   0.05  -0.03    -0.01  -0.67   0.40
  15   1     0.01  -0.44   0.24     0.01  -0.62   0.33     0.01  -0.34   0.18
  16   1     0.02  -0.07  -0.09     0.02  -0.07  -0.09    -0.00   0.03   0.01
  17   1     0.00   0.01  -0.00     0.00   0.02  -0.00     0.00   0.01  -0.00
  18   1     0.00  -0.00  -0.00     0.00  -0.00   0.00    -0.00  -0.00   0.00
  19   1     0.00  -0.00  -0.00    -0.00  -0.00  -0.00    -0.00   0.00  -0.00
                     43                     44                     45
                        a                      a                      a 
 Frequencies --  2982.8257              2988.8012              2999.7547
 Red. masses --     1.5139                 1.6062                 1.6788
 Frc consts  --     0.0000                 0.0000                 0.0000
 IR Inten    --    60.6912                23.1675                93.1270
 Raman Activ --     0.0000                 0.0000                 0.0000
 Depolar     --     0.0000                 0.0000                 0.0000
 Atom AN      X      Y      Z        X      Y      Z        X      Y      Z
   1   6    -0.02  -0.01   0.01    -0.00  -0.00  -0.00     0.01  -0.00  -0.02
   2   6     0.03   0.04  -0.19     0.00   0.01  -0.03    -0.01   0.03   0.03
   3   6    -0.00   0.05  -0.01    -0.01   0.03   0.07    -0.03   0.14   0.17
   4   6    -0.01   0.05   0.02     0.04  -0.13  -0.17    -0.02   0.06   0.07
   5   6    -0.00   0.00   0.00     0.00  -0.01  -0.01    -0.00   0.00   0.00
   6   8    -0.00  -0.00  -0.00     0.00   0.00   0.00     0.00  -0.00  -0.00
   7   6    -0.00  -0.00  -0.00    -0.00   0.00   0.00    -0.01   0.00  -0.01
   8   1     0.05   0.01  -0.03     0.01   0.00  -0.00    -0.03  -0.00   0.01
   9   1    -0.00  -0.02  -0.02    -0.00   0.01   0.01    -0.01   0.04   0.03
  10   1    -0.00   0.04  -0.02    -0.00  -0.00   0.00     0.00  -0.02   0.01
  11   1    -0.09   0.49   0.37    -0.02   0.07   0.05     0.02  -0.10  -0.08
  12   1    -0.00  -0.62   0.34    -0.00  -0.11   0.06    -0.00   0.02  -0.01
  13   1     0.01  -0.05  -0.05     0.05  -0.25  -0.20     0.13  -0.68  -0.54
  14   1     0.00  -0.11   0.06    -0.00   0.12  -0.06    -0.00   0.17  -0.06
  15   1     0.00  -0.05   0.03     0.01  -0.17   0.06    -0.00   0.03  -0.01
  16   1     0.04  -0.13  -0.12    -0.16   0.64   0.57     0.06  -0.24  -0.22
  17   1     0.00   0.00  -0.00    -0.00   0.00   0.00     0.00   0.01  -0.00
  18   1     0.00   0.00  -0.00     0.00  -0.00  -0.00     0.01   0.00  -0.00
  19   1     0.00  -0.00   0.01    -0.00   0.00  -0.00     0.03  -0.02   0.05
                     46                     47                     48
                        a                      a                      a 
 Frequencies --  3022.3779              3027.8186              3032.0169
 Red. masses --     1.7845                 1.9474                 1.8743
 Frc consts  --     0.0000                 0.0000                 0.0000
 IR Inten    --     2.0037                87.2194                83.0006
 Raman Activ --     0.0000                 0.0000                 0.0000
 Depolar     --     0.0000                 0.0000                 0.0000
 Atom AN      X      Y      Z        X      Y      Z        X      Y      Z
   1   6     0.00  -0.00  -0.00    -0.00  -0.29   0.03    -0.15   0.03   0.23
   2   6    -0.00   0.00  -0.00     0.00  -0.04   0.00    -0.01   0.01   0.02
   3   6    -0.00   0.01   0.01     0.00  -0.00   0.00    -0.00   0.00   0.01
   4   6    -0.00   0.00   0.01    -0.00  -0.00  -0.00    -0.00   0.00   0.00
   5   6     0.00   0.00   0.01     0.00  -0.00  -0.00     0.00   0.00   0.00
   6   8    -0.00  -0.00  -0.00    -0.00  -0.00   0.00    -0.00  -0.00  -0.00
   7   6     0.13  -0.09   0.21    -0.00  -0.00  -0.00     0.00  -0.00   0.00
   8   1    -0.01  -0.00   0.00     0.09  -0.03  -0.04     0.48   0.07  -0.23
   9   1    -0.00   0.01   0.01    -0.08   0.38   0.36     0.08  -0.54  -0.42
  10   1     0.00  -0.00   0.00    -0.00   0.67  -0.41    -0.02   0.36  -0.17
  11   1     0.00  -0.00  -0.00    -0.01   0.04   0.03     0.01  -0.05  -0.04
  12   1    -0.00  -0.00   0.00     0.00   0.06  -0.04     0.00   0.04  -0.02
  13   1     0.01  -0.04  -0.03    -0.00   0.00   0.00     0.01  -0.04  -0.03
  14   1    -0.00   0.01  -0.00     0.00   0.01  -0.01     0.00   0.03  -0.01
  15   1     0.00   0.00  -0.00    -0.00   0.00  -0.00    -0.00   0.00  -0.00
  16   1     0.00  -0.02  -0.02     0.00   0.00   0.00     0.00  -0.00  -0.00
  17   1     0.04   0.06   0.01     0.00   0.00  -0.00     0.00   0.01  -0.00
  18   1    -0.06  -0.02   0.04    -0.00  -0.00  -0.00     0.00  -0.00  -0.00
  19   1    -0.43   0.26  -0.81     0.00  -0.00   0.00    -0.01   0.00  -0.01
                     49                     50                     51
                        a                      a                      a 
 Frequencies --  3041.7469              3051.8015              3059.9044
 Red. masses --     1.3226                 1.4036                 1.9791
 Frc consts  --     0.0000                 0.0000                 0.0000
 IR Inten    --    44.9161                 7.5895                19.0222
 Raman Activ --     0.0000                 0.0000                 0.0000
 Depolar     --     0.0000                 0.0000                 0.0000
 Atom AN      X      Y      Z        X      Y      Z        X      Y      Z
   1   6    -0.17  -0.02  -0.02    -0.00   0.00  -0.00     0.00   0.00  -0.00
   2   6    -0.01  -0.00   0.00    -0.00   0.00   0.00    -0.00  -0.00   0.00
   3   6     0.00   0.00  -0.00    -0.00  -0.00   0.00     0.00  -0.00  -0.00
   4   6    -0.00   0.00   0.00    -0.00  -0.00   0.00     0.00  -0.00   0.00
   5   6     0.00   0.00  -0.00     0.00  -0.01  -0.00    -0.01  -0.01   0.00
   6   8    -0.00  -0.00  -0.00     0.00   0.00   0.00     0.00   0.00   0.00
   7   6    -0.00   0.00  -0.00     0.13  -0.13  -0.01    -0.22  -0.19   0.07
   8   1     0.69   0.09  -0.38     0.01   0.00  -0.00    -0.00  -0.00   0.00
   9   1    -0.08   0.32   0.27    -0.00   0.00   0.00    -0.00   0.00   0.00
  10   1    -0.02  -0.34   0.20    -0.00  -0.00   0.00     0.00  -0.00   0.00
  11   1     0.00  -0.01  -0.01     0.00  -0.00  -0.00    -0.00   0.00   0.00
  12   1    -0.00   0.02  -0.01    -0.00   0.00  -0.00     0.00   0.00  -0.00
  13   1    -0.00   0.00   0.00     0.00  -0.00   0.00     0.00   0.01   0.01
  14   1    -0.00  -0.01   0.00    -0.00   0.00  -0.00    -0.00  -0.00   0.00
  15   1     0.00   0.00  -0.00    -0.00   0.01  -0.01    -0.00   0.02  -0.01
  16   1     0.00  -0.00  -0.00    -0.00   0.00   0.00    -0.00   0.00   0.00
  17   1    -0.00  -0.01   0.00     0.19   0.58  -0.15     0.18   0.68  -0.17
  18   1     0.01   0.00  -0.00    -0.73  -0.06   0.10     0.61   0.02  -0.07
  19   1     0.00  -0.00   0.00     0.07  -0.05   0.09    -0.03  -0.03   0.01
