! r2scan-3c def2/J RI DEFGRID2 scfconv6 printgap
%output
    printlevel normal
end
%cpcm
    smd true
    smdsolvent "water"
end
* xyz 0 1
C -3.5873156647 -0.9062031459 0.6281057848
C -2.6699320837 -0.003019313 -0.1877812756
C -1.2056389583 -0.1904644827 0.2037757607
C -0.2893023242 0.7213902626 -0.6133776802
C 1.1678166737 0.5872808027 -0.2545507337
O 1.9498831783 1.5170701465 -0.2318343562
O 1.5076893424 -0.6639297263 0.0197644177
C 2.8653325402 -0.9560471741 0.3634291964
H -3.3294100676 -1.9510424037 0.4728127551
H -3.4947565865 -0.6849074764 1.6887718245
H -4.6239218666 -0.7602129859 0.3358662734
H -2.7914984108 -0.2262737956 -1.2494356497
H -2.9548575311 1.0395020655 -0.0323848849
H -0.9140038453 -1.2294354215 0.0461281853
H -1.0833374321 0.033396196 1.2654375185
H -0.5648976639 1.7696253418 -0.4898855118
H -0.3800216152 0.4739313192 -1.6741879569
H 3.4052134361 -0.030153449 0.5647247374
H 3.3252861737 -1.4837071488 -0.4710511086
H 2.8399800425 -1.5908259657 1.2459952985
*
