 Entering Gaussian System
 *********************************************
 Gaussian 98:
 frequency output generated by the xtb code
 *********************************************
                         Standard orientation:
 --------------------------------------------------------------------
  Center     Atomic     Atomic              Coordinates (Angstroms)
  Number     Number      Type              X           Y           Z
 --------------------------------------------------------------------
    1          6             0        4.020578    0.040289    0.265147
    2          6             0        2.657535    0.349931   -0.265251
    3          8             0        2.270550    1.439889   -0.625829
    4          8             0        1.895816   -0.748147   -0.322170
    5          6             0        0.578154   -0.625633   -0.849234
    6          6             0       -0.387285   -0.114764    0.219087
    7          8             0       -1.697826   -0.126427   -0.342179
    8          6             0       -2.732729   -0.027754    0.495724
    9          8             0       -2.599291    0.054678    1.697764
   10          6             0       -4.034724   -0.024225   -0.239856
   11          1             0        4.470468    0.941201    0.669166
   12          1             0        4.634097   -0.321559   -0.557463
   13          1             0        3.955617   -0.740637    1.015421
   14          1             0        0.580465    0.064952   -1.697863
   15          1             0        0.293177   -1.627304   -1.171032
   16          1             0       -0.127849    0.907880    0.514767
   17          1             0       -0.363084   -0.753641    1.108764
   18          1             0       -4.797425   -0.503364    0.365814
   19          1             0       -3.919652   -0.518082   -1.198470
   20          1             0       -4.329265    1.009881   -0.407203
 --------------------------------------------------------------------
     1 basis functions        1 primitive gaussians
     1 alpha electrons        1 beta electrons
 
 Harmonic frequencies (cm**-1), IR intensities (km*mol⁻¹),
 Raman scattering activities (A**4/amu), Raman depolarization ratios,
 reduced masses (AMU), force constants (mDyne/A) and normal coordinates:
                      1                      2                      3
                        a                      a                      a 
 Frequencies --    25.6781                46.5244                60.0315
 Red. masses --    14.5971                10.1526                11.3907
 Frc consts  --     0.0000                 0.0000                 0.0000
 IR Inten    --     6.1014                 3.6738                 1.8107
 Raman Activ --     0.0000                 0.0000                 0.0000
 Depolar     --     0.0000                 0.0000                 0.0000
 Atom AN      X      Y      Z        X      Y      Z        X      Y      Z
   1   6     0.02  -0.02   0.03    -0.02  -0.27   0.12    -0.08   0.11  -0.02
   2   6     0.05  -0.03  -0.07     0.05  -0.06   0.05    -0.16  -0.05   0.08
   3   8     0.19  -0.10  -0.42     0.26   0.01   0.09    -0.43  -0.07   0.33
   4   8    -0.05   0.03   0.24    -0.10   0.05  -0.07     0.04  -0.20  -0.09
   5   6    -0.03   0.01   0.16    -0.04   0.23  -0.13     0.00  -0.27  -0.02
   6   6    -0.01   0.31   0.04    -0.03   0.37  -0.18     0.11   0.27  -0.18
   7   8     0.01   0.41   0.01    -0.09   0.06  -0.07     0.09   0.25  -0.11
   8   6    -0.04  -0.08   0.01    -0.02  -0.05   0.02     0.12   0.04  -0.02
   9   8    -0.13  -0.57   0.05     0.09   0.20  -0.00     0.21  -0.09  -0.02
  10   6    -0.01   0.03  -0.05    -0.09  -0.49   0.15     0.08  -0.01   0.06
  11   1     0.01   0.00  -0.01     0.02  -0.10   0.05     0.01   0.07  -0.13
  12   1     0.01  -0.03   0.03    -0.01  -0.09   0.04    -0.07  -0.09   0.01
  13   1    -0.01   0.02   0.03    -0.05  -0.08   0.03     0.00   0.12   0.09
  14   1     0.01  -0.05   0.00     0.03   0.06  -0.04    -0.00  -0.18  -0.09
  15   1    -0.03  -0.01   0.10    -0.05   0.08  -0.03    -0.03  -0.11   0.12
  16   1     0.03   0.10  -0.05    -0.04   0.13  -0.12     0.07   0.11  -0.18
  17   1    -0.03   0.14   0.05     0.04   0.16  -0.01     0.02   0.18   0.02
  18   1    -0.02   0.01  -0.03     0.03  -0.17   0.09     0.02   0.06   0.06
  19   1     0.00   0.02  -0.02    -0.02  -0.17   0.06    -0.01  -0.07   0.05
  20   1     0.02   0.01  -0.01    -0.11  -0.17   0.01     0.06  -0.01  -0.06
                      4                      5                      6
                        a                      a                      a 
 Frequencies --    57.2688                63.8400                52.2604
 Red. masses --     5.7605                 6.7677                 1.1909
 Frc consts  --     0.0000                 0.0000                 0.0000
 IR Inten    --     4.1667                 4.8506                 1.8829
 Raman Activ --     0.0000                 0.0000                 0.0000
 Depolar     --     0.0000                 0.0000                 0.0000
 Atom AN      X      Y      Z        X      Y      Z        X      Y      Z
   1   6     0.16  -0.04  -0.36     0.19  -0.12  -0.39     0.01   0.01  -0.04
   2   6     0.02  -0.04   0.01     0.08   0.01  -0.02    -0.00  -0.01  -0.00
   3   8    -0.11  -0.02   0.20     0.05   0.08   0.24    -0.03  -0.01   0.02
   4   8     0.03  -0.05   0.11     0.02   0.05   0.04     0.01  -0.02   0.01
   5   6    -0.01  -0.08   0.18    -0.01   0.10   0.14     0.00  -0.03   0.03
   6   6     0.02   0.15   0.10    -0.02   0.03   0.17     0.01   0.00   0.02
   7   8     0.04   0.10   0.05     0.01  -0.01   0.10     0.02   0.03   0.01
   8   6    -0.03   0.03  -0.04    -0.08  -0.03  -0.02     0.00   0.03  -0.02
   9   8    -0.16   0.10  -0.03    -0.26   0.02  -0.01    -0.02   0.06  -0.02
  10   6     0.03  -0.14  -0.14     0.00  -0.11  -0.18     0.01  -0.03  -0.03
  11   1    -0.07  -0.09   0.20     0.23   0.01  -0.40     0.09   0.05  -0.22
  12   1     0.09   0.38  -0.24    -0.11  -0.35  -0.10    -0.07  -0.23   0.04
  13   1     0.16  -0.28  -0.38     0.05   0.17   0.10    -0.02   0.16   0.16
  14   1    -0.01  -0.06   0.02    -0.02   0.04   0.05    -0.00  -0.01   0.00
  15   1    -0.02  -0.03   0.10    -0.01   0.03   0.03    -0.00  -0.01   0.02
  16   1     0.01   0.06  -0.03    -0.02   0.01   0.06     0.01   0.00   0.00
  17   1    -0.01   0.09   0.06    -0.01  -0.00   0.04    -0.00   0.00   0.01
  18   1     0.04  -0.17  -0.10    -0.05   0.12  -0.01     0.13  -0.47  -0.21
  19   1     0.07   0.06  -0.08     0.00  -0.19   0.03     0.13   0.43  -0.22
  20   1    -0.09  -0.05   0.05     0.09  -0.04  -0.23    -0.28  -0.01   0.46
                      7                      8                      9
                        a                      a                      a 
 Frequencies --   149.9450               194.3824               259.0265
 Red. masses --    12.1862                10.6299                10.9836
 Frc consts  --     0.0000                 0.0000                 0.0000
 IR Inten    --     2.3979                 5.5458                13.2501
 Raman Activ --     0.0000                 0.0000                 0.0000
 Depolar     --     0.0000                 0.0000                 0.0000
 Atom AN      X      Y      Z        X      Y      Z        X      Y      Z
   1   6    -0.18   0.01   0.19    -0.02  -0.04   0.06    -0.03   0.07  -0.08
   2   6    -0.07  -0.05  -0.12     0.03   0.02  -0.05    -0.12  -0.15   0.08
   3   8    -0.10  -0.05  -0.09     0.07   0.06   0.02    -0.31  -0.30  -0.10
   4   8     0.02  -0.11  -0.43     0.05   0.02  -0.19    -0.19  -0.14   0.25
   5   6    -0.08   0.05  -0.06    -0.01  -0.01  -0.03     0.02   0.47  -0.04
   6   6     0.17  -0.03   0.23     0.09   0.34  -0.09     0.02   0.16   0.05
   7   8     0.20   0.25   0.29    -0.03  -0.54   0.20     0.10  -0.18   0.00
   8   6     0.05   0.07   0.09    -0.04  -0.15   0.10     0.11  -0.07  -0.01
   9   8    -0.25   0.10   0.13    -0.22  -0.04   0.13     0.19  -0.01  -0.02
  10   6     0.22  -0.21  -0.23     0.08   0.25  -0.12     0.18   0.03  -0.10
  11   1    -0.09   0.01   0.09    -0.01  -0.02   0.04    -0.03   0.05  -0.06
  12   1     0.02   0.01   0.10     0.02  -0.01   0.03    -0.03   0.04  -0.04
  13   1    -0.10   0.00   0.05    -0.04  -0.02   0.01     0.06   0.03  -0.01
  14   1    -0.07   0.05   0.01    -0.02  -0.08  -0.07     0.13   0.27   0.10
  15   1    -0.06   0.03  -0.04    -0.03  -0.03   0.09    -0.08   0.22  -0.19
  16   1     0.10  -0.03   0.11    -0.07   0.18  -0.24    -0.07   0.05   0.06
  17   1     0.05  -0.06   0.03     0.15   0.26   0.09     0.06   0.01  -0.01
  18   1     0.04  -0.07  -0.11    -0.05   0.08  -0.11     0.02   0.02  -0.06
  19   1     0.16  -0.09  -0.04     0.04   0.13  -0.06     0.08   0.03  -0.03
  20   1     0.03  -0.08  -0.13     0.11   0.11   0.03     0.08   0.02  -0.02
                     10                     11                     12
                        a                      a                      a 
 Frequencies --   275.4967               332.0686               404.9342
 Red. masses --    11.2896                11.2345                10.7926
 Frc consts  --     0.0000                 0.0000                 0.0000
 IR Inten    --    10.8153                22.0948                22.0001
 Raman Activ --     0.0000                 0.0000                 0.0000
 Depolar     --     0.0000                 0.0000                 0.0000
 Atom AN      X      Y      Z        X      Y      Z        X      Y      Z
   1   6     0.29   0.33   0.06    -0.02  -0.05  -0.07    -0.13  -0.24   0.00
   2   6     0.18  -0.20   0.02    -0.07   0.07   0.14    -0.01   0.16  -0.01
   3   8     0.02  -0.28   0.07    -0.01   0.04  -0.04    -0.34   0.02  -0.14
   4   8     0.21  -0.25  -0.13    -0.11   0.09   0.35     0.21   0.04   0.10
   5   6     0.15   0.10  -0.15     0.14  -0.12  -0.38     0.29   0.07  -0.02
   6   6     0.02   0.03  -0.14     0.09  -0.15  -0.40     0.27   0.02   0.02
   7   8    -0.14   0.09   0.04    -0.10   0.12   0.13     0.24  -0.02   0.04
   8   6    -0.17   0.04   0.03    -0.01   0.06   0.23     0.04  -0.01  -0.16
   9   8    -0.34   0.02   0.06    -0.19   0.03   0.28    -0.34   0.00  -0.14
  10   6    -0.24   0.01   0.12     0.17  -0.04  -0.11    -0.18   0.03   0.21
  11   1    -0.03   0.18  -0.04     0.05  -0.04  -0.03     0.09  -0.16   0.07
  12   1     0.13   0.13   0.04    -0.08  -0.02  -0.07    -0.08  -0.12  -0.01
  13   1     0.19   0.13   0.07     0.01  -0.03  -0.04    -0.17  -0.11  -0.05
  14   1     0.10   0.08   0.00     0.13  -0.03  -0.10     0.11   0.05   0.02
  15   1     0.02   0.06  -0.11     0.11  -0.04  -0.14     0.07   0.04  -0.05
  16   1     0.00   0.00  -0.03     0.10  -0.06  -0.11     0.07   0.01   0.00
  17   1     0.02  -0.01  -0.05     0.09  -0.06  -0.13     0.10   0.00   0.00
  18   1    -0.04   0.01   0.07    -0.00  -0.03  -0.11     0.04   0.02   0.19
  19   1    -0.11  -0.01   0.04     0.16  -0.02  -0.02    -0.22   0.00   0.05
  20   1    -0.08  -0.00   0.04     0.04  -0.02  -0.08    -0.07   0.01   0.12
                     13                     14                     15
                        a                      a                      a 
 Frequencies --   484.1926               577.8130               584.0377
 Red. masses --    11.7607                 9.6932                10.1274
 Frc consts  --     0.0000                 0.0000                 0.0000
 IR Inten    --     2.9543                17.5902                22.4343
 Raman Activ --     0.0000                 0.0000                 0.0000
 Depolar     --     0.0000                 0.0000                 0.0000
 Atom AN      X      Y      Z        X      Y      Z        X      Y      Z
   1   6     0.10  -0.17   0.08    -0.01   0.00   0.00    -0.01   0.01  -0.05
   2   6     0.21   0.11  -0.16    -0.05   0.02   0.12     0.19  -0.15  -0.63
   3   8    -0.38  -0.06  -0.06     0.03  -0.01  -0.05    -0.05   0.07   0.28
   4   8     0.37   0.02  -0.06     0.02  -0.02  -0.05    -0.19   0.07   0.29
   5   6     0.19   0.08   0.17     0.01   0.01  -0.00    -0.04  -0.00  -0.02
   6   6    -0.22   0.01  -0.06     0.03   0.00   0.03     0.01  -0.02  -0.06
   7   8    -0.33   0.05  -0.08    -0.00  -0.27   0.08     0.06  -0.07  -0.03
   8   6    -0.14   0.05   0.17    -0.01   0.71  -0.05     0.09   0.14  -0.03
   9   8     0.21  -0.01   0.16     0.07  -0.31   0.01    -0.11  -0.06   0.00
  10   6     0.00  -0.01  -0.14    -0.08   0.04  -0.05     0.09   0.01   0.06
  11   1     0.09  -0.12   0.11     0.03  -0.01  -0.02    -0.19   0.06   0.07
  12   1     0.08  -0.11   0.09    -0.06   0.01  -0.05     0.29  -0.04   0.23
  13   1    -0.16  -0.07  -0.01     0.04  -0.01  -0.01    -0.21   0.08   0.05
  14   1     0.06   0.03   0.05     0.00   0.01   0.00     0.02   0.01   0.00
  15   1     0.08   0.02   0.03    -0.01   0.01  -0.00    -0.00   0.00  -0.02
  16   1    -0.10   0.01   0.01    -0.03   0.03  -0.05     0.01  -0.01  -0.02
  17   1    -0.11   0.00  -0.02     0.06   0.04   0.04     0.02  -0.00  -0.01
  18   1    -0.08  -0.02  -0.16     0.14  -0.13   0.08     0.08  -0.02   0.07
  19   1     0.16  -0.01  -0.02     0.11  -0.14   0.08     0.01  -0.03   0.03
  20   1     0.01  -0.01  -0.10    -0.35  -0.12  -0.20    -0.05  -0.02  -0.00
                     16                     17                     18
                        a                      a                      a 
 Frequencies --   630.6654               645.2985               795.9296
 Red. masses --    11.8421                11.9492                 3.1543
 Frc consts  --     0.0000                 0.0000                 0.0000
 IR Inten    --    19.9605                 5.0782                 9.9446
 Raman Activ --     0.0000                 0.0000                 0.0000
 Depolar     --     0.0000                 0.0000                 0.0000
 Atom AN      X      Y      Z        X      Y      Z        X      Y      Z
   1   6     0.17  -0.03   0.08     0.43  -0.08   0.14    -0.16   0.00  -0.05
   2   6     0.06   0.04   0.14     0.20   0.03   0.08    -0.03  -0.09  -0.01
   3   8    -0.12  -0.11  -0.08    -0.30  -0.21  -0.06     0.05  -0.09   0.04
   4   8    -0.03   0.12  -0.13    -0.24   0.38  -0.01     0.04   0.05   0.01
   5   6    -0.13   0.05   0.08    -0.26  -0.00  -0.22     0.15   0.22  -0.01
   6   6    -0.24  -0.01  -0.08     0.11  -0.02   0.05     0.07   0.18  -0.07
   7   8    -0.01  -0.07  -0.34     0.10   0.00   0.20     0.00  -0.07  -0.05
   8   6     0.29   0.09  -0.01    -0.05  -0.03  -0.05    -0.02   0.01   0.04
   9   8    -0.40  -0.02   0.08     0.13  -0.01  -0.09    -0.01  -0.00   0.05
  10   6     0.45  -0.01   0.23    -0.14   0.01  -0.07    -0.05   0.01  -0.01
  11   1     0.09  -0.03   0.02     0.14  -0.04   0.06    -0.09   0.03  -0.04
  12   1    -0.00  -0.01  -0.02     0.13  -0.03   0.05    -0.03   0.02  -0.02
  13   1     0.07  -0.02   0.01     0.09  -0.02   0.04    -0.00   0.01  -0.00
  14   1    -0.10  -0.03  -0.01    -0.17  -0.11  -0.14     0.05  -0.31  -0.30
  15   1    -0.01  -0.01   0.08     0.01  -0.08   0.10    -0.04  -0.07   0.46
  16   1    -0.11  -0.01   0.02     0.07  -0.02   0.02    -0.13  -0.05   0.42
  17   1    -0.14  -0.02  -0.03     0.11  -0.04  -0.01     0.09  -0.33  -0.28
  18   1     0.19  -0.01   0.14    -0.03   0.00  -0.01    -0.03  -0.01  -0.03
  19   1     0.07  -0.01   0.07    -0.06   0.00  -0.02     0.02  -0.00   0.00
  20   1     0.09  -0.01   0.08    -0.04   0.00  -0.01    -0.02  -0.00  -0.02
                     19                     20                     21
                        a                      a                      a 
 Frequencies --   882.5788               932.1417               987.8535
 Red. masses --    10.2638                12.0227                 7.0989
 Frc consts  --     0.0000                 0.0000                 0.0000
 IR Inten    --    29.4823                35.7835                12.9030
 Raman Activ --     0.0000                 0.0000                 0.0000
 Depolar     --     0.0000                 0.0000                 0.0000
 Atom AN      X      Y      Z        X      Y      Z        X      Y      Z
   1   6    -0.28  -0.10  -0.08     0.13  -0.03   0.04     0.22  -0.32  -0.06
   2   6    -0.00  -0.23   0.04    -0.06   0.03  -0.00    -0.30   0.05   0.12
   3   8     0.02  -0.33   0.07    -0.03   0.09  -0.03    -0.07   0.22  -0.12
   4   8     0.01   0.54  -0.13    -0.16  -0.04  -0.02    -0.05  -0.04  -0.08
   5   6     0.25   0.07   0.14    -0.04  -0.03   0.11     0.13  -0.01   0.13
   6   6     0.04  -0.14   0.00     0.28   0.00   0.02    -0.09   0.01  -0.12
   7   8     0.02   0.04  -0.08     0.28  -0.08  -0.55     0.02   0.03   0.09
   8   6    -0.00  -0.01   0.03     0.03  -0.00   0.20     0.12  -0.12   0.04
   9   8    -0.01   0.01   0.05    -0.08   0.03   0.32     0.03   0.03   0.12
  10   6    -0.05   0.00  -0.00    -0.33   0.02   0.03    -0.02   0.09  -0.23
  11   1    -0.27   0.12  -0.13     0.03  -0.01   0.02    -0.28   0.11  -0.05
  12   1    -0.03   0.08  -0.03     0.05  -0.01   0.02     0.35   0.03   0.16
  13   1     0.11   0.03   0.05     0.04   0.00   0.02     0.20   0.08   0.16
  14   1    -0.12   0.05   0.06    -0.05   0.05   0.07     0.09   0.00   0.03
  15   1     0.31  -0.05   0.03    -0.09   0.04  -0.03    -0.00   0.02   0.01
  16   1     0.05   0.01  -0.18     0.09  -0.01   0.02    -0.06  -0.00   0.02
  17   1    -0.05   0.13   0.12    -0.03  -0.01  -0.00    -0.03  -0.03  -0.05
  18   1    -0.03  -0.00  -0.03    -0.25  -0.03  -0.22     0.18  -0.02   0.15
  19   1     0.02   0.00   0.00     0.15   0.01   0.03    -0.23  -0.06  -0.04
  20   1    -0.01  -0.00  -0.02    -0.07  -0.01  -0.13    -0.18  -0.02  -0.01
                     22                     23                     24
                        a                      a                      a 
 Frequencies --   988.7159              1003.0397              1003.7261
 Red. masses --     7.5991                 5.9752                 6.2110
 Frc consts  --     0.0000                 0.0000                 0.0000
 IR Inten    --    34.7886                26.6459                32.5480
 Raman Activ --     0.0000                 0.0000                 0.0000
 Depolar     --     0.0000                 0.0000                 0.0000
 Atom AN      X      Y      Z        X      Y      Z        X      Y      Z
   1   6    -0.13   0.21   0.05     0.00   0.15  -0.38     0.00   0.08  -0.16
   2   6     0.20  -0.02  -0.07    -0.01   0.05   0.39     0.00   0.02   0.17
   3   8     0.04  -0.13   0.07     0.09  -0.16  -0.02     0.04  -0.07  -0.01
   4   8     0.00  -0.00   0.01     0.03  -0.00  -0.04    -0.01  -0.01  -0.04
   5   6    -0.11   0.05   0.05    -0.04   0.02  -0.06    -0.03   0.03   0.05
   6   6    -0.12  -0.04  -0.13     0.01  -0.02   0.05    -0.04  -0.03  -0.07
   7   8     0.14   0.03  -0.01     0.00   0.03  -0.02     0.06  -0.06  -0.01
   8   6     0.24  -0.21   0.10    -0.04  -0.17  -0.01     0.13   0.38   0.03
   9   8     0.03   0.06   0.27    -0.02   0.03  -0.06     0.03  -0.06   0.17
  10   6    -0.13   0.16  -0.34     0.02   0.15   0.09    -0.10  -0.34  -0.20
  11   1     0.19  -0.08   0.04    -0.08  -0.04   0.16    -0.02  -0.02   0.08
  12   1    -0.23  -0.02  -0.10     0.30  -0.14   0.22     0.12  -0.06   0.09
  13   1    -0.14  -0.05  -0.11    -0.51   0.09  -0.07    -0.23   0.04  -0.04
  14   1    -0.06   0.01   0.01    -0.05  -0.01  -0.03    -0.02   0.00   0.01
  15   1    -0.01   0.00   0.02     0.03  -0.02   0.01     0.00   0.00   0.02
  16   1    -0.02  -0.01  -0.04     0.00   0.01  -0.02    -0.00  -0.01  -0.03
  17   1    -0.04   0.01  -0.02     0.00   0.02   0.03    -0.02   0.00  -0.01
  18   1     0.22  -0.05   0.17     0.05  -0.07  -0.01    -0.15   0.16  -0.01
  19   1    -0.30  -0.10  -0.05     0.18  -0.06   0.09    -0.39   0.14  -0.21
  20   1    -0.32  -0.04  -0.07    -0.16  -0.04  -0.12     0.35   0.08   0.26
                     25                     26                     27
                        a                      a                      a 
 Frequencies --  1054.1405              1061.7739              1080.8716
 Red. masses --    12.0631                12.3224                 9.8866
 Frc consts  --     0.0000                 0.0000                 0.0000
 IR Inten    --    59.3082                59.8365                11.0075
 Raman Activ --     0.0000                 0.0000                 0.0000
 Depolar     --     0.0000                 0.0000                 0.0000
 Atom AN      X      Y      Z        X      Y      Z        X      Y      Z
   1   6    -0.15  -0.16  -0.06     0.00   0.00   0.01    -0.07  -0.06  -0.02
   2   6     0.05   0.01   0.05     0.00   0.00  -0.01     0.05   0.03   0.04
   3   8    -0.02  -0.03  -0.00    -0.00   0.01  -0.00    -0.01  -0.01  -0.01
   4   8     0.55   0.10   0.22    -0.00  -0.02  -0.05     0.25   0.00   0.05
   5   6    -0.40  -0.11  -0.38     0.04  -0.00   0.06    -0.44   0.18   0.39
   6   6    -0.13   0.15   0.19    -0.55   0.01  -0.28     0.22  -0.18  -0.46
   7   8     0.10  -0.05  -0.10     0.59   0.00   0.27    -0.03   0.03   0.11
   8   6     0.08   0.00   0.03     0.02   0.02  -0.03    -0.06  -0.01  -0.02
   9   8    -0.01   0.00   0.10    -0.02  -0.01  -0.07     0.00  -0.00  -0.10
  10   6    -0.06  -0.00  -0.04    -0.16  -0.00   0.15     0.02   0.00   0.05
  11   1    -0.23   0.09  -0.09     0.00  -0.00  -0.00    -0.10   0.04  -0.04
  12   1     0.04   0.05   0.00    -0.01   0.00  -0.00     0.01   0.02  -0.00
  13   1     0.09   0.03   0.07     0.01  -0.00   0.00     0.03   0.01   0.02
  14   1    -0.04   0.03  -0.04     0.07  -0.02  -0.00    -0.10   0.06   0.12
  15   1    -0.08  -0.02  -0.14     0.07  -0.01  -0.02    -0.20   0.08   0.09
  16   1    -0.02   0.02   0.10    -0.08  -0.02  -0.01     0.14  -0.06  -0.15
  17   1    -0.08  -0.01   0.02    -0.10   0.00  -0.06     0.21  -0.09  -0.15
  18   1    -0.03   0.00  -0.02    -0.19  -0.01  -0.16    -0.01  -0.01  -0.01
  19   1    -0.03   0.00  -0.01     0.18   0.03   0.05     0.06   0.00   0.02
  20   1    -0.02  -0.00  -0.01     0.02  -0.00  -0.07     0.02   0.00  -0.00
                     28                     29                     30
                        a                      a                      a 
 Frequencies --  1108.7407              1167.0219              1184.3418
 Red. masses --     7.3326                 8.5622                10.9993
 Frc consts  --     0.0000                 0.0000                 0.0000
 IR Inten    --     5.3490               656.4347               280.8912
 Raman Activ --     0.0000                 0.0000                 0.0000
 Depolar     --     0.0000                 0.0000                 0.0000
 Atom AN      X      Y      Z        X      Y      Z        X      Y      Z
   1   6    -0.05   0.03  -0.03    -0.19  -0.11  -0.05    -0.09  -0.06  -0.02
   2   6     0.12   0.01   0.05     0.52   0.29   0.14     0.27   0.16   0.07
   3   8     0.01  -0.12   0.02    -0.06  -0.05  -0.01    -0.04   0.01  -0.01
   4   8    -0.11   0.23  -0.12    -0.23  -0.06  -0.08    -0.10  -0.11   0.00
   5   6     0.02  -0.40   0.17     0.10  -0.13   0.02     0.06   0.04  -0.04
   6   6     0.07   0.40  -0.14    -0.01  -0.10   0.07    -0.07  -0.06   0.02
   7   8    -0.04  -0.13   0.07    -0.12   0.08   0.04     0.33  -0.02  -0.19
   8   6    -0.09   0.00   0.01     0.29  -0.01  -0.07    -0.68   0.02   0.16
   9   8     0.02  -0.01  -0.03    -0.03   0.00  -0.01     0.07   0.00   0.05
  10   6     0.05   0.01  -0.01    -0.10   0.00   0.03     0.23  -0.01  -0.07
  11   1    -0.01   0.01  -0.00    -0.21   0.11  -0.13    -0.11   0.06  -0.07
  12   1    -0.02  -0.00  -0.01    -0.00   0.07  -0.02    -0.00   0.04  -0.01
  13   1    -0.05   0.00  -0.02     0.05   0.01   0.03     0.03   0.00   0.02
  14   1     0.16   0.14   0.23     0.20  -0.04  -0.01    -0.03  -0.04  -0.05
  15   1    -0.08   0.03  -0.29    -0.30   0.06  -0.03    -0.11   0.03   0.04
  16   1     0.22  -0.05   0.31    -0.25   0.05  -0.04     0.06  -0.01  -0.05
  17   1    -0.19  -0.18  -0.23     0.19   0.02   0.04    -0.00   0.04   0.05
  18   1     0.05   0.00   0.05    -0.09  -0.02  -0.09     0.19   0.05   0.20
  19   1    -0.01  -0.01   0.00     0.03   0.01   0.01    -0.07  -0.01  -0.02
  20   1    -0.00   0.00   0.02     0.00  -0.00  -0.05     0.01   0.01   0.11
                     31                     32                     33
                        a                      a                      a 
 Frequencies --  1196.0953              1237.1861              1276.6744
 Red. masses --     5.8063                 2.4579                 3.2164
 Frc consts  --     0.0000                 0.0000                 0.0000
 IR Inten    --   284.4139                17.9801                15.6140
 Raman Activ --     0.0000                 0.0000                 0.0000
 Depolar     --     0.0000                 0.0000                 0.0000
 Atom AN      X      Y      Z        X      Y      Z        X      Y      Z
   1   6    -0.09  -0.08  -0.02    -0.03  -0.03  -0.00    -0.01  -0.00   0.01
   2   6     0.27   0.18   0.06     0.10   0.07   0.02     0.05   0.02   0.01
   3   8    -0.04   0.08  -0.03    -0.01   0.04  -0.01    -0.01   0.02  -0.01
   4   8    -0.11  -0.31   0.05    -0.06  -0.18   0.01    -0.04  -0.03  -0.10
   5   6     0.03   0.20  -0.05    -0.08  -0.10   0.07    -0.25   0.12   0.11
   6   6     0.05   0.10  -0.06    -0.03   0.16  -0.00    -0.18   0.03   0.19
   7   8    -0.11  -0.11   0.11     0.02   0.05  -0.08    -0.04  -0.04  -0.12
   8   6     0.16  -0.00  -0.05    -0.04   0.01   0.02     0.03  -0.00   0.01
   9   8    -0.01  -0.01  -0.03     0.00  -0.00   0.01    -0.00   0.00   0.03
  10   6    -0.05   0.01   0.02     0.01  -0.01  -0.01     0.01   0.00  -0.00
  11   1    -0.12   0.06  -0.08    -0.03   0.02  -0.03    -0.01   0.01  -0.01
  12   1     0.02   0.04  -0.00     0.01   0.01   0.00    -0.01   0.00  -0.00
  13   1     0.05   0.00   0.02     0.02  -0.00   0.01    -0.00  -0.01  -0.01
  14   1    -0.33  -0.00  -0.06    -0.36   0.11   0.13     0.60  -0.15  -0.12
  15   1     0.27  -0.06   0.09     0.56  -0.13  -0.17     0.34  -0.07  -0.03
  16   1     0.42  -0.09   0.03    -0.28   0.08   0.11     0.44  -0.07  -0.12
  17   1    -0.45   0.03   0.00     0.48  -0.13  -0.14     0.26  -0.07  -0.02
  18   1    -0.04  -0.02  -0.04     0.01   0.01   0.01    -0.01   0.00  -0.01
  19   1     0.02  -0.00   0.01    -0.01   0.00  -0.00    -0.02   0.00  -0.00
  20   1    -0.00   0.00  -0.02     0.00   0.00   0.01    -0.02  -0.01  -0.01
                     34                     35                     36
                        a                      a                      a 
 Frequencies --  1331.1118              1356.2828              1357.0530
 Red. masses --     4.1362                 3.3257                 3.4216
 Frc consts  --     0.0000                 0.0000                 0.0000
 IR Inten    --     0.3624               143.5849                 1.6349
 Raman Activ --     0.0000                 0.0000                 0.0000
 Depolar     --     0.0000                 0.0000                 0.0000
 Atom AN      X      Y      Z        X      Y      Z        X      Y      Z
   1   6     0.02  -0.01   0.01     0.32  -0.09   0.08    -0.28   0.08  -0.07
   2   6     0.05   0.02   0.00    -0.03  -0.02  -0.01     0.04   0.02   0.01
   3   8    -0.01   0.01  -0.00    -0.01   0.03  -0.01     0.00  -0.02   0.00
   4   8    -0.04  -0.03  -0.04    -0.01  -0.01  -0.00    -0.01   0.00  -0.01
   5   6    -0.31   0.05   0.04     0.00   0.00   0.00    -0.05   0.00   0.01
   6   6     0.36  -0.09  -0.12     0.03  -0.00  -0.01     0.07  -0.01  -0.02
   7   8     0.07   0.02   0.06    -0.00   0.00   0.01     0.01   0.00   0.01
   8   6    -0.08   0.00  -0.01    -0.04  -0.00   0.01    -0.06  -0.00   0.01
   9   8     0.01   0.00   0.01     0.00  -0.00  -0.02     0.00  -0.00  -0.02
  10   6    -0.05  -0.00  -0.03     0.26  -0.04   0.14     0.30  -0.05   0.16
  11   1    -0.03   0.03  -0.02    -0.31   0.17   0.00     0.27  -0.15  -0.01
  12   1    -0.03   0.01  -0.03    -0.30   0.06  -0.28     0.26  -0.06   0.24
  13   1    -0.03  -0.00  -0.00    -0.38   0.06   0.05     0.33  -0.05  -0.04
  14   1     0.37  -0.03  -0.02     0.00   0.01   0.01     0.05  -0.01  -0.01
  15   1     0.33  -0.10  -0.01     0.02  -0.01   0.01     0.04  -0.01  -0.01
  16   1    -0.47   0.09   0.10    -0.03   0.00   0.01    -0.07   0.01   0.02
  17   1    -0.42   0.10   0.08    -0.03   0.01   0.01    -0.07   0.02   0.02
  18   1     0.06  -0.01   0.07    -0.22   0.14  -0.20    -0.25   0.16  -0.21
  19   1     0.08  -0.02   0.02    -0.29   0.13  -0.09    -0.32   0.15  -0.10
  20   1     0.07   0.03   0.04    -0.30  -0.13  -0.15    -0.33  -0.14  -0.17
                     37                     38                     39
                        a                      a                      a 
 Frequencies --  1415.6596              1416.4294              1420.4861
 Red. masses --     1.7322                 1.7776                 1.8833
 Frc consts  --     0.0000                 0.0000                 0.0000
 IR Inten    --    21.3370                31.9371                 9.9138
 Raman Activ --     0.0000                 0.0000                 0.0000
 Depolar     --     0.0000                 0.0000                 0.0000
 Atom AN      X      Y      Z        X      Y      Z        X      Y      Z
   1   6     0.01   0.01   0.01     0.08   0.12   0.18    -0.03  -0.02  -0.06
   2   6    -0.00  -0.01   0.00    -0.03  -0.05   0.04     0.05   0.01   0.00
   3   8    -0.00   0.01  -0.00    -0.02   0.06  -0.02    -0.00   0.01  -0.00
   4   8    -0.00  -0.00  -0.00     0.01   0.01  -0.00    -0.04  -0.02  -0.02
   5   6     0.00  -0.01  -0.02     0.00  -0.02  -0.06    -0.03  -0.08  -0.24
   6   6    -0.01   0.00   0.00    -0.01   0.00  -0.01    -0.04  -0.00  -0.03
   7   8    -0.02   0.00   0.01     0.00  -0.00  -0.00    -0.00  -0.00  -0.01
   8   6     0.04  -0.05  -0.04    -0.00   0.00   0.00     0.01   0.00  -0.00
   9   8     0.00   0.01   0.04    -0.00  -0.00  -0.00    -0.00  -0.00   0.00
  10   6    -0.13  -0.19   0.03     0.01   0.02  -0.01     0.01   0.00  -0.03
  11   1    -0.02   0.02  -0.02    -0.16   0.28  -0.38     0.01  -0.07   0.13
  12   1    -0.00  -0.03   0.02     0.04  -0.33   0.20    -0.03   0.03  -0.04
  13   1     0.00  -0.04  -0.04    -0.03  -0.49  -0.49     0.04   0.11   0.12
  14   1     0.01   0.05   0.04     0.03   0.12   0.09     0.17   0.50   0.39
  15   1    -0.00  -0.02   0.06    -0.00  -0.05   0.14     0.03  -0.22   0.60
  16   1     0.02  -0.00  -0.00     0.01  -0.01   0.01     0.05  -0.03   0.04
  17   1     0.02  -0.00  -0.00     0.02   0.01   0.00     0.06   0.03   0.02
  18   1     0.12   0.28   0.43    -0.01  -0.02  -0.04    -0.04   0.05  -0.01
  19   1     0.29   0.59  -0.28    -0.02  -0.06   0.03     0.03  -0.06   0.03
  20   1    -0.05  -0.09  -0.35     0.00   0.01   0.04    -0.05   0.00   0.10
                     40                     41                     42
                        a                      a                      a 
 Frequencies --  1420.9434              1422.5869              1458.3784
 Red. masses --     1.5539                 1.6015                 1.7873
 Frc consts  --     0.0000                 0.0000                 0.0000
 IR Inten    --    12.2206                 7.0347                 0.4330
 Raman Activ --     0.0000                 0.0000                 0.0000
 Depolar     --     0.0000                 0.0000                 0.0000
 Atom AN      X      Y      Z        X      Y      Z        X      Y      Z
   1   6     0.05   0.15  -0.14    -0.00  -0.00  -0.01     0.00  -0.00  -0.00
   2   6     0.05   0.02  -0.01     0.01   0.00   0.00    -0.01   0.01  -0.00
   3   8    -0.01   0.01  -0.01    -0.00   0.00  -0.00     0.00  -0.01   0.00
   4   8    -0.01  -0.01   0.01    -0.01  -0.00  -0.00     0.01   0.00  -0.00
   5   6    -0.00   0.01   0.02    -0.01  -0.01  -0.03    -0.02   0.01   0.02
   6   6     0.01  -0.00   0.00    -0.00  -0.00  -0.01    -0.04  -0.08  -0.24
   7   8     0.00  -0.00   0.00     0.02  -0.01  -0.01    -0.05  -0.01  -0.04
   8   6    -0.00   0.00   0.00    -0.07   0.02   0.02     0.01   0.00  -0.01
   9   8     0.00  -0.00  -0.00     0.01   0.00   0.01    -0.00  -0.00   0.01
  10   6     0.00   0.00   0.00    -0.03   0.09   0.19    -0.00  -0.00  -0.00
  11   1    -0.37  -0.04   0.52     0.00  -0.01   0.01    -0.00   0.00  -0.00
  12   1    -0.28  -0.57   0.03    -0.00   0.00  -0.00     0.00   0.00  -0.00
  13   1     0.36   0.00  -0.00     0.00   0.01   0.01    -0.00   0.00   0.00
  14   1    -0.01  -0.04  -0.03     0.03   0.07   0.05     0.00  -0.05  -0.04
  15   1     0.01   0.01  -0.05     0.01  -0.03   0.08     0.01   0.01  -0.06
  16   1    -0.01   0.00   0.00    -0.00  -0.00   0.01     0.12  -0.21   0.63
  17   1    -0.01   0.00   0.00     0.01   0.01   0.01     0.23   0.53   0.37
  18   1     0.00  -0.00  -0.00     0.23  -0.54  -0.13     0.00   0.00   0.00
  19   1    -0.00  -0.00   0.00    -0.35   0.16  -0.09     0.01   0.00  -0.00
  20   1     0.00   0.00   0.00     0.39   0.03  -0.51     0.00   0.00   0.00
                     43                     44                     45
                        a                      a                      a 
 Frequencies --  1703.4145              1709.0243              2931.3558
 Red. masses --    13.3372                13.3010                 1.9737
 Frc consts  --     0.0000                 0.0000                 0.0000
 IR Inten    --   700.4851               630.5724                16.8013
 Raman Activ --     0.0000                 0.0000                 0.0000
 Depolar     --     0.0000                 0.0000                 0.0000
 Atom AN      X      Y      Z        X      Y      Z        X      Y      Z
   1   6    -0.01   0.00  -0.01     0.07  -0.04   0.04     0.00  -0.00  -0.00
   2   6     0.04  -0.08   0.03    -0.31   0.68  -0.25     0.00   0.00   0.00
   3   8    -0.02   0.06  -0.02     0.20  -0.52   0.18    -0.00  -0.00  -0.00
   4   8    -0.00   0.00  -0.00     0.00  -0.05   0.01    -0.00   0.00  -0.00
   5   6    -0.00  -0.00  -0.01    -0.01   0.01  -0.01     0.00   0.04  -0.03
   6   6     0.00  -0.00   0.01    -0.00   0.00   0.01    -0.04  -0.28   0.09
   7   8     0.01  -0.00  -0.04     0.00  -0.00  -0.01    -0.00  -0.00   0.00
   8   6     0.16   0.05   0.77     0.02   0.01   0.09     0.00   0.00  -0.00
   9   8    -0.07  -0.04  -0.58    -0.01  -0.00  -0.07     0.00  -0.00  -0.00
  10   6    -0.06  -0.01  -0.07    -0.01  -0.00  -0.01     0.00   0.00  -0.00
  11   1     0.00  -0.00   0.00    -0.03   0.04  -0.03     0.00  -0.00   0.00
  12   1    -0.00   0.00  -0.00     0.02  -0.01   0.02    -0.00   0.00   0.00
  13   1    -0.00   0.00   0.00     0.05  -0.03  -0.01     0.00   0.00  -0.00
  14   1     0.01  -0.00  -0.00     0.01   0.02   0.01     0.00  -0.11   0.14
  15   1     0.01  -0.00  -0.00     0.02  -0.01   0.03    -0.02  -0.05  -0.02
  16   1    -0.01   0.00   0.01     0.01   0.00  -0.01     0.17   0.65   0.20
  17   1    -0.01   0.01   0.02    -0.01  -0.00  -0.00    -0.02   0.34  -0.51
  18   1     0.02   0.01   0.04     0.00   0.00   0.01    -0.00  -0.00   0.00
  19   1    -0.03   0.03  -0.03    -0.00   0.00  -0.00     0.00  -0.00  -0.00
  20   1    -0.01  -0.01  -0.01    -0.00  -0.00  -0.00     0.00  -0.00   0.00
                     46                     47                     48
                        a                      a                      a 
 Frequencies --  2946.6749              2958.5737              3004.1509
 Red. masses --     1.4715                 1.7042                 1.7830
 Frc consts  --     0.0000                 0.0000                 0.0000
 IR Inten    --    10.2058                29.6143                 6.8806
 Raman Activ --     0.0000                 0.0000                 0.0000
 Depolar     --     0.0000                 0.0000                 0.0000
 Atom AN      X      Y      Z        X      Y      Z        X      Y      Z
   1   6     0.00   0.00  -0.00     0.00  -0.00   0.00     0.00   0.00   0.00
   2   6    -0.00   0.00   0.00     0.00   0.00   0.00     0.00  -0.00  -0.00
   3   8     0.00  -0.00  -0.00     0.00  -0.00   0.00    -0.00   0.00   0.00
   4   8    -0.00   0.00  -0.00    -0.01   0.00  -0.01    -0.01  -0.00  -0.00
   5   6    -0.00   0.05  -0.08     0.00   0.14  -0.18    -0.07  -0.25  -0.06
   6   6     0.04   0.06   0.17    -0.01   0.03  -0.10    -0.00  -0.03  -0.01
   7   8     0.01   0.00   0.01    -0.01   0.00  -0.00    -0.00   0.00  -0.00
   8   6    -0.00   0.00   0.00     0.00  -0.00  -0.00     0.00  -0.00  -0.00
   9   8    -0.00  -0.00  -0.00     0.00   0.00   0.00    -0.00   0.00   0.00
  10   6    -0.00  -0.00  -0.00    -0.00  -0.00   0.00    -0.00  -0.00   0.00
  11   1     0.00  -0.00  -0.00     0.00  -0.00  -0.00    -0.00  -0.00  -0.00
  12   1    -0.00   0.00   0.00    -0.00   0.00   0.00    -0.00   0.00   0.00
  13   1    -0.00  -0.00   0.00     0.00   0.00  -0.00     0.00   0.00  -0.00
  14   1     0.00  -0.24   0.29    -0.00  -0.55   0.67    -0.01  -0.00  -0.04
  15   1     0.02   0.08   0.01     0.01   0.05  -0.01     0.25   0.88   0.28
  16   1    -0.15  -0.61  -0.14     0.03   0.13   0.02     0.02   0.09   0.02
  17   1    -0.01   0.39  -0.49     0.01  -0.24   0.32    -0.00  -0.00  -0.00
  18   1    -0.00   0.00  -0.00     0.00   0.00  -0.00     0.00   0.00  -0.00
  19   1    -0.00   0.00   0.00     0.00  -0.00  -0.00     0.00  -0.00  -0.00
  20   1     0.00  -0.00   0.00    -0.00   0.00  -0.00    -0.00   0.00  -0.00
                     49                     50                     51
                        a                      a                      a 
 Frequencies --  3025.4098              3025.7495              3059.9007
 Red. masses --     1.7683                 1.7650                 1.4473
 Frc consts  --     0.0000                 0.0000                 0.0000
 IR Inten    --     0.2681                 0.4826                 0.4746
 Raman Activ --     0.0000                 0.0000                 0.0000
 Depolar     --     0.0000                 0.0000                 0.0000
 Atom AN      X      Y      Z        X      Y      Z        X      Y      Z
   1   6    -0.00   0.00   0.00     0.14  -0.08  -0.21     0.00  -0.00   0.00
   2   6    -0.00   0.00   0.00     0.01  -0.00  -0.00     0.00  -0.00   0.00
   3   8    -0.00  -0.00   0.00    -0.00   0.00  -0.00    -0.00   0.00  -0.00
   4   8     0.00   0.00   0.00    -0.00  -0.00   0.00     0.00   0.00   0.00
   5   6     0.00   0.00   0.00     0.00   0.00   0.00     0.00   0.00   0.00
   6   6     0.00  -0.00   0.00    -0.00   0.00  -0.00    -0.00   0.00  -0.00
   7   8    -0.00   0.00   0.00    -0.00   0.00   0.00    -0.00   0.00   0.00
   8   6     0.01  -0.01   0.00     0.00  -0.00  -0.00     0.01   0.00   0.00
   9   8    -0.00  -0.00  -0.00     0.00   0.00   0.00    -0.00  -0.00  -0.00
  10   6     0.05  -0.25   0.04     0.00  -0.00   0.00     0.14   0.14  -0.00
  11   1    -0.00  -0.00  -0.00     0.03   0.02  -0.01    -0.01  -0.01  -0.00
  12   1     0.01  -0.00  -0.01    -0.54   0.32   0.73    -0.00   0.00   0.00
  13   1    -0.00   0.00   0.00     0.01  -0.06   0.02     0.00   0.01  -0.01
  14   1     0.00   0.00  -0.00    -0.00   0.00  -0.00    -0.00   0.00   0.00
  15   1    -0.00  -0.00  -0.00    -0.00  -0.00  -0.00    -0.00  -0.00  -0.00
  16   1    -0.00  -0.00  -0.00    -0.00   0.00  -0.00    -0.00  -0.00  -0.00
  17   1    -0.00   0.00  -0.00    -0.00  -0.00   0.00    -0.00   0.00  -0.00
  18   1     0.06   0.00  -0.04     0.00  -0.00  -0.00    -0.58  -0.36   0.48
  19   1     0.00  -0.02   0.03     0.00  -0.00  -0.00     0.07  -0.22  -0.45
  20   1    -0.26   0.91  -0.15    -0.00   0.01  -0.00    -0.01   0.10  -0.01
                     52                     53                     54
                        a                      a                      a 
 Frequencies --  3060.9696              3074.8683              3075.5174
 Red. masses --     1.4375                 1.9816                 1.9681
 Frc consts  --     0.0000                 0.0000                 0.0000
 IR Inten    --     0.3424                 4.7171                 3.8344
 Raman Activ --     0.0000                 0.0000                 0.0000
 Depolar     --     0.0000                 0.0000                 0.0000
 Atom AN      X      Y      Z        X      Y      Z        X      Y      Z
   1   6    -0.06   0.03  -0.19     0.09   0.28  -0.02     0.00   0.01  -0.00
   2   6    -0.00   0.00  -0.01     0.00   0.01  -0.00     0.00   0.00  -0.00
   3   8     0.00  -0.00   0.00     0.00  -0.00   0.00    -0.00  -0.00   0.00
   4   8    -0.00   0.00  -0.00    -0.00  -0.00   0.00    -0.00   0.00   0.00
   5   6     0.00  -0.00  -0.00     0.00   0.00  -0.00     0.00   0.00   0.00
   6   6    -0.00  -0.00  -0.00     0.00  -0.00  -0.00    -0.00   0.00   0.00
   7   8    -0.00   0.00   0.00    -0.00  -0.00  -0.00     0.00  -0.00  -0.00
   8   6     0.00   0.00   0.00     0.00   0.00  -0.00    -0.00   0.00   0.01
   9   8     0.00   0.00  -0.00     0.00  -0.00   0.00     0.00  -0.00  -0.00
  10   6     0.00   0.00  -0.00     0.00  -0.00  -0.01    -0.12   0.05   0.27
  11   1     0.23   0.48   0.19    -0.32  -0.64  -0.31    -0.01  -0.02  -0.01
  12   1     0.04  -0.02  -0.08     0.02   0.03  -0.01     0.00   0.00  -0.00
  13   1    -0.06  -0.58   0.54    -0.03  -0.38   0.39    -0.00  -0.01   0.01
  14   1     0.00  -0.00   0.00     0.00  -0.00   0.00     0.00   0.00  -0.00
  15   1     0.00   0.00   0.00    -0.00  -0.00  -0.00    -0.00  -0.00  -0.00
  16   1     0.00   0.00   0.00     0.00   0.00   0.00    -0.00  -0.00  -0.00
  17   1     0.00  -0.00   0.00    -0.00  -0.00   0.00    -0.00   0.00  -0.00
  18   1    -0.01  -0.01   0.01    -0.01  -0.01   0.01     0.34   0.23  -0.26
  19   1     0.00  -0.01  -0.01    -0.00   0.01   0.02     0.08  -0.39  -0.72
  20   1    -0.00   0.00  -0.00     0.00  -0.00  -0.00    -0.01  -0.01   0.03
