! r2scan-3c def2/J RI DEFGRID2 scfconv6 printgap
%output
    printlevel normal
end
%cpcm
    smd true
    smdsolvent "water"
end
* xyz 0 1
C -2.3328233521 -1.2982310116 -0.1848816048
C -1.9103990453 -0.2176062703 0.8044898427
C -1.5516998307 1.1105788355 0.1359921644
C -0.3737651663 1.0013417503 -0.8417109948
C 0.8538592539 0.4992150178 -0.130062796
O 1.4337772347 1.0835154978 0.7614022506
O 1.2381824138 -0.688532124 -0.5867091006
C 2.3903251434 -1.2870708463 0.0112105861
H -2.6952319719 -2.172582092 0.3499592907
H -3.1308013107 -0.9326774082 -0.8267147068
H -1.4959191339 -1.6062627426 -0.8059575727
H -2.7285363751 -0.034292735 1.5042893474
H -1.0555261649 -0.5699089317 1.3877482126
H -1.2899366972 1.8343093716 0.9105954874
H -2.4177317071 1.4885658633 -0.4086416357
H -0.1513302775 1.9933979763 -1.2363905272
H -0.6060705467 0.3263288519 -1.6625413417
H 3.2609477086 -0.6469128747 -0.135684611
H 2.5185824763 -2.2419075905 -0.4884667569
H 2.227762253 -1.4226962412 1.0812389189
*
