! r2scan-3c def2/J RI DEFGRID2 scfconv6 printgap
%output
    printlevel normal
end
* xyz 0 1
C -3.6353063067 0.1908781875 1.8804555149
C -3.0570156048 0.6004248031 0.5260444892
H -3.1136975949 1.6839504429 0.3964125541
C -1.6117699829 0.1673011518 0.383497007
C -1.2882317388 -1.2051915533 0.3955473198
C 0.0070364543 -1.6201914953 0.284746642
C 1.0586687671 -0.6859176247 0.1559329116
C 2.4012176509 -1.079764116 0.0430799083
C 3.4076346146 -0.1471113467 -0.0857387752
C 3.087582684 1.2251363655 -0.1049438576
C 1.7852815041 1.6279164133 0.0037052994
C 0.737208829 0.6968920899 0.1362053023
C -0.6113604704 1.092611049 0.2478754054
O 4.6770339537 -0.6392587032 -0.1885202294
C 5.7558624944 0.2669265582 -0.3222784073
C -3.8144252783 -0.0408414108 -0.6159149761
O -4.3349897337 -1.1344706926 -0.5837378236
O -3.8156328692 0.7201552593 -1.6991650955
H -2.9982320531 0.5599108699 2.6789540755
H -4.6342921485 0.6017062074 2.0022639276
H -3.6999150687 -0.8916287652 1.9492385177
H -2.0857406315 -1.9288566384 0.4798402517
H 0.2468138678 -2.673060386 0.2922976323
H 2.660136119 -2.1272636934 0.056361869
H 3.8656648174 1.9643708746 -0.205177914
H 1.5464238662 2.6808630656 -0.0115770943
H -0.8420843026 2.1478650654 0.2287086058
H 5.8302756658 0.9258371609 0.5466528748
H 5.6633545611 0.8614855641 -1.2348496702
H 6.6445862555 -0.3572672826 -0.3830484962
H -4.2611040329 0.2982383474 -2.4598217843
*
