 Entering Gaussian System
 *********************************************
 Gaussian 98:
 frequency output generated by the xtb code
 *********************************************
                         Standard orientation:
 --------------------------------------------------------------------
  Center     Atomic     Atomic              Coordinates (Angstroms)
  Number     Number      Type              X           Y           Z
 --------------------------------------------------------------------
    1          6             0       -4.425497   -0.868386    0.240000
    2          6             0       -2.950462   -0.807326   -0.140776
    3          6             0       -2.338879    0.544894    0.223528
    4          6             0       -0.899504    0.719259   -0.267149
    5          6             0        0.056912   -0.204351    0.462205
    6         35             0        1.921419    0.123407   -0.095864
    7          1             0       -4.846090   -1.836792   -0.018257
    8          1             0       -4.987089   -0.098733   -0.284220
    9          1             0       -4.549094   -0.714037    1.309429
   10          1             0       -2.418451   -1.609338    0.373946
   11          1             0       -2.847418   -0.972113   -1.215470
   12          1             0       -2.944805    1.333960   -0.225609
   13          1             0       -2.372138    0.678857    1.306882
   14          1             0       -0.850344    0.523057   -1.340526
   15          1             0       -0.590412    1.753929   -0.101968
   16          1             0       -0.127253   -1.252982    0.240510
   17          1             0        0.040287   -0.038657    1.538101
 --------------------------------------------------------------------
     1 basis functions        1 primitive gaussians
     1 alpha electrons        1 beta electrons
 
 Harmonic frequencies (cm**-1), IR intensities (km*mol⁻¹),
 Raman scattering activities (A**4/amu), Raman depolarization ratios,
 reduced masses (AMU), force constants (mDyne/A) and normal coordinates:
                      1                      2                      3
                        a                      a                      a 
 Frequencies --    56.9376                68.5134               100.2721
 Red. masses --    16.0695                 7.7403                14.7121
 Frc consts  --     0.0000                 0.0000                 0.0000
 IR Inten    --     4.8319                 1.6288                 1.0698
 Raman Activ --     0.0000                 0.0000                 0.0000
 Depolar     --     0.0000                 0.0000                 0.0000
 Atom AN      X      Y      Z        X      Y      Z        X      Y      Z
   1   6     0.05  -0.10  -0.36     0.12  -0.18   0.28    -0.32   0.28  -0.11
   2   6     0.16  -0.05   0.11    -0.08   0.13  -0.43    -0.29  -0.07  -0.07
   3   6    -0.03   0.03   0.13    -0.02   0.02  -0.11     0.03  -0.27   0.13
   4   6    -0.00   0.16   0.25     0.00   0.04  -0.05     0.01  -0.40  -0.01
   5   6     0.05   0.35   0.44     0.01   0.28   0.24     0.16  -0.03   0.26
   6  35    -0.11  -0.18  -0.25    -0.02  -0.13   0.01     0.19   0.21  -0.09
   7   1     0.06  -0.05  -0.10     0.01  -0.02  -0.02    -0.17   0.13  -0.08
   8   1     0.05  -0.07  -0.19    -0.06   0.03   0.30    -0.02   0.15   0.00
   9   1    -0.09   0.01  -0.12     0.19  -0.24   0.13    -0.09   0.04  -0.03
  10   1     0.01   0.01   0.11     0.07  -0.02  -0.31    -0.14  -0.08  -0.05
  11   1     0.15  -0.05   0.05    -0.17   0.18  -0.16    -0.09   0.02  -0.03
  12   1    -0.02  -0.01   0.01     0.00   0.04   0.02     0.04  -0.02   0.10
  13   1    -0.04   0.02   0.04    -0.00  -0.07  -0.02     0.05  -0.13   0.04
  14   1     0.03   0.01   0.08     0.03  -0.06  -0.00    -0.01  -0.22   0.02
  15   1    -0.04   0.06   0.04    -0.02   0.03  -0.07    -0.01  -0.09  -0.12
  16   1    -0.03   0.08   0.26    -0.02   0.06   0.19     0.08  -0.04   0.19
  17   1     0.08   0.22   0.11     0.02   0.20   0.05     0.07   0.11   0.06
                      4                      5                      6
                        a                      a                      a 
 Frequencies --   198.5613               226.8775               250.7338
 Red. masses --    28.4903                 5.6354                10.7263
 Frc consts  --     0.0000                 0.0000                 0.0000
 IR Inten    --     3.2676                 0.3204                 0.8479
 Raman Activ --     0.0000                 0.0000                 0.0000
 Depolar     --     0.0000                 0.0000                 0.0000
 Atom AN      X      Y      Z        X      Y      Z        X      Y      Z
   1   6    -0.24  -0.15  -0.04    -0.09  -0.00   0.11     0.17   0.04  -0.07
   2   6    -0.20  -0.04   0.10    -0.17  -0.01  -0.24     0.15   0.09  -0.07
   3   6    -0.20  -0.04   0.18    -0.12  -0.05  -0.12     0.24  -0.07   0.36
   4   6    -0.30   0.23  -0.15     0.00   0.06   0.24    -0.02  -0.07  -0.31
   5   6    -0.10   0.34  -0.26     0.03  -0.04   0.10    -0.01   0.10  -0.13
   6  35     0.49  -0.15   0.07     0.16   0.01  -0.05    -0.24  -0.03   0.09
   7   1    -0.04  -0.05  -0.04     0.07  -0.16   0.49     0.12  -0.08   0.21
   8   1    -0.07  -0.05  -0.01    -0.14  -0.29  -0.27    -0.00  -0.15  -0.20
   9   1    -0.11  -0.06  -0.01     0.02   0.46  -0.03     0.04   0.25  -0.06
  10   1    -0.06  -0.02   0.02    -0.02  -0.01  -0.11     0.04  -0.03  -0.11
  11   1    -0.04   0.00   0.03    -0.11   0.02  -0.08     0.03   0.13  -0.04
  12   1    -0.11  -0.01   0.13    -0.00  -0.00  -0.05    -0.00   0.05   0.32
  13   1     0.01  -0.06   0.06    -0.10  -0.04  -0.03     0.24  -0.19   0.13
  14   1    -0.14   0.07  -0.05     0.06   0.10   0.06    -0.11  -0.14  -0.07
  15   1    -0.13   0.08  -0.06    -0.03   0.01   0.17     0.02  -0.01  -0.22
  16   1    -0.04   0.10  -0.06     0.01  -0.00  -0.01    -0.01   0.01   0.03
  17   1    -0.03   0.10  -0.08     0.04  -0.05   0.04    -0.04   0.09  -0.05
                      7                      8                      9
                        a                      a                      a 
 Frequencies --   281.0143               459.1544               627.6456
 Red. masses --     9.3947                12.6717                13.0339
 Frc consts  --     0.0000                 0.0000                 0.0000
 IR Inten    --     2.8382                 3.2272                 2.8198
 Raman Activ --     0.0000                 0.0000                 0.0000
 Depolar     --     0.0000                 0.0000                 0.0000
 Atom AN      X      Y      Z        X      Y      Z        X      Y      Z
   1   6    -0.14  -0.35  -0.09    -0.35  -0.19   0.03    -0.06  -0.03   0.01
   2   6    -0.12   0.41   0.10    -0.23   0.01   0.11    -0.02  -0.01   0.03
   3   6    -0.07   0.40   0.09     0.37  -0.10  -0.10     0.21  -0.04  -0.07
   4   6     0.01  -0.27  -0.02     0.41   0.21  -0.09     0.12   0.13  -0.15
   5   6     0.02  -0.22   0.08     0.30   0.13  -0.09    -0.70  -0.21   0.31
   6  35     0.11   0.05  -0.04    -0.21  -0.02   0.05     0.18   0.08  -0.09
   7   1     0.16  -0.18  -0.05     0.00  -0.09  -0.04     0.01  -0.02  -0.01
   8   1    -0.16  -0.21  -0.06    -0.15  -0.09  -0.00    -0.03  -0.02   0.00
   9   1    -0.12  -0.13  -0.03    -0.16  -0.10   0.01    -0.04  -0.03   0.00
  10   1     0.03   0.14   0.01    -0.10  -0.02   0.03    -0.04  -0.01   0.03
  11   1    -0.01   0.15   0.03    -0.09  -0.03   0.03    -0.01  -0.04   0.02
  12   1     0.05   0.14  -0.02     0.11   0.01   0.03    -0.01   0.03   0.14
  13   1    -0.02   0.16   0.02     0.18  -0.04  -0.02     0.20  -0.11  -0.00
  14   1    -0.05  -0.19   0.01     0.19   0.16  -0.04     0.14   0.09  -0.04
  15   1     0.10  -0.09  -0.13     0.06   0.06   0.09     0.07   0.01   0.07
  16   1     0.05  -0.07   0.04     0.02   0.05  -0.03    -0.19  -0.05   0.08
  17   1     0.01  -0.04   0.02     0.05   0.02  -0.02    -0.19   0.00   0.07
                     10                     11                     12
                        a                      a                      a 
 Frequencies --   767.4155               786.6174               879.4357
 Red. masses --     2.7438                 2.3180                 3.6211
 Frc consts  --     0.0000                 0.0000                 0.0000
 IR Inten    --     8.4808                 7.8736                 1.5680
 Raman Activ --     0.0000                 0.0000                 0.0000
 Depolar     --     0.0000                 0.0000                 0.0000
 Atom AN      X      Y      Z        X      Y      Z        X      Y      Z
   1   6     0.06   0.02  -0.02     0.02   0.00   0.03    -0.10   0.04  -0.12
   2   6    -0.02   0.12  -0.06     0.06  -0.02   0.20    -0.02  -0.01  -0.15
   3   6    -0.12   0.04  -0.09     0.09  -0.09   0.10     0.22  -0.08   0.25
   4   6    -0.11  -0.15  -0.07    -0.01  -0.07  -0.05     0.09   0.02   0.10
   5   6     0.10  -0.15  -0.17    -0.10  -0.07  -0.14    -0.16   0.01  -0.17
   6  35    -0.01   0.01   0.03     0.01   0.02   0.01     0.01   0.02   0.01
   7   1     0.04  -0.01   0.02     0.02   0.02  -0.08     0.02  -0.06   0.14
   8   1    -0.06  -0.00   0.07     0.15   0.01  -0.14    -0.31  -0.05   0.20
   9   1     0.11  -0.03   0.01    -0.22   0.04  -0.03     0.34  -0.05   0.02
  10   1    -0.02   0.16   0.21     0.09  -0.20  -0.34    -0.27  -0.08   0.12
  11   1     0.13  -0.18   0.03    -0.21   0.37  -0.03     0.28  -0.03  -0.00
  12   1    -0.02   0.13   0.18     0.04  -0.17  -0.26     0.16  -0.13  -0.27
  13   1     0.09  -0.18   0.01    -0.07   0.29  -0.02    -0.20   0.23   0.02
  14   1     0.02   0.34  -0.08    -0.03   0.21  -0.05    -0.17  -0.04   0.03
  15   1    -0.00  -0.11   0.36     0.00  -0.05   0.21     0.09   0.00  -0.07
  16   1     0.08  -0.14   0.39    -0.01  -0.08   0.25    -0.13  -0.01   0.10
  17   1     0.07   0.39  -0.11    -0.02   0.27  -0.08    -0.01   0.16  -0.07
                     13                     14                     15
                        a                      a                      a 
 Frequencies --   897.0613               976.7864              1003.5346
 Red. masses --     6.9143                 3.6739                 6.4393
 Frc consts  --     0.0000                 0.0000                 0.0000
 IR Inten    --     0.3575                 6.2009                 4.4646
 Raman Activ --     0.0000                 0.0000                 0.0000
 Depolar     --     0.0000                 0.0000                 0.0000
 Atom AN      X      Y      Z        X      Y      Z        X      Y      Z
   1   6    -0.19  -0.19   0.01    -0.09  -0.11  -0.15     0.11   0.20  -0.06
   2   6     0.04  -0.34  -0.12     0.02  -0.02   0.06    -0.03  -0.02   0.10
   3   6    -0.13   0.37   0.14    -0.07   0.08   0.11    -0.26  -0.07   0.01
   4   6     0.21   0.24  -0.05    -0.07  -0.15  -0.27     0.02   0.34  -0.23
   5   6     0.06  -0.21  -0.04     0.10   0.10   0.22     0.23  -0.32   0.16
   6  35    -0.00   0.02   0.01    -0.01  -0.02  -0.02    -0.00   0.01   0.01
   7   1    -0.41   0.08   0.11    -0.26   0.02   0.17     0.29  -0.06  -0.04
   8   1     0.18   0.11  -0.02    -0.04   0.06   0.11    -0.22  -0.09   0.06
   9   1     0.05   0.11  -0.01     0.31   0.07  -0.01     0.05  -0.09   0.01
  10   1     0.11  -0.05  -0.07    -0.02  -0.06  -0.04    -0.19  -0.17  -0.04
  11   1     0.01  -0.04  -0.04     0.24   0.23   0.00     0.01   0.11   0.01
  12   1    -0.09   0.09   0.09    -0.09  -0.05  -0.01    -0.36  -0.22   0.04
  13   1    -0.03   0.03   0.05     0.21   0.25   0.01     0.04   0.04  -0.00
  14   1    -0.08  -0.04  -0.00     0.23   0.20  -0.10     0.06   0.00  -0.05
  15   1     0.29   0.02  -0.15    -0.15  -0.04   0.22     0.05   0.08  -0.13
  16   1    -0.05  -0.08   0.17     0.23   0.03  -0.15    -0.05  -0.08   0.11
  17   1     0.09   0.12  -0.03    -0.19  -0.17   0.08     0.16  -0.04   0.04
                     16                     17                     18
                        a                      a                      a 
 Frequencies --  1076.3395              1081.1756              1117.9897
 Red. masses --     3.4875                 9.2613                 8.0124
 Frc consts  --     0.0000                 0.0000                 0.0000
 IR Inten    --     1.4489                 1.0269                 1.0625
 Raman Activ --     0.0000                 0.0000                 0.0000
 Depolar     --     0.0000                 0.0000                 0.0000
 Atom AN      X      Y      Z        X      Y      Z        X      Y      Z
   1   6     0.06   0.12   0.07     0.46  -0.09  -0.16    -0.23   0.09   0.07
   2   6    -0.04  -0.11  -0.11    -0.54  -0.01   0.15     0.33   0.07   0.01
   3   6    -0.15   0.03   0.21    -0.22  -0.01   0.10    -0.38  -0.11   0.03
   4   6     0.24  -0.01  -0.15     0.31  -0.10  -0.00     0.39  -0.22   0.05
   5   6     0.02   0.10   0.11    -0.08   0.10  -0.11    -0.16   0.18  -0.20
   6  35    -0.01  -0.02  -0.03    -0.00   0.01   0.00    -0.00   0.01   0.01
   7   1     0.18  -0.02  -0.08     0.01   0.02   0.01     0.02  -0.01   0.00
   8   1    -0.05  -0.05  -0.03     0.21   0.05  -0.04    -0.14  -0.03   0.03
   9   1    -0.13  -0.06   0.01     0.22   0.05  -0.04    -0.09  -0.03   0.02
  10   1    -0.02   0.00   0.03    -0.16  -0.01   0.04     0.12   0.03  -0.03
  11   1    -0.09  -0.15  -0.01    -0.14   0.01   0.04     0.18   0.15  -0.01
  12   1     0.02   0.00  -0.03     0.05   0.08   0.02    -0.18  -0.07   0.06
  13   1    -0.30  -0.07   0.05    -0.03   0.04   0.03    -0.09  -0.12   0.02
  14   1    -0.15   0.15  -0.07     0.20  -0.04   0.01     0.36  -0.11   0.03
  15   1     0.27  -0.07   0.05     0.04  -0.02   0.01     0.09  -0.06   0.03
  16   1     0.40  -0.02  -0.07    -0.19   0.06  -0.04    -0.15   0.07  -0.05
  17   1    -0.53   0.01   0.02     0.03   0.04  -0.03     0.06   0.06  -0.06
                     19                     20                     21
                        a                      a                      a 
 Frequencies --  1130.0845              1179.6199              1224.3420
 Red. masses --     7.0252                 5.7225                 3.2603
 Frc consts  --     0.0000                 0.0000                 0.0000
 IR Inten    --     1.0384                 0.1805                28.5694
 Raman Activ --     0.0000                 0.0000                 0.0000
 Depolar     --     0.0000                 0.0000                 0.0000
 Atom AN      X      Y      Z        X      Y      Z        X      Y      Z
   1   6    -0.03  -0.18   0.04     0.01   0.07   0.19     0.04  -0.03   0.07
   2   6    -0.01   0.41  -0.00     0.03  -0.16  -0.33    -0.10   0.07  -0.13
   3   6    -0.09  -0.41   0.09    -0.03   0.16   0.33     0.03  -0.10   0.13
   4   6     0.11   0.20  -0.22    -0.02  -0.13  -0.29    -0.02   0.10  -0.08
   5   6     0.10  -0.19   0.12     0.08  -0.02   0.12    -0.31   0.08  -0.03
   6  35     0.00   0.01  -0.01     0.00   0.01   0.01    -0.03  -0.02   0.02
   7   1    -0.22   0.05   0.03     0.11   0.00  -0.10    -0.01   0.01  -0.04
   8   1     0.20   0.08  -0.03     0.04  -0.05  -0.09     0.08   0.00  -0.05
   9   1    -0.01   0.10  -0.01    -0.25  -0.04   0.02    -0.07   0.02   0.00
  10   1     0.16   0.28   0.11    -0.06   0.01   0.07     0.01   0.10   0.07
  11   1     0.13   0.05   0.02     0.04  -0.21  -0.05     0.05  -0.08  -0.01
  12   1     0.10  -0.09  -0.12     0.16   0.08  -0.08    -0.03  -0.11  -0.08
  13   1    -0.31  -0.11   0.01    -0.07   0.19   0.06     0.01   0.11   0.01
  14   1    -0.07   0.05  -0.06     0.14   0.15  -0.10     0.16  -0.05  -0.00
  15   1    -0.15   0.11  -0.09    -0.23   0.01   0.11     0.15  -0.02   0.01
  16   1    -0.10  -0.03   0.04    -0.37   0.08  -0.06     0.59  -0.10  -0.00
  17   1    -0.07  -0.00   0.02     0.22  -0.11   0.05     0.56  -0.08   0.01
                     22                     23                     24
                        a                      a                      a 
 Frequencies --  1242.2812              1261.3200              1284.5945
 Red. masses --     3.7321                 2.6566                 1.8909
 Frc consts  --     0.0000                 0.0000                 0.0000
 IR Inten    --     4.2902                 1.4773                 2.6215
 Raman Activ --     0.0000                 0.0000                 0.0000
 Depolar     --     0.0000                 0.0000                 0.0000
 Atom AN      X      Y      Z        X      Y      Z        X      Y      Z
   1   6     0.08  -0.11   0.25     0.03  -0.11   0.06    -0.03   0.02  -0.14
   2   6    -0.11   0.12  -0.27     0.02   0.18  -0.00     0.01   0.10  -0.09
   3   6     0.03  -0.02  -0.01     0.06  -0.02  -0.12     0.07  -0.06   0.16
   4   6    -0.04   0.03   0.21    -0.04  -0.16  -0.07     0.01  -0.06   0.05
   5   6     0.08  -0.04  -0.11     0.03   0.18   0.13     0.04   0.03  -0.02
   6  35     0.01  -0.00  -0.01     0.00   0.00   0.01     0.01   0.00  -0.00
   7   1    -0.03   0.04  -0.11    -0.09   0.02  -0.01    -0.03  -0.00   0.03
   8   1     0.23   0.00  -0.13     0.11   0.02  -0.03    -0.09   0.01   0.06
   9   1    -0.24   0.05   0.02    -0.05   0.05  -0.00     0.12  -0.00  -0.02
  10   1    -0.28  -0.02   0.12    -0.22  -0.09   0.03     0.34   0.29   0.05
  11   1     0.31  -0.00  -0.03     0.08   0.04   0.01    -0.44  -0.35  -0.01
  12   1    -0.25  -0.19   0.02    -0.23  -0.17   0.01    -0.33  -0.33  -0.04
  13   1     0.27   0.21  -0.02    -0.02  -0.10  -0.02     0.20   0.27   0.01
  14   1     0.15  -0.15   0.09    -0.38   0.20  -0.08    -0.00  -0.02   0.02
  15   1    -0.01   0.02  -0.07     0.49  -0.21   0.15     0.07  -0.04   0.05
  16   1     0.02  -0.03   0.07    -0.25   0.12  -0.13    -0.13   0.03  -0.01
  17   1    -0.35   0.10  -0.05     0.21  -0.15   0.06    -0.08   0.02  -0.01
                     25                     26                     27
                        a                      a                      a 
 Frequencies --  1307.0327              1338.0757              1368.9518
 Red. masses --     3.4466                 4.2170                 5.0871
 Frc consts  --     0.0000                 0.0000                 0.0000
 IR Inten    --     3.1623                 9.1814                 0.6957
 Raman Activ --     0.0000                 0.0000                 0.0000
 Depolar     --     0.0000                 0.0000                 0.0000
 Atom AN      X      Y      Z        X      Y      Z        X      Y      Z
   1   6    -0.04   0.14   0.06     0.01  -0.00   0.03     0.00  -0.08  -0.03
   2   6    -0.22  -0.21  -0.04     0.01   0.00  -0.03     0.35   0.20  -0.02
   3   6    -0.19  -0.23  -0.05    -0.08   0.09  -0.07    -0.37  -0.24   0.02
   4   6     0.03   0.06   0.05     0.48  -0.13   0.07     0.04   0.09   0.01
   5   6     0.02   0.02   0.04    -0.14  -0.03   0.04     0.00  -0.00   0.01
   6  35     0.00   0.00  -0.00    -0.01  -0.00   0.00    -0.00  -0.00  -0.00
   7   1     0.18  -0.03  -0.06    -0.01   0.01  -0.02    -0.11   0.02   0.04
   8   1    -0.02  -0.02  -0.05     0.01  -0.01  -0.01    -0.02   0.01   0.06
   9   1     0.01  -0.05   0.02    -0.02   0.01   0.00    -0.05   0.05  -0.02
  10   1     0.38   0.24   0.00    -0.06  -0.03   0.00    -0.31  -0.19   0.03
  11   1     0.31   0.20  -0.02     0.02  -0.01  -0.01    -0.31  -0.17  -0.01
  12   1     0.22   0.15  -0.00    -0.19  -0.06   0.06     0.33   0.24  -0.04
  13   1     0.36   0.25  -0.04     0.14   0.06  -0.02     0.34   0.21  -0.02
  14   1    -0.25   0.06  -0.01    -0.53   0.10  -0.03    -0.07  -0.01   0.01
  15   1     0.23  -0.04  -0.03    -0.51   0.15  -0.02     0.11  -0.01  -0.02
  16   1    -0.09   0.03  -0.02     0.14  -0.01  -0.10     0.04  -0.01   0.02
  17   1     0.00  -0.02   0.02     0.13   0.09  -0.01    -0.02  -0.01   0.01
                     28                     29                     30
                        a                      a                      a 
 Frequencies --  1413.5146              1430.7216              1481.2472
 Red. masses --     3.1754                 2.0372                 1.9064
 Frc consts  --     0.0000                 0.0000                 0.0000
 IR Inten    --     0.2612                 1.0421                 0.9901
 Raman Activ --     0.0000                 0.0000                 0.0000
 Depolar     --     0.0000                 0.0000                 0.0000
 Atom AN      X      Y      Z        X      Y      Z        X      Y      Z
   1   6     0.42   0.04  -0.10     0.01   0.00  -0.00     0.01  -0.02   0.00
   2   6    -0.07  -0.06  -0.00    -0.02   0.01   0.01    -0.04   0.02   0.02
   3   6     0.02  -0.01  -0.01    -0.01   0.01  -0.00    -0.09   0.14   0.10
   4   6    -0.01   0.00   0.01     0.10  -0.01  -0.02    -0.04  -0.13   0.15
   5   6     0.00  -0.00   0.00    -0.03   0.21  -0.19    -0.02  -0.00   0.00
   6  35    -0.00   0.00   0.00     0.01   0.01  -0.01     0.00  -0.00  -0.00
   7   1    -0.44   0.16   0.19    -0.01   0.00   0.01     0.02   0.00  -0.04
   8   1    -0.43  -0.19   0.21    -0.01  -0.00   0.01    -0.02   0.01   0.04
   9   1    -0.50  -0.09  -0.06    -0.01  -0.00  -0.00    -0.00   0.07  -0.01
  10   1     0.06   0.08   0.05     0.02  -0.01  -0.04     0.04  -0.02  -0.07
  11   1     0.04   0.10  -0.01     0.03  -0.04   0.01     0.04  -0.07   0.02
  12   1     0.00  -0.01  -0.00    -0.02  -0.01   0.00     0.08  -0.17  -0.42
  13   1     0.01  -0.00  -0.00     0.00  -0.01   0.00     0.28  -0.36   0.06
  14   1    -0.01   0.01  -0.00    -0.09  -0.02  -0.00     0.12   0.46  -0.07
  15   1     0.01  -0.00  -0.01    -0.08   0.02   0.04     0.02   0.07  -0.48
  16   1    -0.01   0.00  -0.01    -0.03  -0.12   0.65     0.01  -0.01   0.03
  17   1     0.00   0.01  -0.00    -0.09  -0.65   0.09    -0.00  -0.03   0.01
                     31                     32                     33
                        a                      a                      a 
 Frequencies --  1486.0795              1493.4070              1499.5073
 Red. masses --     1.9884                 1.8521                 1.5251
 Frc consts  --     0.0000                 0.0000                 0.0000
 IR Inten    --     0.0672                 1.9255                 1.6845
 Raman Activ --     0.0000                 0.0000                 0.0000
 Depolar     --     0.0000                 0.0000                 0.0000
 Atom AN      X      Y      Z        X      Y      Z        X      Y      Z
   1   6    -0.01   0.01  -0.00     0.03  -0.01  -0.03    -0.06   0.08  -0.19
   2   6     0.05  -0.00  -0.02    -0.13   0.20   0.12    -0.01   0.01  -0.05
   3   6     0.10  -0.15  -0.10    -0.01  -0.04  -0.01    -0.01   0.01   0.01
   4   6    -0.03  -0.15   0.14     0.00   0.01  -0.00     0.00  -0.00   0.01
   5   6    -0.03   0.02  -0.01     0.00  -0.01   0.01    -0.00   0.00  -0.00
   6  35     0.00  -0.00   0.00    -0.00   0.00   0.00     0.00  -0.00  -0.00
   7   1    -0.01  -0.00   0.03     0.02  -0.01   0.03     0.18  -0.25   0.64
   8   1     0.02  -0.01  -0.03    -0.03   0.05   0.12     0.31   0.32   0.12
   9   1     0.01  -0.04   0.01    -0.10   0.07  -0.02    -0.26  -0.39   0.02
  10   1    -0.04   0.01   0.06     0.17  -0.25  -0.58    -0.03   0.01   0.03
  11   1    -0.06   0.03  -0.01     0.35  -0.54   0.12     0.01   0.02  -0.01
  12   1    -0.10   0.16   0.44    -0.00   0.06   0.10    -0.01  -0.03  -0.04
  13   1    -0.28   0.38  -0.06    -0.04   0.11  -0.01     0.04  -0.02   0.00
  14   1     0.12   0.45  -0.07     0.01  -0.01   0.00    -0.00   0.01  -0.00
  15   1     0.04   0.05  -0.46     0.01  -0.01   0.01    -0.00   0.00  -0.01
  16   1     0.01  -0.01   0.04    -0.01   0.01  -0.05     0.00  -0.00   0.00
  17   1     0.02  -0.04   0.01     0.01   0.05  -0.01    -0.00  -0.00   0.00
                     34                     35                     36
                        a                      a                      a 
 Frequencies --  1501.3956              2963.8900              2970.5692
 Red. masses --     1.6198                 1.9106                 1.9357
 Frc consts  --     0.0000                 0.0000                 0.0000
 IR Inten    --     0.7477                 5.5034                18.9473
 Raman Activ --     0.0000                 0.0000                 0.0000
 Depolar     --     0.0000                 0.0000                 0.0000
 Atom AN      X      Y      Z        X      Y      Z        X      Y      Z
   1   6     0.00   0.19   0.08    -0.00   0.00  -0.01     0.00   0.00   0.01
   2   6     0.00   0.10   0.04     0.04  -0.07   0.21    -0.01   0.02  -0.12
   3   6    -0.03  -0.00   0.01    -0.04   0.05  -0.16    -0.00   0.00  -0.10
   4   6    -0.00   0.00   0.01    -0.00   0.02   0.03     0.04   0.17   0.17
   5   6     0.00  -0.00   0.00     0.00   0.00   0.00    -0.00  -0.03  -0.02
   6  35    -0.00   0.00  -0.00     0.00   0.00  -0.00    -0.00  -0.00  -0.00
   7   1    -0.29   0.11   0.11     0.00   0.00  -0.00    -0.00  -0.01   0.00
   8   1     0.04  -0.33  -0.54     0.03  -0.03   0.02    -0.01   0.01  -0.01
   9   1     0.23  -0.57   0.12    -0.01   0.01   0.05     0.00  -0.01  -0.04
  10   1    -0.00  -0.05  -0.10    -0.23   0.34  -0.20     0.08  -0.13   0.07
  11   1     0.03  -0.11   0.03     0.06  -0.10  -0.58    -0.03   0.05   0.33
  12   1     0.02  -0.02  -0.05     0.18  -0.23   0.12     0.03  -0.04   0.01
  13   1     0.04  -0.04   0.00    -0.02   0.07   0.49    -0.01   0.04   0.37
  14   1     0.00   0.01  -0.00     0.01  -0.02  -0.12     0.03  -0.08  -0.53
  15   1     0.01   0.00  -0.02    -0.01  -0.03  -0.00    -0.16  -0.54  -0.07
  16   1     0.00   0.00  -0.01    -0.00  -0.01  -0.00     0.02   0.10   0.02
  17   1    -0.00   0.01  -0.00     0.00   0.00   0.01     0.00   0.01   0.09
                     37                     38                     39
                        a                      a                      a 
 Frequencies --  2975.0794              2983.2192              2986.0111
 Red. masses --     1.9647                 1.4896                 1.5229
 Frc consts  --     0.0000                 0.0000                 0.0000
 IR Inten    --   100.5530                16.9229                78.7905
 Raman Activ --     0.0000                 0.0000                 0.0000
 Depolar     --     0.0000                 0.0000                 0.0000
 Atom AN      X      Y      Z        X      Y      Z        X      Y      Z
   1   6     0.00  -0.00   0.01     0.00   0.01  -0.00    -0.00  -0.01  -0.00
   2   6    -0.02   0.03  -0.14     0.09  -0.14  -0.02    -0.05   0.08   0.03
   3   6    -0.07   0.07  -0.18    -0.04   0.06   0.06    -0.03   0.05   0.06
   4   6    -0.04  -0.13  -0.06    -0.01  -0.01   0.06    -0.04  -0.07   0.15
   5   6     0.00   0.01   0.03     0.00   0.01  -0.02    -0.00  -0.01  -0.05
   6  35     0.00   0.00   0.00     0.00   0.00  -0.00     0.00   0.00  -0.00
   7   1    -0.00  -0.01   0.00    -0.02  -0.04  -0.01     0.02   0.04   0.01
   8   1    -0.02   0.02  -0.01     0.02  -0.02   0.02    -0.01   0.02  -0.01
   9   1     0.01  -0.01  -0.04     0.00   0.00   0.00    -0.00   0.00   0.02
  10   1     0.10  -0.14   0.08    -0.33   0.49  -0.35     0.17  -0.26   0.18
  11   1    -0.04   0.06   0.41    -0.02   0.04   0.43     0.02  -0.03  -0.29
  12   1     0.25  -0.33   0.18     0.15  -0.20   0.13     0.11  -0.14   0.10
  13   1    -0.02   0.06   0.46     0.00  -0.03  -0.36     0.00  -0.02  -0.29
  14   1    -0.01   0.01   0.13     0.01  -0.05  -0.25     0.02  -0.13  -0.62
  15   1     0.14   0.48   0.08     0.02   0.08   0.02     0.11   0.38   0.09
  16   1    -0.01  -0.05  -0.01    -0.01  -0.06  -0.02    -0.00  -0.01  -0.01
  17   1     0.00  -0.01  -0.10    -0.00   0.02   0.09    -0.00   0.03   0.19
                     40                     41                     42
                        a                      a                      a 
 Frequencies --  2989.5734              3001.9503              3015.1162
 Red. masses --     1.5467                 1.7193                 1.8271
 Frc consts  --     0.0000                 0.0000                 0.0000
 IR Inten    --    57.6688                23.5329                14.7950
 Raman Activ --     0.0000                 0.0000                 0.0000
 Depolar     --     0.0000                 0.0000                 0.0000
 Atom AN      X      Y      Z        X      Y      Z        X      Y      Z
   1   6     0.00  -0.02  -0.00     0.00  -0.00   0.01     0.00  -0.01   0.01
   2   6    -0.03   0.05  -0.00    -0.00   0.00  -0.01    -0.01   0.01  -0.00
   3   6    -0.10   0.15   0.01    -0.01   0.01  -0.02    -0.01   0.01  -0.00
   4   6     0.03   0.09  -0.05     0.00  -0.00  -0.07     0.01   0.04   0.02
   5   6    -0.00  -0.02   0.02     0.00  -0.02  -0.24     0.04   0.25   0.08
   6  35    -0.00  -0.00   0.00     0.00   0.00  -0.00     0.00   0.00  -0.00
   7   1     0.01   0.03   0.01    -0.00  -0.00  -0.00     0.01   0.01   0.00
   8   1    -0.02   0.03  -0.02    -0.00   0.01  -0.00    -0.01   0.02  -0.01
   9   1    -0.00   0.00   0.03     0.00  -0.00  -0.01     0.00  -0.00  -0.01
  10   1     0.11  -0.16   0.11     0.01  -0.02   0.01     0.04  -0.06   0.04
  11   1     0.00  -0.01  -0.11    -0.00   0.00   0.02    -0.00  -0.00  -0.02
  12   1     0.39  -0.50   0.31     0.03  -0.03   0.02     0.02  -0.03   0.02
  13   1    -0.01  -0.02  -0.34    -0.00   0.01   0.07    -0.00   0.00  -0.01
  14   1    -0.01   0.07   0.27    -0.01   0.05   0.24     0.00  -0.00  -0.03
  15   1    -0.11  -0.39  -0.08    -0.01  -0.04  -0.01    -0.04  -0.13  -0.02
  16   1     0.02   0.11   0.03    -0.02  -0.09  -0.05    -0.16  -0.91  -0.20
  17   1     0.00  -0.02  -0.09    -0.01   0.16   0.91     0.01   0.02  -0.08
                     43                     44                     45
                        a                      a                      a 
 Frequencies --  3029.0136              3032.7432              3042.3380
 Red. masses --     1.9525                 1.8829                 1.3106
 Frc consts  --     0.0000                 0.0000                 0.0000
 IR Inten    --    82.2146                77.2589                42.1271
 Raman Activ --     0.0000                 0.0000                 0.0000
 Depolar     --     0.0000                 0.0000                 0.0000
 Atom AN      X      Y      Z        X      Y      Z        X      Y      Z
   1   6    -0.07   0.07  -0.27     0.04  -0.27  -0.07    -0.14  -0.09  -0.00
   2   6    -0.01   0.01  -0.03     0.01  -0.02  -0.01    -0.00  -0.01  -0.00
   3   6    -0.00   0.00  -0.00     0.00  -0.01  -0.00    -0.00   0.00   0.00
   4   6     0.00   0.00  -0.00    -0.00  -0.00  -0.00     0.00   0.00  -0.00
   5   6     0.00   0.01  -0.00    -0.00  -0.00  -0.00     0.00  -0.00  -0.00
   6  35     0.00   0.00  -0.00    -0.00   0.00  -0.00    -0.00   0.00  -0.00
   7   1     0.01   0.07  -0.03     0.23   0.50   0.14     0.28   0.70   0.19
   8   1     0.30  -0.44   0.27    -0.32   0.42  -0.33     0.20  -0.32   0.21
   9   1    -0.08   0.12   0.72    -0.04   0.03   0.46     0.02  -0.07  -0.41
  10   1     0.03  -0.05   0.03    -0.03   0.05  -0.04    -0.01   0.01  -0.01
  11   1    -0.00   0.01   0.07    -0.00   0.00   0.05    -0.00   0.00   0.02
  12   1     0.00  -0.00   0.00    -0.02   0.03  -0.02     0.00  -0.00   0.00
  13   1     0.00   0.00   0.01     0.00   0.00   0.03    -0.00  -0.00  -0.01
  14   1    -0.00   0.00   0.00    -0.00  -0.00  -0.00     0.00   0.00   0.01
  15   1    -0.00  -0.00  -0.00     0.00   0.01   0.00    -0.00  -0.00  -0.00
  16   1    -0.00  -0.02  -0.01     0.00   0.01   0.00    -0.00  -0.00  -0.00
  17   1     0.00   0.00   0.01     0.00   0.00   0.00    -0.00   0.00   0.00
