      -----------------------------------------------------------      
     |                   =====================                   |     
     |                           x T B                           |     
     |                   =====================                   |     
     |                         S. Grimme                         |     
     |          Mulliken Center for Theoretical Chemistry        |     
     |                    University of Bonn                     |     
      -----------------------------------------------------------      

   * xtb version 6.7.1 (edcfbbe) compiled by 'albert@albert-system' on 2024-07-22

   xtb is free software: you can redistribute it and/or modify it under
   the terms of the GNU Lesser General Public License as published by
   the Free Software Foundation, either version 3 of the License, or
   (at your option) any later version.
   
   xtb is distributed in the hope that it will be useful,
   but WITHOUT ANY WARRANTY; without even the implied warranty of
   MERCHANTABILITY or FITNESS FOR A PARTICULAR PURPOSE.  See the
   GNU Lesser General Public License for more details.
   
   Cite this work as:
   * C. Bannwarth, E. Caldeweyher, S. Ehlert, A. Hansen, P. Pracht,
     J. Seibert, S. Spicher, S. Grimme, WIREs Comput. Mol. Sci., 2020, 11,
     e01493. DOI: 10.1002/wcms.1493
   
   for GFN2-xTB:
   * C. Bannwarth, S. Ehlert and S. Grimme., J. Chem. Theory Comput., 2019,
     15, 1652-1671. DOI: 10.1021/acs.jctc.8b01176
   for GFN1-xTB:
   * S. Grimme, C. Bannwarth, P. Shushkov, J. Chem. Theory Comput., 2017,
     13, 1989-2009. DOI: 10.1021/acs.jctc.7b00118
   for GFN0-xTB:
   * P. Pracht, E. Caldeweyher, S. Ehlert, S. Grimme, ChemRxiv, 2019, preprint.
     DOI: 10.26434/chemrxiv.8326202.v1
   for GFN-FF:
   * S. Spicher and S. Grimme, Angew. Chem. Int. Ed., 2020, 59, 15665-15673.
     DOI: 10.1002/anie.202004239
   
   for ALPB and GBSA implicit solvation:
   * S. Ehlert, M. Stahn, S. Spicher, S. Grimme, J. Chem. Theory Comput.,
     2021, 17, 4250-4261. DOI: 10.1021/acs.jctc.1c00471
   
   for ddCOSMO and CPCM-X implicit solvation:
   * M. Stahn, S. Ehlert, S. Grimme, J. Phys. Chem. A,
     2023, XX, XXXX-XXXX. DOI: 10.1021/acs.jpca.3c04382
   
   for DFT-D4:
   * E. Caldeweyher, C. Bannwarth and S. Grimme, J. Chem. Phys., 2017,
     147, 034112. DOI: 10.1063/1.4993215
   * E. Caldeweyher, S. Ehlert, A. Hansen, H. Neugebauer, S. Spicher,
     C. Bannwarth and S. Grimme, J. Chem. Phys., 2019, 150, 154122.
     DOI: 10.1063/1.5090222
   * E. Caldeweyher, J.-M. Mewes, S. Ehlert and S. Grimme, Phys. Chem. Chem. Phys.
     2020, 22, 8499-8512. DOI: 10.1039/D0CP00502A
   
   for sTDA-xTB:
   * S. Grimme and C. Bannwarth, J. Chem. Phys., 2016, 145, 054103.
     DOI: 10.1063/1.4959605
   
   in the mass-spec context:
   * V. Asgeirsson, C. Bauer and S. Grimme, Chem. Sci., 2017, 8, 4879.
     DOI: 10.1039/c7sc00601b
   * J. Koopman and S. Grimme, ACS Omega 2019, 4, 12, 15120-15133.
     DOI: 10.1021/acsomega.9b02011
   
   for metadynamics refer to:
   * S. Grimme, J. Chem. Theory Comput., 2019, 155, 2847-2862
     DOI: 10.1021/acs.jctc.9b00143
   
   for SPH calculations refer to:
   * S. Spicher and S. Grimme, J. Chem. Theory Comput., 2021, 17, 1701-1714
     DOI: 10.1021/acs.jctc.0c01306
   
   for ONIOM refer to:
   * C. Plett, A. Katbashev, S. Ehlert, S. Grimme, M. Bursch,
     Phys. Chem. Chem. Phys., 2023, 25, 17860-17868. DOI: 10.1039/D3CP02178E
   
   for DIPRO refer to:
   * J. Kohn, N. Gildemeister, S. Grimme, D. Fazzi, A. Hansen,
     J. Chem. Phys., 2023, just accepted.
   
   for PTB refer to:
   * S. Grimme, M. Mueller, A. Hansen, J. Chem. Phys., 2023, 158, 124111.
     DOI: 10.1063/5.0137838
   
   with help from (in alphabetical order)
   P. Atkinson, C. Bannwarth, F. Bohle, G. Brandenburg, E. Caldeweyher
   M. Checinski, S. Dohm, S. Ehlert, S. Ehrlich, I. Gerasimov, C. Hölzer
   A. Katbashev, J. Kohn, J. Koopman, C. Lavigne, S. Lehtola, F. März, M. Müller,
   F. Musil, H. Neugebauer, J. Pisarek, C. Plett, P. Pracht, F. Pultar,
   J. Seibert, P. Shushkov, S. Spicher, M. Stahn, M. Steiner, T. Strunk,
   J. Stückrath, T. Rose, and J. Unsleber
   
 * started run on 2025/04/11 at 16:15:24.365     
   ID    Z sym.   atoms
    1    6 C      1-4, 7, 10, 12
    2    7 N      5, 9
    3    8 O      6, 8
    4   16 S      11
    5    1 H      13-26

           -------------------------------------------------
          |                Calculation Setup                |
           -------------------------------------------------

          program call               : /srv/scratch/z5358697/.xtb/bin/xtb gas.coord --gfn2 --sp --chrg 0 --norestart --parallel 1
          hostname                   : k073
          coordinate file            : gas.coord
          omp threads                :                     1


           -------------------------------------------------
          |                 G F N 2 - x T B                 |
           -------------------------------------------------

        Reference                      10.1021/acs.jctc.8b01176
      * Hamiltonian:
        H0-scaling (s, p, d)           1.850000    2.230000    2.230000
        zeta-weighting                 0.500000
      * Dispersion:
        s8                             2.700000
        a1                             0.520000
        a2                             5.000000
        s9                             5.000000
      * Repulsion:
        kExp                           1.500000    1.000000
        rExp                           1.000000
      * Coulomb:
        alpha                          2.000000
        third order                    shell-resolved
        anisotropic                    true
        a3                             3.000000
        a5                             4.000000
        cn-shift                       1.200000
        cn-exp                         4.000000
        max-rad                        5.000000


          ...................................................
          :                      SETUP                      :
          :.................................................:
          :  # basis functions                  68          :
          :  # atomic orbitals                  67          :
          :  # shells                           39          :
          :  # electrons                        70          :
          :  max. iterations                   250          :
          :  Hamiltonian                  GFN2-xTB          :
          :  restarted?                      false          :
          :  GBSA solvation                  false          :
          :  PC potential                    false          :
          :  electronic temp.          300.0000000     K    :
          :  accuracy                    1.0000000          :
          :  -> integral cutoff          0.2500000E+02      :
          :  -> integral neglect         0.1000000E-07      :
          :  -> SCF convergence          0.1000000E-05 Eh   :
          :  -> wf. convergence          0.1000000E-03 e    :
          :  Broyden damping             0.4000000          :
          :  net charge                          0          :
          :  unpaired electrons                  0          :
          ...................................................

 iter      E             dE          RMSdq      gap      omega  full diag
   1    -39.6313154 -0.396313E+02  0.443E+00    3.95       0.0  T
   2    -39.7374289 -0.106113E+00  0.246E+00    2.95       1.0  T
   3    -39.7405672 -0.313825E-02  0.119E+00    2.42       1.0  T
   4    -39.7430635 -0.249633E-02  0.616E-01    2.44       1.0  T
   5    -39.7474276 -0.436409E-02  0.190E-01    2.35       1.0  T
   6    -39.7474509 -0.233477E-04  0.792E-02    2.39       1.0  T
   7    -39.7474847 -0.337937E-04  0.334E-02    2.40       1.0  T
   8    -39.7474887 -0.393484E-05  0.156E-02    2.39       1.3  T
   9    -39.7474890 -0.328581E-06  0.437E-03    2.40       4.5  T
  10    -39.7474891 -0.101904E-06  0.232E-03    2.39       8.4  T
  11    -39.7474891 -0.128983E-07  0.917E-04    2.39      21.4  T
  12    -39.7474891 -0.132122E-08  0.290E-04    2.39      67.5  T

   *** convergence criteria satisfied after 12 iterations ***

         #    Occupation            Energy/Eh            Energy/eV
      -------------------------------------------------------------
         1        2.0000           -0.7418375             -20.1864
       ...           ...                  ...                  ...
        29        2.0000           -0.4575281             -12.4500
        30        2.0000           -0.4417217             -12.0199
        31        2.0000           -0.4245290             -11.5520
        32        2.0000           -0.4184645             -11.3870
        33        2.0000           -0.4050190             -11.0211
        34        2.0000           -0.4038999             -10.9907
        35        2.0000           -0.3547141              -9.6523 (HOMO)
        36                         -0.2667082              -7.2575 (LUMO)
        37                         -0.1991490              -5.4191
        38                         -0.1830431              -4.9809
        39                         -0.1389469              -3.7809
        40                         -0.0832134              -2.2644
       ...                                ...                  ...
        67                          0.6418395              17.4653
      -------------------------------------------------------------
                  HL-Gap            0.0880059 Eh            2.3948 eV
             Fermi-level           -0.3107112 Eh           -8.4549 eV

 SCC (total)                   0 d,  0 h,  0 min,  0.043 sec
 SCC setup                      ...        0 min,  0.000 sec (  0.514%)
 Dispersion                     ...        0 min,  0.000 sec (  0.424%)
 classical contributions        ...        0 min,  0.000 sec (  0.072%)
 integral evaluation            ...        0 min,  0.019 sec ( 44.738%)
 iterations                     ...        0 min,  0.013 sec ( 31.377%)
 molecular gradient             ...        0 min,  0.010 sec ( 22.398%)
 printout                       ...        0 min,  0.000 sec (  0.433%)

         :::::::::::::::::::::::::::::::::::::::::::::::::::::
         ::                     SUMMARY                     ::
         :::::::::::::::::::::::::::::::::::::::::::::::::::::
         :: total energy             -39.315456081906 Eh    ::
         :: gradient norm              0.043281328039 Eh/a0 ::
         :: HOMO-LUMO gap              2.394761607782 eV    ::
         ::.................................................::
         :: SCC energy               -39.747431737350 Eh    ::
         :: -> isotropic ES            0.062444362404 Eh    ::
         :: -> anisotropic ES         -0.001668462344 Eh    ::
         :: -> anisotropic XC          0.023379231045 Eh    ::
         :: -> dispersion             -0.021593692180 Eh    ::
         :: repulsion energy           0.431975655444 Eh    ::
         :: add. restraining           0.000000000000 Eh    ::
         :: total charge              -0.000000000000 e     ::
         :::::::::::::::::::::::::::::::::::::::::::::::::::::

           -------------------------------------------------
          |                Property Printout                |
           -------------------------------------------------

    * Orbital Energies and Occupations

         #    Occupation            Energy/Eh            Energy/eV
      -------------------------------------------------------------
         1        2.0000           -0.7418375             -20.1864
       ...           ...                  ...                  ...
        23        2.0000           -0.4953121             -13.4781
        24        2.0000           -0.4877269             -13.2717
        25        2.0000           -0.4824116             -13.1271
        26        2.0000           -0.4773758             -12.9901
        27        2.0000           -0.4758641             -12.9489
        28        2.0000           -0.4683718             -12.7450
        29        2.0000           -0.4575281             -12.4500
        30        2.0000           -0.4417217             -12.0199
        31        2.0000           -0.4245290             -11.5520
        32        2.0000           -0.4184645             -11.3870
        33        2.0000           -0.4050190             -11.0211
        34        2.0000           -0.4038999             -10.9907
        35        2.0000           -0.3547141              -9.6523 (HOMO)
        36                         -0.2667082              -7.2575 (LUMO)
        37                         -0.1991490              -5.4191
        38                         -0.1830431              -4.9809
        39                         -0.1389469              -3.7809
        40                         -0.0832134              -2.2644
        41                         -0.0070346              -0.1914
        42                          0.0010242               0.0279
        43                          0.0053370               0.1452
        44                          0.0192327               0.5233
        45                          0.0695257               1.8919
        46                          0.0932170               2.5366
       ...                                ...                  ...
        67                          0.6418395              17.4653
      -------------------------------------------------------------
                  HL-Gap            0.0880059 Eh            2.3948 eV
             Fermi-level           -0.3107112 Eh           -8.4549 eV

     #   Z          covCN         q      C6AA      α(0)
     1   6 C        3.787    -0.110    22.618     6.774
     2   6 C        3.890     0.067    19.416     6.264
     3   6 C        3.777    -0.100    22.443     6.749
     4   6 C        2.913     0.064    26.556     8.450
     5   7 N        1.836    -0.113    24.238     7.296
     6   8 O        1.771    -0.213    17.522     5.652
     7   6 C        2.642     0.398    20.287     7.368
     8   8 O        0.858    -0.444    22.575     6.370
     9   7 N        2.681    -0.180    24.892     7.410
    10   6 C        3.692    -0.047    21.597     6.650
    11  16 S        2.067    -0.198   149.455    20.576
    12   6 C        3.745    -0.049    21.520     6.617
    13   1 H        0.925     0.042     2.425     2.435
    14   1 H        0.925     0.049     2.331     2.387
    15   1 H        0.925     0.045     2.377     2.411
    16   1 H        0.925     0.071     2.079     2.255
    17   1 H        0.925     0.045     2.389     2.417
    18   1 H        0.925     0.039     2.460     2.453
    19   1 H        0.925     0.067     2.122     2.278
    20   1 H        0.860     0.198     1.116     1.655
    21   1 H        0.925     0.089     1.890     2.150
    22   1 H        0.925     0.057     2.237     2.339
    23   1 H        0.925     0.058     2.226     2.333
    24   1 H        0.926     0.062     2.178     2.308
    25   1 H        0.925     0.047     2.354     2.399
    26   1 H        0.925     0.056     2.242     2.341

 Mol. C6AA /au·bohr⁶  :       7096.048345
 Mol. C8AA /au·bohr⁸  :     175669.027956
 Mol. α(0) /au        :        128.339665


Wiberg/Mayer (AO) data.
largest (>0.10) Wiberg bond orders for each atom

 ---------------------------------------------------------------------------
     #   Z sym  total        # sym  WBO       # sym  WBO       # sym  WBO
 ---------------------------------------------------------------------------
     1   6 C    3.995 --     2 C    1.006    14 H    0.985    15 H    0.982
                            13 H    0.979
     2   6 C    3.977 --     1 C    1.006     4 C    1.003     3 C    0.991
                            11 S    0.912
     3   6 C    3.991 --     2 C    0.991    17 H    0.981    16 H    0.979
                            18 H    0.979
     4   6 C    3.968 --     5 N    1.856     2 C    1.003    19 H    0.947
     5   7 N    3.013 --     4 C    1.856     6 O    0.994
     6   8 O    2.292 --     7 C    1.004     5 N    0.994     8 O    0.105
     7   6 C    3.939 --     8 O    1.628     9 N    1.263     6 O    1.004
     8   8 O    1.983 --     7 C    1.628     9 N    0.182     6 O    0.105
     9   7 N    3.439 --     7 C    1.263    10 C    1.002    20 H    0.920
                             8 O    0.182
    10   6 C    3.959 --     9 N    1.002    22 H    0.978    23 H    0.978
                            21 H    0.976
    11  16 S    2.078 --    12 C    1.013     2 C    0.912
    12   6 C    3.980 --    11 S    1.013    26 H    0.983    25 H    0.982
                            24 H    0.977
    13   1 H    0.998 --     1 C    0.979
    14   1 H    0.998 --     1 C    0.985
    15   1 H    0.998 --     1 C    0.982
    16   1 H    0.995 --     3 C    0.979
    17   1 H    0.998 --     3 C    0.981
    18   1 H    0.998 --     3 C    0.979
    19   1 H    0.993 --     4 C    0.947
    20   1 H    0.961 --     9 N    0.920
    21   1 H    0.992 --    10 C    0.976
    22   1 H    0.997 --    10 C    0.978
    23   1 H    0.996 --    10 C    0.978
    24   1 H    0.995 --    12 C    0.977
    25   1 H    0.998 --    12 C    0.982
    26   1 H    0.997 --    12 C    0.983
 ---------------------------------------------------------------------------

Topologies differ in total number of bonds
Writing topology from bond orders to xtbtopo.mol

molecular dipole:
                 x           y           z       tot (Debye)
 q only:        0.393      -1.344      -0.718
   full:        0.937      -1.569      -0.620       4.904
molecular quadrupole (traceless):
                xx          xy          yy          xz          yz          zz
 q only:       13.363       8.285      -3.992       8.598       0.288      -9.371
  q+dip:       13.368       9.485      -3.244      10.646      -0.113     -10.124
   full:       12.888       9.517      -2.748      11.072      -0.817     -10.140


           -------------------------------------------------
          | TOTAL ENERGY              -39.315456081906 Eh   |
          | GRADIENT NORM               0.043281328039 Eh/α |
          | HOMO-LUMO GAP               2.394761607782 eV   |
           -------------------------------------------------

------------------------------------------------------------------------
 * finished run on 2025/04/11 at 16:15:24.515     
------------------------------------------------------------------------
 total:
 * wall-time:     0 d,  0 h,  0 min,  0.149 sec
 *  cpu-time:     0 d,  0 h,  0 min,  0.051 sec
 * ratio c/w:     0.343 speedup
 SCF:
 * wall-time:     0 d,  0 h,  0 min,  0.043 sec
 *  cpu-time:     0 d,  0 h,  0 min,  0.028 sec
 * ratio c/w:     0.653 speedup

