! r2scan-3c def2/J RI DEFGRID2 scfconv6 printgap
%output
    printlevel normal
end
* xyz 0 1
C -3.3337535978 -0.9015902277 0.4518503878
C -2.8169061762 0.4682727071 0.0259158464
C -1.4117904485 0.4170676496 -0.5723239937
C -0.3500185193 -0.0101346735 0.4406133119
C 1.0454375069 0.216909098 -0.0793131646
O 1.3656012168 1.0703206148 -0.8795683376
O 1.9029108124 -0.6357228056 0.4723205743
C 3.2911588664 -0.5480699528 0.1331702148
H -3.2939193731 -1.5978671725 -0.3825765362
H -2.74295573 -1.3059600198 1.2688889133
H -4.365654671 -0.8255495985 0.7852664721
H -3.4924141408 0.8849601954 -0.723572075
H -2.8199787359 1.1423100227 0.884705682
H -1.1415697591 1.4049664757 -0.9516281035
H -1.4001016913 -0.2727547068 -1.4185419974
H -0.4442103973 -1.0586430751 0.7187370893
H -0.4487192512 0.5920103489 1.3479371911
H 3.5635297311 -1.4505438757 -0.4116520726
H 3.8486668781 -0.4848901312 1.0651201084
H 3.466141169 0.3339752317 -0.4837367652
*
