17
 xtb: 6.7.1 (edcfbbe)
C           -1.85698861570105       -1.00045061530716       -0.42945949017297
C           -2.08007842694862        0.45772026724456       -0.03622017430197
C           -0.92477298243743        1.08752948405582        0.74589550997978
C            0.39346477413607        1.12416372294393       -0.03139046652190
C            1.16269911593329       -0.16435882524040       -0.01145353342826
O            1.20851281940310       -0.94634324982219        0.92262877408351
O            1.87432780847327       -0.35899476827823       -1.14783747192684
H           -1.00982079744841       -1.11339166456763       -1.11563881297443
H           -1.66330198013590       -1.62371599129326        0.45038373668228
H           -2.73803421642093       -1.40291166140026       -0.93964525761966
H           -2.98879185930610        0.53150644202684        0.57331893278530
H           -2.26271970637753        1.05403225620119       -0.93965279114324
H           -1.19333649895851        2.11727026310042        1.00304325211711
H           -0.77296042460366        0.55454940715758        1.69182522922683
H            1.07396516582649        1.85713275847112        0.42439151217021
H            0.23938415271393        1.44309827012267       -1.06663831714078
H            2.39092829465184       -1.17753436156800       -1.04707829710051
